Se W 
 1.0000000000000000
    25.9222704130827459    0.0000000000000000    0.0000000000000000
   -12.9611352065413783   22.4493447014993883    0.0000000000000000
     0.0000000000000000    0.0000000000000000   24.7171056087856371
 Se  W  
 244 122
Cartesian
  8.1521317457192541 21.0553976600299464 17.4609036219654818
 -2.6675946242600013 13.0696934230889958 10.7047783066112032
 -2.6550220802885329 13.0718993128855168  7.3462193915303295
  0.1062388131684211 14.9048927936184867 10.7153658874235180
  0.1062388131683899 14.9048927936184477  7.3538466247462821
  2.8897747344340359 16.7339882835409171 10.6991589143599395
  2.8641789089167471 16.7264052635461766  7.3407931247845308
 -5.4215204103040406 11.2249273936043537  7.3386173694798238
  5.6651307619595492 18.5660882221271102 10.6591710020313304
  8.4236764920060505 20.4065811099560754 10.6107474205171091
  8.3821777347674171 20.3959308874335186  7.2552532612634160
 -5.6294271441222428 14.5652977773494516 10.6871529909006799
 -5.6090018019875840 14.5386794018447176  7.3288194470177865
 -2.8695723069973917 16.4009578684042445 10.6991589192398351
 -2.8502073063627900 16.3825827436212279  7.3407931245425422
  5.6226011632153501 18.5530045255329341  7.3019690116302733
 -0.0961737442443817 18.2247027016877894 10.7047783061862756
 -5.4253753880075282 11.2262823469526456 10.6963052617038485
 11.3952256887099743 18.9580536429691584 10.5950421309209979
 11.6140031470296989 15.6558363682051080 10.6398048201957440
 11.6024319409942454 15.6126478460463005  7.2835992741733069
 14.3631900878339636 17.5082896189394113 10.6116297948886213
 14.3709210143966022 17.4649780020127494  7.2562019871871311
 -2.4667768070542908  9.7354504992459052 10.6822447699400147
 -2.4649991784637844  9.7649101895723049  7.3241652181208705
 11.3775865823023761 18.9283664351503980  7.2398659353285142
  0.2985140121271999 11.5797322287506130 10.6991589150203161
  3.0824848082773864 13.4202822561448105 10.7047783061431225
  3.0742881790312815 13.4300674532577649  7.3462193910633165
  5.8696149758964085 15.2613170472258215 10.6822447692517102
  5.8432133185100037 15.2481266764630412  7.3241652181488526
  8.6422772047348015 17.1072993641398305 10.6379089840410881
  8.6109050583414408 17.0793114200665848  7.2817290225338995
  0.3047448372465035 11.6056903735123331  7.3407931243033415
 -0.1005496593518652 18.2127116143283061  7.3462193900373114
  2.6799738801480002 20.0419227284027954 10.6871529914306631
  2.6467090196178726 20.0375430509995631  7.3288194469989039
 21.3848116999682283  1.9200895767585120 14.1063581900129140
 -3.2794111420382777 21.7513928512342147 17.3979422686808753
 -3.3095985251484690 21.7521036337603881 14.0402913432837639
 12.6443101101088153  0.7946152794836090 17.3784882401442005
 12.6474110226097594  0.7919542476009249 14.0208003471652276
 15.6078442263524089  2.2891276369732716 17.3882861612690505
 21.3433129419716856  1.9307397996038012 17.4618523472857490
 15.6411090861290294  2.2847479589735293 14.0299526180021417
 18.6262659695304862  3.7605824651087789 14.0579346047742213
 21.5720402647556035  5.2473592651061720 17.4353765866124171
 21.6034124139342794  5.2193713221078886 14.0791966225073377
 -9.0138654542459253 22.1215859121717813 17.4772396749261105
 -9.0483948841654094 22.1211536031029361 14.1220634889900882
  6.9319391286924752  1.1437301874470556 17.4353765861534633
 18.5837363692555613  3.7736661600188377 17.4151365973777139
 18.4048104102277179  0.4583574592311485 14.0679111409051529
 18.3575653913489667  0.4549149657504651 17.4242993628521354
  2.4561253819950886 21.4280848967977846 14.0283882377201152
 -8.5929783753729918 16.0455380828182896 10.6491944678335848
 -8.5723371529319827 16.0029014499903077  7.2928062458196079
 -5.8438954096701385 17.8884367234134807 10.6591710048494654
 -5.8112997982617607 17.8581468595384720  7.3019690116394038
 -3.0841217259569560 19.7179108340995590 10.6822447689749147
 -3.0594977015670244 19.7016415148374548  7.3241652181488526
 -8.8170818724929365 19.3571609604391135 10.6107474205639001
 -8.7871091305390383 19.3265470941464521  7.2552532611894591
 -11.7881480736015352 20.8085734662013380 10.5769275223576784
 -11.7780236811880812 20.7902038868460295  7.2214506925984709
 11.1451989770205113 22.2543104719955771  7.2214506929364575
  8.1935061673653529 21.0703582931381526 14.1054758182761795
 24.1063341835642930  0.0723602145551777 17.4956549137871811
 24.1273049013392011  0.0727770233067681 14.1401780913956099
  2.4246369975785558 21.4176320233659290 17.3866248832390866
  8.8309560202646491 13.7770867884873081  7.3191633394345574
  8.8454341563013248 13.8035852232207965 10.6768142640264898
  6.0570619464932083 11.9576955800610296  7.3386173684909766
  6.0578160112247392 11.9536795952455162 10.6963052601472448
 12.4258846196250303  2.4031415754339198  7.3459926714913957
 15.1956769740356368  4.2110869470501013 10.7056604850864687
 15.1714380765517713  4.2285119611064585  7.3474098081097798
 17.9555489782503450  6.0438039827303411 10.6890215081900646
 17.9263915987367177  6.0647738760496823  7.3312119357135996
 20.7051512217305529  7.8871814038948473 10.6768142640229478
 12.4234335942700955  2.3924344156641761 10.7036885907739592
 20.6894419735677353  7.9129690526294416  7.3191633395901912
  3.9472697533402590  0.2050847750391502  7.2398659348789263
  6.6631556400346872  2.0460925597413278 10.6398048195711858
  6.7063435993831098  2.0576658606841689  7.2835992743734099
  9.4299261282916902  3.8774811557411977 10.6890215077849735
  9.4626652783146739  3.8922472412659026  7.3312119354236680
 12.2089029318978302  5.7045722216335930 10.7202766339847493
  3.9127403222106647  0.2055170840680493 10.5950421204181406
  9.6817240664782513  0.5752778358063495  7.3191633394625768
  9.6515366815486878  0.5745670510459369 10.6768142638651788
 -6.0291960789863372 21.1829404985278593  7.2817290222408131
  5.4436752036500851 21.8683132269032967 10.6491944681339774
  5.3964301856911829 21.8717557206127111  7.2928062459835532
 21.1546413742914616  1.2563123934313856 10.6116297917129980
 21.1132669500729868  1.2712730276504463  7.2562019863837390
 23.8941560503103965  3.1017629518058003 10.5950421307451332
 23.8772657259699415  3.1318824712834599  7.2398659340219513
 -0.3137241836127142 21.5347164387355861 10.6963052612619123
 -0.3168250965153060 21.5320554071571415  7.3386173692817502
 15.4172605884785483  0.8985857934745661 10.6887173711585142
 15.3857722036382274  0.9090386630240042  7.3304807254002000
 18.1766694795527179  2.7249303012817943 10.6625009477071409
 18.1346117941175109  2.7454386698358348  7.3055401089402237
 20.9249632714021843  4.5634047539017759 10.6398048166705461
 20.8933465165243746  4.5950199705911210  7.2835992749911975
 -6.0691204234274352 21.1961156065316203 10.6379089865034917
 12.2160536758561378  5.7146448477252285  7.3609719343011619
  6.8920147821641899  1.1305550839464873 14.0791966240403017
 14.9837532984635846  7.5369229581794830 10.7202766359723629
 17.7448834480575748  9.3787808647604418 10.7036885892770268
  6.2431806629926676  8.6483124791959494 10.6887173709518208
  6.2679773061939823  8.6703557845176267  7.3304807259873490
  9.0338050166200929 10.4941183984558180 10.7036885906827806
  9.0418521761697086 10.4866421687957043  7.3459926706255025
 11.8166469509263763 12.3440485405520501 10.6890215077961930
 11.8130651831759490 12.3083125622500713  7.3312119377756622
  3.4946234054781184  6.8400212106431271  7.2928062458278147
 14.5803156247720391 14.1949813522819994 10.6625009473952037
 -2.2544403433145614  6.4112634111512037 10.6379089846118884
 -2.2629925414797918  6.4524264619885647  7.2817290226072471
  0.4974810857031198  8.2601534358233053 10.6591710046909451
  0.5074150742852438  8.3035269970857097  7.3019690114869187
  3.2681697035676986 10.1074578758595841 10.6871529908927076
  3.2810092205502470 10.1384559281833742  7.3288194470116599
 14.5835836963039736 14.1483041448674438  7.3055401088369383
  3.4680196090681394  6.8008270715210291 10.6491944677477175
  0.7236478349501758  4.9922003991684161  7.2552532614457936
  0.7121218228620562  4.9509363104323656 10.6107474192722488
 17.7343852632135430  9.3755499353889427  7.3459926699514444
  0.9406948194559648  1.6522112508680902 10.5769275165192980
  0.9515411442635645  1.6701640210116029  7.2214506937638552
  3.6842905935391199  3.5007316664604224 10.6116297910089923
  3.7179340935089549  3.5290826513134741  7.2562019877765565
  6.4451369570456585  5.3454220278819102 10.6625009478479100
  6.4839265680689682  5.3715908648585948  7.3055401085316456
  9.2226826203896834  7.1839589403505064 10.7056604854993456
  9.2498925733460009  7.1962379350611956  7.3474098075443992
 12.0094658288413427  9.0238384992008545 10.7202766357014703
 12.0146136071670249  9.0126094607950709  7.3609719322363363
 14.7837624645239334 10.8702877913266747 10.7056604876559067
 14.7807914099317905 10.8405837835278316  7.3474098063052393
 17.5416808090806740 12.7184354076591148 10.6887173721086270
 17.5483725483027015 12.6859392323847615  7.3304807253877131
 14.9714547762489438  7.5380793705929685  7.3609719362440256
  9.9016375050073275  2.6250291716750755 17.3929403907813551
 11.1661696944103923 22.2538936641673075 10.5769275182894926
 -0.7450815311688549 16.6120258387300872 17.3561336762118898
 10.4961360277677400 12.5617604967839558 17.3929403928593018
 10.9161305191296467 19.1947882158076197 17.4772396744662757
  7.5357598184014858 11.1003883398026097 14.0208003479745447
  7.5396147960750666 11.1017432932594247 17.3784882401155514
 10.9330208423176369 19.2249077346261110 14.1220634855921841
  4.5805456021584883  9.6082352787546554 14.0283882374173139
  4.5872373421099955  9.6407314547808021 17.3866248825489187
 -6.6931579003861676 13.6563149026217392 17.3866248823313043
  1.6191804184836460  8.1316893347821626 14.0546046611033635
 -6.7179545434579282 13.6783582076193149 14.0283882384442471
  1.6224484896578033  8.1783665415508278 17.4115654998428830
 -1.3471320614302487  6.6708343190714112 14.0773007879927086
 -1.3587032648606685  6.7140228399184183 17.4335063342438481
 -3.7112426331964210 15.1304327513296695 17.3696958017302592
 16.2293049099074231 12.2192128110366340 14.0299526178709559
 -3.7384525861121394 15.1427117463829752 14.0114451241382003
 16.2421444280678529 12.1882147583913127 17.3882861621436717
 13.2596492181503454 10.7469384579391658 14.0179466910066601
 13.2658800445165070 10.7209803132518537 17.3763124870004795
 -0.7522322747059291 16.6220984648086407 13.9968289733983280
 10.2935405823185047  9.2569772638156174 14.0123273003143911
 10.3061131262620194  9.2547713736414909 17.3708862155864985
  2.2103028699855027 18.0981587258934162 17.3696958011290228
  7.3317080625180093  7.7613729117210468 14.0299526186355212
  7.3521334042835811  7.7879912846104391 17.3882861621360760
 10.4943583991004008 12.5912201874598075 14.0348608399747192
  2.2345417676058572 18.1155837389369516 14.0114451232806427
  7.9638280669179817 17.7632659328872862 14.0773007877801248
  7.9322113106312209 17.7316507165784998 17.4335063342549113
 13.6847830401771535 17.3344702864562485 17.4618523480168157
 -3.9192830303105293 11.8400285181086620 17.3711129388807350
 -3.9273301898932815 11.8325522882352416 14.0134170186369378
 10.7066948610904813 15.9154072752008471 14.0791966223702119
 10.6981426664010062 15.8742442259706351 17.4353765868321879
  7.7440160152081940 14.4394892838925024 14.0402913447214495
 -0.9465215994360749 13.3140612261006819 17.3561336745535577
  7.7283067674622812 14.4137016341571851 17.3979422707224245
 -0.9516693777305389 13.3028321873461763 13.9968289722370667
  4.7837482416653945 12.9478898215793343 14.0134170161775291
  4.7732500570720582 12.9511207515290288 17.3711129376578128
  1.8226272573127040 11.4563828956800648 14.0114451231355872
  2.0103195698344662 14.7885913156823321 17.3561336764042657
  1.8196562032291623 11.4860869032910493 17.3696958003993132
  2.0226180919478289 14.7897477288043593 13.9968289714195233
 -1.1444882535776710  9.9826221457802440 14.0280841006649020
 -1.1480700240994115 10.0183581237325701 17.3858936709899865
  4.9652563918530275 16.2618968111015718 17.3858936730591473
 -4.1157010508993315  8.5230854622098651 14.0402913433266914
 -4.1301791859216639  8.5495838962830479 17.3979422707094287
  9.8770134805495786  2.6087598536525300 14.0348608399651571
  4.9944137718874524 16.2828667035961736 14.0280841008458665
 16.4291548173517903 15.5258436146324392 14.0679111411541928
 16.4557586122179735 15.4866494760339943 17.4242993630174539
 13.4586162913300704 14.0665172508129324 14.0579346047278921
 13.4685502811573308 14.0231436913769425 17.4151365968825687
  4.3681568332556804  6.2811326036150854 14.0679111405296737
 13.6732570266422808 17.3757343754664220 14.1063581897533616
  4.3887980530232023  6.3237692369308354 17.4242993627000224
 -3.5312090780669614 18.4491895311020890 14.0280841012227526
 13.0673740197096855  7.4217778931186231 14.0017397147376812
 13.0673740197097334  7.4217778931187004 17.3632589848389465
 10.0915628982831400  5.9257128157042329 14.0179466926191019
 -0.5352505867956061 19.9235291111252728 17.3711129384038045
 -0.5377016121201602 19.9342362713191186 14.0134170186567708
  7.1172397972107042  4.4382339648919276 14.0579346047544096
  7.1498354084768074  4.4685238275024499 17.4151365971288143
  4.1440533343484471  2.9695097248079914 14.1063581904932338
 -9.2432011128875722 18.7975880365311596 17.4609036227148842
  4.1740260749437725  3.0001235928432379 17.4618523480418659
 -3.4984699286445906 18.4344234463952041 17.3858936708739691
 -9.2768446131123365 18.8259390193996090 14.1054758185976770
  1.1831115253191329  1.5364667999447092 17.4956549170975109
 -6.2547916075110415 20.2690048270035419 17.4335063342099836
 18.8307501806844186  7.0653536394011329 14.0348608393862726
 18.8043485251777369  7.0785440115682796 17.3929403926289332
 -6.2979795662034324 20.2805781284092426 14.0773007871807696
 15.8509099413289540  5.5926824037279559 14.0179466939946007
 15.8253141151950008  5.6002654241903826 17.3763124860523703
 13.9126763508326849 20.6565066653344722 17.4956549149281031
 12.8649614624664324  4.1019679845941797 14.0123273031952387
 13.9018300259098897 20.6744594359685294 14.1401780955218523
 12.8605855475110875  4.1139590724629462 17.3708862176626120
  1.1729871333026514  1.5180972212397159 14.1401780932452414
 16.0354233859715301  8.8966032334573839 17.3708862164483619
 10.1109278995994885  5.9440879430492037 17.3763124839244298
 16.0436200145888108  8.9063884304318783 14.0123273027064084
  5.1734765893457162 19.5812320165981539 17.4115654997668194
  1.4020548837878566  4.8183810674962206 14.1054758167867007
  1.4097858078697305  4.8616926839181644 17.4609036225325447
  5.2155342712519737 19.6017403857884709 14.0546046614199494
 -1.5659095185183789  3.3686170446824892 14.1220634771392550
 -6.4772086383491976 16.9550798211044977 17.4115654998921414
 19.0189512176001863 10.3729910923207864 14.0208003473709191
 19.0181971529669944 10.3689751066066300 17.3784882394545193
 -1.5835486247295267  3.3983042538803376 17.4772396746401810
 -6.5159982502694405 16.9812486593400749 14.0546046613700284
 -7.3456021999311920 18.6847445395205192 15.7596982850221057
  8.5987269001144959  2.1689351920499709  8.9909333708783539
 20.0667421592151634  2.8582201432995231  8.9574073271153267
  5.3975583606155348  6.9472717126415739  8.9888859208084231
 -1.8090128967687211 15.0208227290342720 15.6729374526709684
 16.8878150554062572  7.6568637828893280  9.0314333730981442
 10.0844335716761755 20.9320757778262170 15.8076102587467595
 -7.1186825921145944 21.9949041919637018 15.7747012706168181
  8.1729499218141459  8.7808312831771289  9.0257214347989532
  7.1056069532084187 19.4684505437168944 15.7596982853167500
 -7.5635768459177868 15.3793989745539026 15.7282196881368499
 17.3132162560012084  1.0167757799436237  8.9888859208270890
 -4.7881852843032418 13.5458394038486549 15.6913841736683537
 10.9535631491365795 10.6128339396654194  9.0314333731973644
  5.6155330070484819  3.6419261471328563  8.9574073265353089
  8.3803618031546758  5.4774133611395159  9.0098001405744554
 14.1253981439167422  5.8210862254036018  9.0441681567381700
 11.3607438542894066  3.9956359577839304  9.0314333715554191
 23.0455687785740508  1.3945949087592433  8.9094953512275445
 -10.1025521438908594 20.5326714459240414 15.8076102524526476
 -1.6003913521294280 18.3310347282616313 15.6856722342752981
  2.6318656381304786  5.1032246394264691  8.9421540175429701
  4.3520810492735196 21.3098949050801849 15.7282196877048772
 -4.3624083065015125 20.1577354948190184 15.7261722355274891
  1.3764761016894713 19.8231150936820946 15.6913841735798840
 13.9246016053106239  9.1383994964515267  9.0441681569156405
 14.3376113079290288  2.5035555925662933  9.0257214348387702
  2.8585830626683841  1.7939992392765103  8.9094953611373100
 11.1521223097981235  7.3058479581378695  9.0441681569031118
  5.8424526148864597  0.3317664946277642  8.9424043386894230
 16.6915608285208670 10.9809468043453915  9.0257214355008326
 13.7270110496272384 12.4530318060318237  9.0098001407159760
  4.1336139992104828 17.9917821753345031 15.7073054673470622
 11.5794775529950975  0.6820643778804686  9.0180021889453759
 17.0947492069850675  4.3348885117506057  9.0098001408226125
 -4.5807734029828309 16.8492573254938591 15.7073054681111390
 19.6480853719318773  9.5030785129468391  9.0180021890290689
 -0.1244013249048200  3.2501474331952518  8.9091556750149365
 19.8507928001391960  6.1782373177587555  8.9909333718612761
 22.8199647051362611  4.7098181150679892  8.9424043367014203
  1.1642629372869528 16.5055844612803817 15.6729374523449643
 -1.3816576529016351 21.6446063089385454 15.6991034194468604
  6.0696173503992501  2.8587507768686087 15.7620101227215237
 15.5930008439554193 17.2234460473213566 15.7749515924665236
 16.4913474434464682 14.3012861865099712  8.9888859200372213
 12.2105400656869385  9.1352584563339807 15.6836439762254951
 -9.8717466742326092 20.9320056926280138  8.9091556716217895
 15.1770848447938373 10.6115683421451568 15.6943167757985389
 -4.1373755884532466 21.3059177594318427  8.9877201234300426
 -6.8915178568238096 19.4679199101529576  8.9550954865648524
 18.1528190076009786 12.0792526038304082 15.7014275048247729
 -9.6450682196664825 17.6184698789779901  8.9421540168253930
 -2.4214304690021273  5.1029216163168956 15.7747012725639451
  1.5970077370849336 21.6377546979015136  9.0156781023590646
 -1.1606196621672309 19.8176258008360549  9.0201048798909635
  0.5587116867815994  6.5614832997344568 15.7596982846534850
 -3.9178108153936710 17.9910101005752203  9.0037688240481071
  3.5302122377946255  8.0253844996721000 15.7282196874463303
 -6.6738799642061366 16.1510845238381826  8.9869962717848431
  7.3319190210743121 21.9929838631624541  8.9421540172408278
 -12.8548963933730782 22.3880076941182047  8.8891261557975536
 20.2930542277832195  0.3336868244357920 15.7749515930285824
  9.2500790454487039  7.6539458380515084 15.6943167757774447
 23.2759996455325968  1.7941454317206456 15.8079499351007069
  9.0433243908824323  4.3356605860296193 15.7133367862221540
  3.0893885321878214  1.3946649936036375 15.8079499394589380
 12.0118733006427618  5.8229976401886985 15.6836439760223669
 20.7326314523761717  6.9472124996116600 15.7293854861518145
 17.7520548214948981  5.4799073428125116 15.7133367858393580
 14.9797086934927517  7.3070775822547676 15.6836439747747285
 14.7749581684229856  3.9998195001264567 15.6943167756304724
  6.4911601091433306  9.4971650863901456 15.7014275046008649
 17.9553548435316124  8.7810127744509057 15.6970007299880621
  8.8237596171226826  1.0207529255960690 15.7293854867942002
  0.3368350107594512  3.2499311573843257 15.8076102570196380
 20.5179497561816682  3.6430564071931193 15.7620101232453802
  3.3160669864268026  4.7082008075989812 15.7749515925075663
 17.5366671057662025  2.1731186555581328 15.7301093383826487
 14.5581429432501022  0.6889159884076788 15.7014275046014724
  6.2872552428887412  6.1755861621394086 15.7301093370792024
 11.8005155437540363  2.5090448858138523 15.6970007284340234
  4.5755318987998059 20.1535520300537137  8.9869962708514457
  9.4462516712380413 10.9752760192494456 15.6970007281659090
  1.8138229618577093 18.3268511873572564  9.0227888348544312
  4.9942196366694791 13.5456579125128354  9.0201048776889774
  2.2159496367952936 11.7151023449160885  9.0227888330799999
 -4.9865760722830093 10.2464798983086194 15.6991034198547332
 -0.5543923609745073  9.8769049350113960  9.0037688237823410
 -3.3154042177723624  8.0293024339166337  8.9877201218391676
 -2.0075720565731427 11.7138367477555452 15.6856722349622775
 13.5198468920184407 15.7651873869559367  8.9574073282006470
  7.7714962458224059 15.3794581870308864  8.9877201212055358
  0.9634663992256337 13.1882711905802719 15.6729374527501495
  7.9745591342869924 12.0801907890296576  9.0180021884551351
  3.9266798489332997 14.6698069041752603 15.6856722326955094
  5.1916838002548698 10.2474180824728354  9.0156781043765530
  6.8896575934560893 16.1484333691966953 15.7261722351790407
  2.4170645039716265  8.4100418260408727  8.9869962715147658
 -0.3465802538950835  6.5631441894777325  8.9550954848095810
  9.8588294992121650 17.6168525717568656 15.7747012729422771
 10.7526023574455785 13.9181611688656037  8.9909333722022158
 12.8367338818598089 19.0765232540150826 15.8079499350749213
 12.6145549532394554 15.7635264977068523 15.7620101226145781
  9.6457309901715611 14.2973682533670363 15.7293854872463399
 -0.9492619063433583 16.5036730464523522  9.0334616332489759
 12.4067428470083669 12.4497657512837083 15.7133367858393580
 -3.7110561609151329 14.6727248483603656  9.0227888326866470
 15.3781997099825354 13.9166288608699560 15.7301093368371809
 -6.4699750974581560 12.8295056004338655  9.0156781036884084
 10.3148644389704174 20.5325252555253179  8.9091556724579881
 -2.2085328494231300  8.4085095170686017 15.7261722364830145
 10.5397047382357449 17.2237490691270878  8.9424043364258257
  7.5568145495567052 18.6836142806042815  8.9550954853074032
  4.7909196151793374 16.8467633444976883  9.0037688232355571
  2.0185734871893630 15.0195931037069013  9.0334616328502886
  3.7304256224597010 11.3457238826891480 15.6913841757666574
 -0.7505951412949476 13.1914122301464243  9.0334616325898978
  6.6869501650076639 12.8235921739102707 15.6991034215067291
 -3.5148835360734001 11.3513946675126540  9.0201048798337009
 13.2979702174332441 19.0767395294630262  8.9094953607607490
  0.7658758437163385  9.8736388807215150 15.7073054691975944
 -12.8548963933728864 22.3880076941180413 15.8279794548248525
