Se W 
 1.0000000000000000
    41.5870338062495364    0.0000000000000000    0.0000000000000000
   -20.7935169031247575   36.0154277442543602    0.0000000000000000
     0.0000000000000000    0.0000000000000000   24.7171056087856371
 Se  W  
 628 314
Cartesian
 19.1240093401062765 35.1397392697284516 17.4873755263887745
 27.8781794934814648  6.7199790509011565 10.6742004540257938
 26.0550575066048395  9.4517951846343387  7.2741039168397972
 26.0168310408350187  9.4775825174095250 10.6297259377195878
 24.1863160176067353 12.2127936105805937  7.2427357381917927
 24.1539872303331755 12.2148114283600986 10.5974132104981500
 22.3098244678459103 14.9718123331056070  7.2431689488153586
 22.2932207579196167 14.9429060361223875 10.5978308908388268
 20.4402317024734188 17.7237452912724152  7.2741039173669497
 20.4370124516275595 17.6777465348663725 10.6297259347750011
 18.5862547754595866 20.4676487740007538  7.3142436023566928
 18.5905287948373470 20.4279497128025973 10.6720023853239052
 16.7447310308333783 23.2073529107825252  7.3395691000808672
 16.7529827812098269 23.1940205667410311 10.6991551577086135
 14.9023782921734593 25.9487311731667134  7.3405585987067150
 14.9152633968319233 25.9609707154281750 10.7001797283225990
 13.0464852080414140 28.6983471001622661  7.3310292000250303
 13.0660888496314893 28.7147251387119162 10.6898468639572819
 11.1818448159132018 31.4550163520800687  7.3329172393805875
 11.2063253181411095 31.4581891570674124 10.6914195581960048
 27.9057296049239554  6.6903196837498067  7.3165977614041591
 29.7378883372318548  3.9445206856291337 10.7009866215543266
 29.7390622897951538  3.9293162081326742  7.3426695440792153
 31.6003287558410229  1.1688621324241728 10.6949994355551361
 29.3218186866871484  9.7015826806252665 10.6720023851350447
 27.5025807113474414 12.4488094281022779  7.2859899644011330
 27.4597277120120076 12.4538522923755401 10.6426532178931641
 25.6328137237370655 15.2092283982906320  7.2748115555206612
 25.5971566698334740 15.1892455828081339 10.6303325581461845
 23.7634875403298302 17.9634993246558778  7.2889243002458874
 23.7402022571341504 17.9235624481779716 10.6454502921405272
 21.9064035901650023 20.7072120916870865  7.3165977614041591
 21.8944928795478724 20.6685233130287003 10.6742004542184965
  9.3247836819656165 34.2126670098474790  7.3485717349342918
 20.0613902510991835 23.4411785353582509  7.3336788470544052
 18.2176619385502363 26.1739368881107062  7.3276378458215161
 18.2319027799410449 26.1900628869415044 10.6862031338719135
 16.3619902460391273 28.9149088753934720  7.3091989477893247
 16.3903032673820412 28.9441572612500941 10.6665824532772184
 14.4944803389378443 31.6668689244818786  7.3007441806772002
 14.5354901439287651 31.6860730517260443 10.6574690693597649
 12.6283510047192795 34.4247678590924622  7.3138258381987358
 12.6719945129027849 34.4275731450348843 10.6711027991728766
 31.5715800031104159  1.1696779546269078  7.3368898520039059
 20.0611818914281379 23.4268056101260314 10.6920073744597062
 29.3583360913151346  9.6854345610943380  7.3142436020003778
  9.3450321121501503 34.2075014822751484 10.7075344211510295
 28.2806798401745887  0.9579061949292748 10.7176004736964074
 24.9769887981773877  0.7292216266534105  7.3490128018905336
 24.9649966188897388  0.7344209914043244 10.7081074911506064
 23.1361263471190775  3.4683333306298159  7.3187598048229026
 23.1265659006675541  3.5008184872441688 10.6763300119341942
 21.2811309893098439  6.2121456893041094  7.2748115554612705
 21.2816538919921641  6.2530170120999671 10.6303325577582743
 19.4093911950750666  8.9630668442485604  7.2427357384074531
 19.4273030706770591  8.9900554866746720 10.5974132132127856
 17.5323731430164393 11.7202697625121832  7.2431689493240174
 17.5657085852859041 11.7203436775089003 10.5978308968109491
 15.6652701706054351 14.4793548414372122  7.2748115559077400
 15.7004043233239070 14.4584663320893476 10.6303325581244028
 13.8165165079736845 17.2389053797463845  7.3146784929205904
 13.8356826271076052 17.2174665669423916 10.6723127968430251
 11.9836461830823318 19.9993734727537920  7.3361848542373655
 11.9750805887312488 19.9941298216230479 10.6949462806953939
 10.1472596806406159 22.7614808103755664  7.3291058031893614
 10.1174513432375814 22.7695576898575247 10.6873892188576711
  8.2937169268428814 25.5232669321347316  7.3093908427273604
  6.0134135467608152 33.9863596209465157 10.7102168354453742
  6.0231701519445648 34.0029227637684173  7.3510563172978278
  7.8670198445048287 31.2364453740227148 10.6955033888864826
  7.8747803648569699 31.2515870855798177  7.3370479820681949
 26.4455504949602407  3.7013465878180529  7.3354386111556238
 26.4293178091689036  3.7315169113600155 10.6934625029003314
 24.6010626733946580  6.4538941892618835  7.2889243007690938
 24.5781189625622716  6.4940282743341875 10.6454502920993814
 22.7370172714328014  9.2086468348035595  7.2431689499541196
 22.7202855397806189  9.2374792168505806 10.5978308893820348
 20.8597382945360259 11.9669096432607347  7.2233951736060487
 20.8597382945360259 11.9669096432607880 10.5784278178320701
 18.9835076711026751 14.7248684756079040  7.2427357358761606
 28.2784927279174880  0.9506858240406966  7.3566243796312616
 18.9979245819387152 14.6958620152965214 10.5974132184558485
 17.1380388809254036 17.4391968179348567 10.6426532173758766
 15.2769772163195121 20.2304590088304934  7.3278530425342208
 15.2854254000596761 20.2023183771810295 10.6859799326665446
 13.4416076126441499 22.9814376193745424  7.3450839992488550
 13.4369714275474159 22.9772397478791532 10.7066946569207548
 11.5967725014788012 25.7356812681634146  7.3391437840713287
 11.5853929858681681 25.7449000098866350 10.6985399949652251
  9.7373162518914835 28.4941790821840755  7.3306430657159591
  9.7276407989904907 28.4945862764505193 10.6892719337079551
 17.1209796301564587 17.4788300364241742  7.2859899651934965
  8.2574799776364234 25.5252792638935482 10.6667301670586898
 31.1835775283725987  6.9285317905149491 10.6920073741941870
 33.0467804073978542  4.1481829037921836 10.6823860613662536
 -8.5623930725252322 19.7709542318069929 17.3947230184448181
 -9.9850085605589367 22.7695576878089270 14.0297163904076747
 -10.0148168968981732 22.7614808096946071 17.3879998064481178
 -11.4529502029400536 25.7449000092510722 14.0185656131703897
 -11.4643297189980391 25.7356812680171885 17.3779618238716047
 -12.9336460656997705 28.7147251382780091 14.0272587454435111
 -12.9140424251795505 28.6983471003884780 17.3860764076996865
 -14.4030473618035622 31.6860730528382284 14.0596365392745088
 -14.3620375557903408 31.6668689226358637 17.4163614281047145
 -15.8534779532116676 34.6586890885952741 14.0966981509955467
 -15.8097228657442557 34.6513139401916135 17.4520777221123673
 38.4999747030620014  2.1108510051766141 14.1138719365962917
 38.4694743552880780  2.1279576787706085 17.4685710333983302
 37.0504198280785531  5.0866385175327586 14.0680727358865134
 37.0204578454564484  5.1174476848113892 17.4245469302360014
 35.5814169805134171  8.0643092084922170 14.0221061733758763
 35.5663360821283447  8.0887984468782310 17.3802157577428531
 34.1042857237855870 11.0446874689904551 13.9995051374091926
 34.1094451926787059 11.0501917491473467 17.3604812303695866
 -8.5344755307789768 19.7906849473407753 14.0364051297825885
 -7.1060929744876757 16.7780560539218087 17.3836982579686783
 -7.0895359972777010 16.8059034710149469 14.0253260976682999
 -5.6422929368345578 13.7977479995857699 17.3660492911640461
 -5.2638916303126226 19.5368804350657186 17.4255412939061891
 -6.6719929987790101 22.5517883901766645 14.0708732718765628
 -6.7147307989472118 22.5349563036845701 17.4275001984368032
 -8.1250371946153717 25.5252792631151486 14.0503754420243716
 -8.1612741456474041 25.5232669307022988 17.4077147661286951
 -9.5951980160479575 28.4945862762543811 14.0278336738804548
 -9.6048734692017010 28.4941790825089996 17.3864625429769610
 -11.0738825350290409 31.4581891554246553 14.0256860513295507
 -11.0494020333827390 31.4550163515640691 17.3841883693597374
 32.6399879767509375 14.0278959713392801 14.0089981151249461
 -12.5395517297504426 34.4275731455773908 14.0460028097158602
  0.2094309005079311  1.8624140649121628 14.1326694407529487
  0.2088280991088271  1.8836801980968370 17.4873755259738850
 -1.2288279429162239  4.8418697383974614 14.0966981492761310
 -1.2443184187046121  4.8834503309494721 17.4520777233814179
 -2.6856387761052218  7.8273720058352749 14.0460028088395283
 -2.7050310785774676  7.8665710372227524 17.4032797705952582
 -4.1585323241279584 10.8186417949206923 14.0095711869949362
 -4.1731300173749339 10.8335946859183867 17.3685338755192227
 -5.6328271378153065 13.8144790388044303 14.0068887786258998
 -12.4959082219846369 34.4247678596176385 17.4032797707860709
 31.1959206668748017  6.9211648839045417  7.3336788479007335
 32.6504868483306652 14.0201101215241621 17.3680928069508553
 31.1927038618145360 17.0065727798135349 17.3810926931049607
 28.9470314246281646 15.4305207661461736  7.3146784929912831
 28.9188818080369501 15.4246418271435388 10.6723127972933138
 27.0815272505342435 18.1876076799708137  7.3187598046920792
 27.0581745043066562 18.1630855155677686 10.6763300115443336
 25.2250197765076685 20.9371464372809690  7.3354386112279721
 25.2070078544084382 20.9080033557556497 10.6934625028624524
 23.3808363969997792 23.6754265090444740  7.3426695421570223
 23.3682559096744882 23.6668075976864962 10.7009866237356341
 21.5391888907094007 26.4086110182646472  7.3242838683983065
 21.5374332206943677 26.4305610793451891 10.6823860613690940
 19.6853355170084825 29.1470272746068417  7.2901113925749987
 19.6979951340998269 29.1843580831763845 10.6464191153567427
 17.8164732422985992 31.8952474454340518  7.2637262040069039
 17.8473130614681494 31.9249258939352956 10.6192869750858048
 15.9421656487865331 34.6513139399600902  7.2650278869652150
 15.9859207359077171 34.6586890892015305 10.6204074589289892
 34.8719061288894423  1.3960469487695104  7.2925586780533562
 34.9135686417034421  1.3855036916662324 10.6490328723796832
 33.0268932607289045  4.1576374788902832  7.3242838683924516
 30.7789679152314406 12.6767018508435374 10.6859799326680598
 30.8075625096749306 12.6699478771729588  7.3278530420497336
 32.6360793220811161  9.9099087829336021 10.6991551569539727
 32.6517513460048647  9.9103888367513857  7.3395691000778749
 29.7443960003524595 19.9941298214829750 14.0221593283691597
 29.7358304057823375 19.9993734727547299 17.3809207566258124
 28.2825051617127770 22.9772397479466548 14.0104109482176717
 28.2778689767069196 22.9814376194640246 17.3720216093498330
 -14.7828206140832652 25.9609707153970675 14.0169258811312805
 -14.7699355092977083 25.9487311725416241 17.3765470106391540
 -16.2578604857308271 28.9441572602046548 14.0505231552923373
 -16.2295474632177417 28.9149088752414869 17.4079066609910384
 -17.7148702783677265 31.9249258944395500 14.0978186285544815
 31.1907651258501915 17.0109602365188515 14.0229818029163020
 -17.6840304594062339 31.8952474437677260 17.4533794040238170
 -19.1341732657880037 34.8927372060633516 17.4873755263233583
 19.1421249513362035 35.1508943790332822 14.1326694336509764
 19.2666160482637032 34.8927372056641900  7.2297300827319519
 38.1853886732829366  1.6359068442467701  7.2485345774801457
 38.2154536620658121  1.6180461054274291 10.6032336697631546
 36.3253579911726234  4.3939134666796651  7.2901113928976065
 36.3513576111843122  4.3642845120121310 10.6464191152580341
 34.4844229789740240  7.1515012644219507  7.3276378474423485
 34.4912680833957310  7.1311053352470077 10.6862031330687373
 -19.1528916786413710 34.9028482305981385 14.1326694262783459
  6.4273273373748703 28.2831674240396573  7.3020030720485005
  6.3955108012928950 28.2646842438484072 10.6586084091403794
  4.5628745200390108 31.0370280327153552  7.3144881985868784
 -2.7041350339738393 16.0712247269625976  7.3093908428705365
 -2.6842738281100358 16.1016006797098683 10.6667301667040704
 -4.5688162786606377 18.8181233266215528  7.2896054092512514
 -4.5328703621634814 18.8467193029157229 10.6462323406673836
 -6.4398065595922702 21.5736248385576701  7.2915643150139617
 -6.3939371490123857 21.5841832850847197 10.6478208314862037
 -8.3005537004690222 24.3337801617213216  7.3144881985365222
 -8.2590890816905027 24.3303165478891721 10.6718338759742295
 -10.1423202117804347 27.0946952317339296  7.3370479820681949
 -10.1253268454535981 27.0955452805034831 10.6955033888607254
 -11.9720273506235095 29.8569824258755077  7.3329172405523053
 -11.9870153312680419 29.8765967594002610 10.6914195585741165
 -13.8118148198388848 32.6198826569002946  7.3007441806810593
 -13.8489509865351277 32.6457961249181778 10.6574690686138194
 -15.6705928723421017 35.3826236416061874  7.2637262030242828
 -15.7117150742500424 35.3944924836685217 10.6192869797242970
  3.2500022339607737  2.1279576793078321  7.2485345758061159
  3.2195018861499185  2.1108510052726062 10.6032336698856362
  1.3767612017909554  4.8834503307468475  7.2650278869787845
 -0.8478589342185279 13.3437505552778273 10.6892719347402956
 -0.8530493004980539 13.3355749640059376  7.3306430661913122
  0.9793541876800930 10.5813707574431071 10.6914195583002414
  0.9888467089550541 10.6041578956537617  7.3329172386702242
 -1.2438387787760574 19.0526165703625523  7.2640805131690973
 -1.2279545544816155 19.0896525393511922 10.6195230415169757
 -3.1190292772694432 21.8061650487727832  7.2482565240053098
 -3.0854071914570342 21.8235331165533353 10.6030069082675418
 -4.9912484439929621 24.5647364554647503  7.2652600635852638
 -4.9497627587794195 24.5571978151953196 10.6206730195384669
 -6.8478668619750769 27.3253739701437688  7.3020030722123748
 -6.8159516902983288 27.3070616306680911 10.6586084085997346
 -8.6856027767927095 30.0864026275531096  7.3306430660093618
  1.3612707254573946  4.8418697390249390 10.6204074581260883
 -8.6811176901543554 30.0778198426893653 10.6892719328870260
 -10.5409875627326848 32.8589312317077074 10.6898468633256307
 -12.3623024604336713 35.6131737014373115  7.3091989475693353
 -12.4017888180492015 35.6230693040062931 10.6665824533648834
  6.5685213740943640  2.3597881877625446  7.2901113931073827
  6.5298621379246722  2.3520863319350833 10.6464191149966414
  4.6990187436536521  5.1174476852673898  7.2925586781728562
  4.6690567580263691  5.0866385169694794 10.6490328724930432
  2.8374738625588334  7.8665710369321014  7.3138258385274613
  2.8180815610283245  7.8273720053285656 10.6711027993823038
 -10.5170019445396292 32.8501429992936522  7.3310292000934094
  0.6191050626257986 16.3444107995806363 10.6586084090486608
 -0.4840013442626357  7.6294050952147643  7.3007441806810593
 -2.3308190889737936 10.3676665739640317  7.3310292009182838
 -3.7898502765654882  7.3489301085126257 10.6665824531262174
 -5.6400028743717092 10.1352239802284139  7.3405585988277728
 -5.6358456721664272 10.1179453812453986 10.7001797295440078
 34.1076646738234146 12.8839352743217113  7.3450839960803247
 34.1063473027701534 12.8900492641613216 10.7066946607102853
 32.2541020814698243 15.6375989830726052  7.3361848525818951
 32.2538437437583809 15.6476388312100578 10.6949462821759962
 30.3906973810125969 18.3956887527766995  7.3360129154589666
 30.3935276621890047 18.3918160297797684 10.6941238053912002
 28.5332363452346129 21.1513971809106387  7.3490128031643387
 28.5347296530328016 21.1384119669033552 10.7081074912552250
 26.6906907591383877 23.8998513567690800  7.3566243796096575
 26.6833441783351795 23.8981352658804092 10.7176004746877442
 24.8544943732726011 26.6422525285858534  7.3368898516121490
 24.8408265185736852 26.6675575892090109 10.6949994358187315
 23.0082900112737931 29.3872342967007647  7.2925586776175013
 22.9965894823841523 29.4285867207029206 10.6490328722915208
 21.1438239766969751 32.1368644090727003  7.2485345760690771
 21.1442593369663037 32.1718318223104731 10.6032336700787884
 -3.8010236096238241  7.3880740962410592  7.3091989475962924
 -1.9369338157150533  4.5967382971453548 10.6192869791364313
 -1.9472161942217112  4.6382855893380697  7.2637262048779432
 -0.0769881189605659  1.8624140650242267 10.5844361828761411
 -2.3264371121895153 10.3425003034825078 10.6898468634242167
 -4.1717066093748416 13.1044875218757308  7.3391437840403499
 -4.1580331868817408 13.1097331008128233 10.6985399969224844
 -6.0226833511212101 15.8469026766845182  7.3291058029511760
 -6.0007844006728597 15.8686790147480519 10.6873892188380992
 -7.8863434262714893 18.6000018955503279  7.3223825894175008
 -7.8552973533402639 18.6143138389036906 10.6807004799851040
 -9.7501192297445822 21.3576438659726584  7.3334073509109370
 -9.7177241718534013 21.3580589193188217 10.6917795097920880
 -0.4878749831045724  7.5842874967912017 10.6574690694954288
 -11.5992416975467343 24.1154859111041304  7.3510563165344882
 -13.4316923083852586 26.8698949786210477  7.3485717342921903
 -13.4373430447587410 26.8900133968220878 10.7075344221016273
 -15.2671606927625714 29.6248177784283797  7.3138258377726029
 -15.2914118975501392 29.6612115217342449 10.6711027996678478
 -17.1202626763076324 32.3813924035402962  7.2650278866082623
 -17.1485272877735255 32.4155978448440223 10.6204074603095737
 -18.9915665578310531 35.1397392695270767  7.2297300828575635
 -19.0096821679403085 35.1508943782474574 10.5844361750514029
 -0.0763853159999757  1.8836801984860041  7.2297300818650267
 -11.5800192925888652 24.1153180147794011 10.7102168304129517
  0.6192036982348275 16.3076152796728699  7.3020030718925097
  2.4569711751242833 13.5841660197324074 10.6955033880925647
  2.4662040216029593 13.5698743559397030  7.3370479819739769
  3.0809644150685318 28.0234491274509629 10.6206730187328411
  1.2421363200399402 30.8056514022022334  7.2915643152856022
  1.2283454986215836 30.7606481027537164 10.6478208303486106
 -0.6098282545838267 33.5452005468817305  7.3223825893647678
 -0.6129567861367088 33.5111578881337309 10.6807004795076939
 18.3414666187584032  0.2637564736102817  7.3361848534116909
 18.3502905509538294  0.2589602767039113 10.6949462810649933
 16.4946751573367862  3.0003220440105887  7.3278530422306014
 16.5148215677396450  3.0217087012520301 10.6859799320655107
 14.6346240162819843  5.7476455953115506  7.3142436023436730
 14.6668674015162015  5.7711965360410415 10.6720023852462322
 12.7670816897759956  8.5031971539316729  7.3165977614041591
 12.8065425099451886  8.5122265660305310 10.6742004535743096
 10.9086446117243572 11.2622359042848661  7.3354386112688879
 10.9428892218729175 11.2612086624535479 10.6934625024543966
  9.0689897407729401 14.0201101219020341  7.3490128015152045
  9.0794886123422032 14.0278959713408291 10.7081074914419414
  7.2385357558910677 16.7780560539626791  7.3334073516883329
  7.2219787813769276 16.8059034701588921 10.6917795094392591
  3.1082359108051736 28.0556074657185093  7.2652600623865879
  4.9415915234500876 25.2924628189684491 10.6195230397951779
  4.9816077257558984 25.2972246651050270  7.2640805130647665
  6.8044357821620647 22.5517883892296780 10.6462323413356064
  4.5391426323910391 31.0028504279416950 10.6718338748172510
  2.7102476473927166 33.7804567541905740  7.3334073517042784
  2.6944095648378430 33.7521942837903666 10.6917795092247534
 21.6617447752885717  0.4984673971817349  7.3360129152184657
 21.6569757583419964  0.4979526637335923 10.6941238044839082
 19.8156669510144781  3.2313027831470977  7.3146784929581310
 19.8246504485199750  3.2586205353146265 10.6723127978982752
 17.9556545430767223  5.9730894650147937  7.2859899643047221
 17.9814482923142869  6.0076798174766788 10.6426532165025645
  5.3963344133274935 19.5368804351424572  7.2915643157757106
 16.0839256741122547  8.7251884550268510  7.2741039166974470
 14.2146646708458348 11.4833354154957661  7.2889243006219768
 14.2608936626449516 11.4831382073529848 10.6454502927910450
 12.3615612849158865 14.2447879160432223  7.3187598049722986
 12.3944744805325122 14.2368249277528953 10.6763300120776954
 10.5267727270917213 17.0065727798030011  7.3360129151414126
 10.5287114632127636 17.0109602361772545 10.6941238061800359
  8.6948358557448326 19.7709542318766758  7.3223825893490444
  8.6669183138441444 19.7906849467885237 10.6807004794642566
  6.8471735813216617 22.5349563036202838  7.2896054092439728
 16.1253713915944878  8.7453998790830614 10.6297259368655190
  5.3642558232973983 19.5713252857086317 10.6478208315150091
  3.5345600417783136 22.2964878160717603  7.2482565236369840
  3.5027078102056195 22.3169213610702251 10.6030069084639802
  0.2091202540589636 22.0504429151223285  7.2297640380498294
  0.2093359410922468 22.0708626475596965 10.5844662821957343
 -1.6693905186184976 24.8091028342097673  7.2297640337834252
 -1.6518143556038327 24.7987061758672702 10.5844662873412183
 -3.5391047736771251 27.5663154391040983  7.2640805121972658
 -3.5149727929198007 27.5340413148932370 10.6195230483267391
 -5.3909177203408989 30.3216650158921759  7.3093908426369225
 -5.3745419754816091 30.2892767299295826 10.6667301665152667
 -7.2264017180294831 33.0759878840341273  7.3391437825557269
  2.0674625186402316 19.3355097291140225 10.6206730198665653
 -7.2286956248557468 33.0615235637809732 10.6985399969941497
 -9.0807535501384571 35.8372405778244882 10.7001797293455336
  9.8771299665011085  2.5752907775670857  7.3276378453289288
  9.8560440212757428  2.5795607092332138 10.6862031334712810
  8.0131327319623935  5.3344804333264229  7.3242838680764848
  7.9950012573802027  5.3219849476906154 10.6823860610849035
  6.1531405071466461  8.0887984464162983  7.3368898512668954
  6.1380596085487911  8.0643092075318634 10.6949994349426980
  4.3055728003115012 10.8335946862415078  7.3485717325402398
  4.2909751071621569 10.8186417952027583 10.7075344211094663
 -9.0637112429752840 35.8322015208779945  7.3405585996500493
 -5.2318130394909979 19.5713252865443295 14.0692847780315180
  2.0816767069672286 19.2958127521768112  7.2652600626444022
  3.9363433535862407 16.5453484788512277  7.3144881982463374
  1.6589344380671009 25.0566109244340289  7.2297640386175406
  1.6411425879429407 25.0465878497288585 10.5844662852705280
 -0.2168665903474142 27.8135038097309391  7.2482565255953046
 -0.2186364461370444 27.7757021944347500 10.6030069085417864
 -2.0796931283580569 30.5630770429884393  7.2896054093496705
 -2.0729012430037881 30.5176489791658696 10.6462323371289340
 -3.9259121550536737 33.3077731871199347  7.3291058031259713
 -3.9180027685199832 33.2779199693247776 10.6873892193696172
 15.0299425975353707  0.0353560357266637  7.3450839960569052
  3.9186106222757782 16.5829896995102466 10.6718338751817594
 15.0358961534679363  0.0334399178358272 10.7066946611108751
 13.1901527799769180  2.7967995801123569 10.6991551555063324
 11.3219039658282679  5.5383855107531703  7.3336788476128731
 11.3344554632875525  5.5453915289876541 10.6920073750546472
  9.4593161966038917  8.2959862124161692  7.3426695422617163
  9.4730706371307871  8.2894006461705523 10.7009866233537263
  7.6100313963057369 11.0501917491648207  7.3566243781723548
  7.6151908652072917 11.0446874689953116 10.7176004743504940
  5.7747357194793718 13.7977479991090384  7.3510563165500669
  5.7652699202097315 13.8144790388143619 10.7102168333794534
 13.1827325068903249  2.7829871817682541  7.3395691000495011
 -3.8039005716510186 16.5453484791889416 17.4026174118234529
 19.2853344612431776 34.9028482309515269 10.5844361677297414
 17.1413576266198078  6.4940282747385556 14.0716553168141552
 12.3611404971431575  9.6854345607566525 17.4028620073248632
 25.5941051980126488  8.7453998791959773 14.0873796711288275
 10.9405086735278978 12.6767018496348918 14.0311256763594692
 10.9119140793131333 12.6699478769502818 17.3892525666952480
 27.0848525725316520  5.7476455951716980 17.4028620073118319
  9.4656328453019167 15.6476388316378614 14.0221593274528651
 12.3976579022204270  9.7015826829091303 14.0451032236030020
 27.0526091863886329  5.7711965359465776 14.0451032235470574
  7.9877401373724819 18.6143138387266696 14.0364051292934295
  8.0187862088600070 18.6000018949982824 17.3947230184904278
 28.5367440822575809  2.7829871822783678 17.3775365093704899
  6.5263799308761099 21.5841832836331413 14.0692847777635652
 28.5293238086421894  2.7967995800297722 14.0179504490777624
  6.5722493413916361 21.5736248374707102 17.4255412939261163
  9.4653745074239186 15.6375989831914968 17.3809207564792167
 25.6355509141741926  8.7251884540389000 17.4430016923895188
 13.8137469851279437  6.6903196836910936 17.4005078474024550
 13.8412970950066558  6.7199790516583642 14.0429051550866237
  6.9803096456737705 27.3253739707061776 17.4151025369064349
 21.2792448873866604 17.7237452897489014 17.4430016924002800
 21.2824641379757864 17.6777465347582776 14.0873796751690659
  5.5069847584445712 30.2892767291661400 14.0503754419303384
  5.5233605043278882 30.3216650166396384 17.4077147660572287
  4.0504455522015528 33.2779199693443886 14.0297163903086073
 22.7359689177703785 14.7248684750913608 17.4743698679101733
  4.0583549385160147 33.3077731865679638 17.3879998057355785
 22.7215520065769354 14.6958620149754768 14.1196924021164794
 16.7544799702548630  0.7344209913054629 14.0089981164140571
 16.7424877910698946  0.7292216265911249 17.3680928071563017
 15.2901587805627219  3.7315169116985798 14.0236431069916563
 24.1871034452741220 11.7202697630771855 17.4739366603085671
 15.2739260941162343  3.7013465882108498 17.3816669965800195
 24.1537680046010159 11.7203436754802066 14.1192747163671388
  5.0822055414348055 24.5571978167235798 14.0964325896592637
  6.9483944725297926 27.3070616291769390 14.0584971997323347
  5.1236912274709194 24.5647364565032191 17.4518455436190685
  9.2131963328931263 35.8372405778625946 14.0169258791358669
  9.0833972670549699  9.9099087828247381 14.0179504506886516
  9.0677252430444817  9.9103888368756436 17.3775365093718612
 21.6580863381011284 23.4411785355181799 17.3834267625577823
 21.6582946965228338 23.4268056103024449 14.0250982338103398
  7.6131292864831375 12.8900492642645474 14.0104109496756255
  7.6118119154717485 12.8839352742826971 17.3720216104044098
 20.1820433682548348 26.4305610791422403 14.0347195480644338
  6.1332271814675856 15.8686790147982499 14.0297163893937444
  6.1551261338929590 15.8469026774063266 17.3879998053813658
 23.1289477948706725 20.4279497129122873 14.0451032235347313
  4.6653131456930579 18.8467193018439225 14.0708732669178822
  4.7012590615028440 18.8181233268500669 17.4275001987315257
  3.2178499740872093 21.8235331167589557 14.1140986927400363
 24.5984969584628743 17.4788300364882403 17.4311156442821478
 23.1332218135048819 20.4676487734680954 17.4028620073068048
 10.5235559223445030  6.9211648840650177 17.3834267617148051
 10.5358990607256366  6.9285317910276412 14.0250982335820247
 20.1802876980758619 26.4086110178762787 17.3928217403263083
  3.6474155782233804 27.5340413147075651 14.0975825613168340
  3.6715475543463585 27.5663154392132235 17.4530250955244846
 17.2527054580045913 32.3813924030241296 17.4520777224408086
  2.2053440251204970 30.5176489789910725 14.0708732674906081
  2.2121359113725068 30.5630770430476417 17.4275001990297724
 17.2809700707476601 32.4155978463468060 14.0966981509605933
  0.7453995675467560 33.5111578884594579 14.0364051287769485
  0.7422710380081516 33.5452005472692392 17.3947230184448181
 18.7111865782245985 29.3872342968432960 17.4245469306226255
 13.4387967489257569  0.9579061949167293 13.9995051381351452
 13.4409838610983119  0.9506858240283307 17.3604812305900786
 18.7228871069897167 29.4285867215761598 14.0680727361788467
 15.0361324106495680 23.8981352658657364 13.9995051345335604
 11.9815882517547951  3.9445206855741146 14.0161189866839067
 11.9804142989732263  3.9293162082105653 17.3744360666057212
  9.1961540250892533 35.8322015212892069 17.3765470099782107
 19.8249837091821206 20.6685233133075172 14.0429051548099650
  8.4329964825411068 24.3337801628175328 17.4026174117904269
  8.3915318645304691 24.3303165478379597 14.0452717338788009
 18.9824593169830180  9.2086468346527752 17.4739366611853271
 20.8597382945361289 11.9669096432606974 17.4937104316353427
 20.8597382945360543 11.9669096432608288 14.1386777889877671
 17.5654893590424912 12.2148114277794537 14.1196923943291139
 17.5331605713472847 12.2127936101454395 17.4743698689855336
 16.1223199203502077 15.1892455851483863 14.0867730493820442
 18.9991910487334010  9.2374792170372455 14.1192747075519378
 22.3100853941576425  8.9630668438140848 17.4743698678727277
 22.2921735178485498  8.9900554865722935 14.1196923985948963
 14.6613020852255449 18.1630855137270935 14.0407755963015770
 14.6379493389225477 18.1876076826215858 17.3983458038410355
 13.1847469358325409 21.1384119668777082 14.0089981173135385
 23.7638220469378894  5.9730894651833868 17.4311156449301095
 13.1862402443368030 21.1513971815995312 17.3680928075828227
 16.0866628646467404 15.2092283979015548 17.4422940524134980
 19.4262558321844843 14.9429060352417657 14.1192747099943272
 20.4383455993590921  6.2121456895907006 17.4422940532137467
 20.4378226974568449  6.2530170120594377 14.0867730486952869
 13.5697858278566290 26.8900133970666992 14.0095711879291347
 13.5641350909099625 26.8698949782568661 17.3685338737179009
 16.4944568126544766 20.9371464382319949 17.3816669964928643
 12.1194581138158384 29.8765967603597815 14.0256860499836726
 12.1044701334792499 29.8569824257982717 17.3841883694025832
 16.5124687362684242 20.9080033562909051 14.0236431069653609
 10.6734303454673984 32.8589312323781542 14.0272587447148247
 10.6494447274048785 32.8501429997578711 17.3860764064728883
 17.9559890492978305 17.9634993246270120 17.4281813083507764
 23.3691860378560641  0.2589602769150470 14.0221593283146646
 23.3780099702327639  0.2637564736869105 17.3809207556006911
 17.9792743312574324 17.9235624478866455 14.0716553167138407
 21.8948261386830900  3.2586205357172853 14.0447928107123534
 21.9038096382236915  3.2313027822539713 17.4024271151830945
 19.4096521213588282 14.9718123324029158 17.4739366625282990
 23.7380282977799446  6.0076798166900325 14.0744523913997703
 11.7124620753704622 24.1153180142720238 14.0068887735007710
 11.7316844800695179 24.1154859110076956 17.3660492915907767
 25.2248014319690128  3.0003220442362695 17.3892525662514146
 15.7026455485524004  9.4775825160833840 14.0873796720152917
 15.6644190821588509  9.4517951854951239 17.4430016921856357
 16.8649822160059095 26.6422525290450771 17.3802157572495126
 14.2597488769816554 12.4538522923525843 14.0744523914639483
 14.2168958790750199 12.4488094281228037 17.4311156452948879
 16.8786500707173133 26.6675575894588661 14.0221061740790596
 12.8005947803831468 15.4246418294884222 14.0447928116400096
 12.7724451645366823 15.4305207671290745 17.4024271151704077
 18.3386401921074658 23.6754265092743452 17.3744360673834990
 11.3259489274692200 18.3918160294272504 14.0229818028760178
 11.3287792080583962 18.3956887527427000 17.3810926929697054
 18.3512206795351958 23.6668075976405738 14.0161189852904311
  9.8501669547690032 21.3580589194519348 14.0253260993429922
  9.8825620119040689 21.3576438661655921 17.3836982572425143
 19.8130729990628041 20.7072120913080511 17.4005078474379857
 15.4238546799339851 29.6612115209314560 14.0460028094270566
  3.2514720599448719 21.8061650491026917 17.4688490831536889
 15.3996034759932616 29.6248177787560465 17.4032797708352405
 -3.7861678385637045 16.5829896998233082 14.0452717329034762
 10.2577696283263773 27.0955452799226713 14.0216022194772432
 10.2747629949163972 27.0946952317071528 17.3800576257599104
 25.2046550213157232  3.0217087014592865 14.0311256759739074
  8.8135604741392601 30.0778198420988616 14.0278336744301146
  8.8180455602332959 30.0864026273806751 17.3864625433758384
 26.6895339917026639  0.0353560357741608 17.3720216106808110
  7.3611384077321604 33.0615235634360332 14.0185656131353831
 26.6835804356245738  0.0334399176359876 14.0104109486882979
  7.3588445012697656 33.0759878839143440 17.3779618235072384
 20.0625008307449662  0.4979526637096706 14.0229818028576876
 20.0577318135798244  0.4984673970620376 17.3810926922085258
 13.9442576029621659 32.6198826567189570 17.4163614281047145
 18.5929106884329336  3.5008184867344676 14.0407755974421100
 13.9813937690694932 32.6457961246683013 14.0596365403342745
 18.5833502423478869  3.4683333305033428 17.3983458038845633
 17.1184139170273539  6.4538941893890627 17.4281813083507764
 24.5814377088309648 17.4391968174453886 14.0744523911697019
 15.0287858299096335 23.8998513569266677 17.3604812314768715
  1.7842571380830126 24.7987061760498442 14.1326393273331874
 23.5018146506513510 26.1739368884862316 17.3894677632026990
 -5.8809707642934939 33.9863596207225314 14.0068887771708077
 -6.2948845544197898 28.2831674235218244 17.4151025367369598
 -4.4304317374955051 31.0370280333116355 17.4026174118234529
 32.2601603923799729  8.2959862123515737 17.3744360673681193
 -4.4066998486496374 31.0028504275451482 14.0452717336939426
 22.0214814548868780 29.1843580831913592 14.0706864919534116
 22.0341410715330497 29.1470272747911956 17.4269942160099980
 -2.9757931274387648 28.0556074644261422 17.4518455435272024
 -7.7345770618902590 31.2364453738002759 14.0216022198643984
 -2.9485216299074368 28.0234491280739135 14.0964325903598322
 -7.7423375813090072 31.2515870852059301 17.3800576262006672
 -5.8907273688717785 34.0029227631792708 17.3660492922500964
 20.5752172497230781 32.1718318224199393 14.1138719373269055
 -1.5086998047122937 25.0465878501119050 14.1326393300569837
 32.2464059522080788  8.2894006463207202 14.0161189852046100
 -9.2125893296518733 34.2075014825887465 14.0095711868155046
 20.5756526117674561 32.1368644078917356 17.4685710328868318
 -0.0766774714599689 22.0504429152484249 17.4873415737808031
 -0.4867609175974060 16.3076152797939571 17.4151025367355281
 -9.1923408993954396 34.2126670098097634 17.3685338755959719
 12.5342316013227784 35.6230693073481319 14.0505231552321863
  1.3762815600508627 19.0526165693850729 17.4530250965151943
  1.3603973384761328 19.0896525391276910 14.0975825694007764
 33.7063438573355043  5.3344804333144697 17.3928217403225247
 12.4947452451857561 35.6131737013963559 17.4079066611728237
 -1.5264916551213064 25.0566109241343327 17.4873415725095320
  3.5040229272977563  1.6180461043238301 14.1138719373739558
 -6.2630680161050227 28.2646842440082935 14.0584972019367065
 30.7765873673226302 11.2612086636543225 14.0236431062169267
 27.8837939627667879 17.2174665672456157 14.0447928119864347
 -1.9350197359817085 19.3355097302906458 14.0964325892224061
 -1.9492339257820803 19.2958127520349834 17.4518455431584023
 -0.4866622803333761 16.3444107998807766 14.0584972020477981
 27.9029600821003214 17.2389053801535539 17.4024271151408811
  0.9854920831786647 13.3355749641855237 17.3864625433634110
  0.9803017165495759 13.3437505551268050 14.0278336743045386
 29.3579153037754352 14.2447879169953371 17.3983458042069614
 26.4340511890611083 20.2023183770489183 14.0311256767311274
  2.4632618719056163 10.3676665740095082 17.3860764076181020
 -3.3702650269423073 22.3169213645671114 14.1140987006169887
 29.3250021092464301 14.2368249296858878 14.0407755969450996
 23.4875738094678219 26.1900628865050322 14.0309024756937095
  2.4588798946045585 10.3425003039434884 14.0272587454068685
 -3.4021172600098852 22.2964878160611448 17.4688490854510832
  3.9334663920367254  7.3880740972913790 17.4079066610144011
  3.9222930585775182  7.3489301083322500 14.0505231555894152
 24.9664938072800133 23.1940205666232373 14.0179504522831007
  5.3941185981833213  4.3939134669293995 17.4269942160029316
 -4.8091487415781744 25.2924628183876834 14.0975825684055618
 24.9747455583168652 23.2073529105601253 17.3775365085136571
  5.3681189759651193  4.3642845138669069 14.0706864934850824
 -4.8491649430889847 25.2972246631617708 17.4530250967550238
 30.8108319764264778 11.2622359041275395 17.3816669970154081
  6.8475704614894317  1.3960469480397473 17.4245469300835119
  6.8059079470674435  1.3855036931899041 14.0680727362074123
 26.4424993725565933 20.2304590091985723 17.3892525666952480
  2.8365778172495744 16.0712247270468325 17.4077147659549887
 -0.0768931585605593 22.0708626469403271 14.1326393214501476
 35.1896144509337958  2.3520863325965977 14.0706864923397639
 -2.3245283921275721 13.5841660194845311 14.0216022208631284
 26.0190722658302853 14.4584663326803007 14.0867730505729263
  7.2282085071094553  7.1311053351376730 14.0309024754125478
 15.8441578570465875 35.3944924873785141 14.0978186292533127
 -1.0959027147491673 30.7606481023199905 14.0692847774656737
  0.6203177659750260  7.5842874972669350 14.0596365400539138
 15.8030356552740407 35.3826236414048836 17.4533794051610265
  8.6925833280749618  4.1576374791663957 17.3928217404100600
 28.9129340788512224  8.5122265658701473 14.0429051552136830
 -2.5619667824452086 33.7521942840603799 14.0253260973393648
  8.6726961830579388  4.1481829034998992 14.0347195477223075
  3.5340879161666834  1.6359068434700770 17.4685710326951487
 28.9523948993067215  8.5031971542596292 17.4005078468426824
 10.1478965865266595  1.1696779550408438 17.3802157578229313
 -1.1096935377341646 30.8056514015064309 17.4255412931558524
 10.1191478335079914  1.1688621319281354 14.0221061733865078
 -0.8564039259308003 10.6041578962079157 17.3841883693284061
 -0.8469114035415705 10.5813707579168472 14.0256860499057829
 27.5048119172656236 11.4833354150178799 17.4281813081958390
 -2.5778048647084555 33.7804567538527749 17.3836982579708099
  0.6164441269851700  7.6294050946326513 17.4163614281047145
  7.2350536098993663  7.1515012643204185 17.3894677639773327
 27.4585829255223501 11.4831382084078601 14.0716553155600508
 35.1509552136771006  2.3597881874586681 17.4269942161027345
  4.3041493920433824 13.1044875218154111 17.3779618237873841
 33.7244753324079412  5.3219849476514947 14.0347195478082600
  4.2904759697859722 13.1097331007227620 14.0185656137930206
 -2.3337612394103577 13.5698743563931572 17.3800576283483288
 30.3975726232797960  5.5383855101064166 17.3834267599490921
 31.8423466229753700  2.5752907775870297 17.3894677637940873
  1.8018333010092016 24.8091028339855235 17.4873415737332110
 31.8634325677594994  2.5795607080653538 14.0309024747287321
  2.0693765975121479  4.5967382969756185 14.0978186332062574
  0.3510792267806261 27.7757021941812141 14.1140987023013906
  5.7724456575020646 10.1352239799009904 17.3765470092623673
  2.8167166115566422 16.1016006802940517 14.0503754431383374
  2.0796589768349727  4.6382855883720069 17.4533794031825416
  5.7682884549021640 10.1179453808340121 14.0169258809426278
  0.3493093737307223 27.8135038104553480 17.4688490841338648
 30.3850211251687661  5.5453915287288904 14.0250982345409252
 26.0542064190220444 14.4793548420389637 17.4422940522721923
 26.9384016954902350  3.8511272862139050 15.7066654974544981
 -20.7272955117140185 35.9771948060973941  8.8969109986571198
 28.4048283117011344  0.8803310349360556 15.6884403376231898
 -2.3302353252245713 34.3655938412373700  9.0125880319716263
 -1.9416801229238534 28.6288697248822572  8.9404078501711979
 16.6258136654572759  1.1006827676313933  9.0219917941050962
 16.7512657382456176 24.7413389982720702 15.6847066824021102
 -3.7954473126213739 31.3805077788676527  8.9891568233896511
 31.0584087568003540 15.0933426479830040 15.6979363352125922
 -5.8859540486626472 13.9485420160316487  9.0238512708401153
  9.2051643135332615 12.1109963600631207  9.0343644550306088
 -18.8590733584265351 33.2331740586022732  8.9178488870785824
 -13.3081442202157874 24.9654746647277008  9.0409869284747746
 21.1434992802823132 15.7896148307719564 15.7928847848084200
 -15.1513884616940722 27.7278482516192248  9.0168883903869830
  7.3583582948318718 14.8763203900543655  9.0309296083792390
 22.5862547762228445 12.7990908410550048 15.8123857190812505
 33.9769549128513191  9.1377365704521090 15.6847066825113330
 35.4410336005158086  6.1672127580440392 15.7179701822279192
 11.0618931492208397  9.3520740443050965  9.0151617300357856
  5.5129463903766274 17.6389154002537367  8.9932806953279698
 -11.4569818952132501 22.2047423354321118  9.0309296083347821
 24.0284176042838027  9.8098128276630110 15.7928847852614389
  3.6583351505365820 20.3933291004334372  8.9415418599467742
 19.6913977985754478 18.7769895157622244 15.7468960714496156
 -16.9994229892394024 30.4844889662257650  8.9669475735059194
 12.9241967171945742  6.6000767953239050  9.0034145527744123
 32.5143122753959091 12.1109963607045561 15.6827411568302981
 -9.5971318413775712 19.4499995214206365  9.0143214728898293
  1.7927856833075051 23.1399208291074849  8.9041267267121853
 36.8961672651640811  3.1919722128175376 15.7655171934827525
 25.4773756322346756  6.8262529242033585 15.7488810791223006
 14.7810748939051084  3.8511272869210873  9.0104401114421790
 -0.0764138261100335 25.8833664605713309  8.9041267317003978
 18.2253297777005407 21.7595102407887317 15.7019438785216092
 -7.7366213254847516 16.6998890205083406  9.0125880304575592
 29.6078349734918795 18.0812453129060842 15.7046470561640810
  3.3771562275835838  0.2077040799390378  8.9173812776011250
 -4.0463069971735059 11.1961191808783393  9.0223054975869132
 18.9915161412417604 33.2331740585862789 15.7992567259903218
  2.5781538528984180 11.6644743040470775  9.0250948989112789
 -2.5718172364121359 14.1760203298064482  9.0096079274521070
 31.7175556542483257  0.6668026150747807 15.7081717327784620
  4.4224115471640104  8.9153174937218687  9.0168883897674323
 32.1175045067684835  6.3848328664044036 15.6992104640781012
  0.7408291635057924 14.4135910153120932  9.0057115400816823
 -4.4188549690319183 16.9235212481259261  8.9891568238923849
 30.2565454200585897  3.6341804986266641 15.6989681878581937
 33.5774013095175050  3.4193808681744735 15.7223321230286714
  8.1420752802589345  3.4193808689595935  8.9947734863072171
 -6.2779178242103573 19.6702861798409785  8.9795511470286211
 28.7952798722232330  6.6000767947699881 15.7136910542742960
 10.0019209365753703  0.6668026145994917  9.0089338760696176
  6.2784429890656961  6.1672127587045527  8.9991354262367320
 -0.7356540999789533 11.4282740361142281  9.0155369933404828
 30.6575834394274267  9.3520740440955130 15.7019438769680892
  1.1055249221761010  8.6816581548550715  8.9966469871655210
 26.3080977049592875 18.3028996222457927 15.7277404563273322
 -10.3960714334918354 30.9383858652903925  9.0155369936347629
 24.8488802858690505 21.2890777476346464 15.7066654968017279
  6.6891586906861900  0.4444164876289053  8.9638640342094540
 -8.5489527237068899 28.1670553609289023  9.0057115382582662
 27.7566744137623900 15.3142804564254451 15.7356636663754781
 23.3776898542386782 24.2711479000392671 15.6989681897043258
 -6.6932013805060295 25.4035158972287292  8.9709567233123515
  4.8233093245006966  3.1919722128218466  8.9515884156056202
 -4.8291006265102281 22.6505520165318330  8.9415418604198429
 21.9032838455574641 27.2544932782789679 15.7223321224179706
  2.9591079225964596  5.9365522891916118  8.9669475712658429
 29.2040411741489692 12.3285733758798965 15.7224838357739056
 -2.9627501066254842 19.9047497536005373  8.9404078503613480
 20.4408425426431535 30.2423332330388845 15.7655171938338725
 -8.1417984839831234 22.4216184200580813  8.9932806957568836
 -5.6383053643801855 34.1385424677433775  9.0238512702199962
 -8.9417969877539321 33.9215728049366518  9.0223054977248385
 27.3416107151296117  9.5736822558395680 15.7468960708828316
 20.0650754829595535 24.5074595609894708 15.6992104639820234
  5.8930751277480855 11.8928006255328107  9.0409869283756699
  1.5085019905688295  2.9517052807357524  8.9178488880824140
  7.7425216758466417  9.1377365699176050  9.0323989284891955
 26.6884520018133777 24.0444385761165158 15.6884403392192269
 18.5917754779488362 27.4945302400717573 15.7179701825009239
  4.0517160431718944 14.6499573571569854  9.0184049516681206
  9.6019720822882775  6.3848328662209495  9.0178951446722451
 17.1318657721170879 30.4844889661483158 15.7501580385998139
 28.1532044973823261 21.0667093676021686 15.6951138125130907
 11.4629311694791767  3.6341804984755894  9.0181374190812509
 -2.2061462836939727  8.4437407222438434  8.9941473458866081
 13.3146482774205843  0.8803310348626662  9.0286652684880462
 15.6834448667930086 33.4750320223051290 15.7661587984879414
 -0.3549887883789059  5.6956500602613369  8.9509468123305762
 -12.2455070109769402 33.7041361086779006  8.9941473456896635
 25.2170093666549882 27.0201088194429104 15.7081717342810983
 21.5397810901742126 21.5227066662417208 15.7136910564017338
 -7.0983717720980666 31.1546766399330757  9.0096079273146898
 -9.9996969063578636 25.1815600445596885  9.0184049520764695
 25.8958679176454289 12.5572727489904281 15.7748934094994748
 -5.2475173933721369 28.3921518348143742  8.9686899021852344
 22.3022180077101133 32.9868726192636075 15.7997243317056224
 -11.8484199775786045 27.9504438608973409  9.0250948992703766
 -3.3860970497153882 25.6385424201097720  8.9239823429830043
 24.4523181475325053 15.5469863044229140 15.7761217832285627
 -1.5177076826040152 22.8928693844697833  8.9041267330597069
 -13.6953000721702054 30.7171860002498391  8.9966469875159554
 23.7532202805623029 30.0002381434749807 15.7532415708745059
 23.0028589354868913 18.5362292418201235 15.7488810797976200
  0.3491577678614550 20.1490116555147800  8.9239823348047036
 -15.5510020832138149 33.4750320222675128  8.9509468110915620
  2.2062488739572204 17.4024885533361697  8.9709567253262499
 35.0303178981914414  0.4444164869781480 15.7532415752595139
 -1.1048277667598900 17.1601696427139174  8.9686899018243249
 -2.0738060908297502 17.4024885538506169 15.7461488809446664
 15.2838312450287805 27.7278482511863267 15.7002172190853511
 17.5492355430562874 35.7312773359497484  8.9178488865762127
 19.4172585813564531 32.9868726183693184  8.9173812780858874
 10.3966348937590638  5.0084365021806727 15.6992104639397674
 21.2786340467933854 30.2423332338860469  8.9515884152588843
  8.9449796100510550  7.9954005302611293 15.6989681899490332
 23.1277011106048711 27.4945302406266734  8.9991354259653029
 24.9682108508576093 24.7413389985677306  9.0323989281085701
  7.4859345700395004 10.9759593187076803 15.6884403391874869
 26.8118080423263336 21.9880234235542460  9.0343644544490420
  6.0183968313075127 13.9485420167196459 15.6932543382742224
 28.6666439308745780 19.2360008463149086  9.0191692731133628
 30.5289566513469275 16.4858157676078925  9.0124585512262190
  4.5512977514293880 16.9235212482576465 15.7279487873920907
 32.3871291276903435 13.7333367940467088  9.0219917954452118
  3.0951928894189682 19.9047497560617010 15.7766977573949347
 34.2335420189539974 10.9759593187001983  9.0286652706751145
 36.0748267254368500  8.2138174941917779  9.0089338742735698
  1.6501504651929004 22.8928693846657367 15.8129788747087048
 37.9237998837574821  5.4560742974060208  8.9638640344045424
  0.2088566091823611 25.8833664605133436 15.8129788774196971
 39.7848000727221276  2.7061522312464450  8.9173812760136606
 11.8509942319358448  2.0216533610270804 15.6847066811177775
 -20.7272955117134074 35.9771948060970317 15.8201946132327169
 36.4772715113477020  2.4664234838022896  8.9515884156571293
 34.6209468593198295  5.2268547827745717  8.9947734860068245
 31.3228416954625679  5.0084365020035140  9.0178951453196365
 33.1730707826944240  2.2389859308653919  8.9991354265759149
 10.7919329014780949 10.7605238954998317 15.7066654974692419
 14.2389792392714583 35.4951154182779902  8.9669475725495573
  9.3323474631077552 13.7333367940976121 15.6951138126535934
 16.1046550458706790 32.7454745902021145  8.9509468110769372
 17.9662563090298875 30.0002381434250758  8.9638640340853346
  7.8690641080493107 16.6998890206749735 15.7045175786400115
 19.8161927437557246 27.2544932782963443  8.9947734855945729
  6.4103606065102374 19.6702861799650925 15.7375544603308164
 21.6544011059839008 24.5074595613120536  9.0178951451770750
 23.4941468115441090 21.7595102406369634  9.0151617300357785
  4.9615434093312372 22.6505520174627186 15.7755637499432364
 25.3450997150466080 19.0124560474106232  8.9946217719917136
  3.5185398329019124 25.6385424200321488 15.7931232712908436
 27.2071145149349825 16.2661461256467597  8.9814419422148308
 29.0710462794122648 13.5173323122685289  8.9893651521927840
  2.0741229080169030 28.6288697241485401 15.7766977581518919
 30.9275436872339178 10.7605238958136908  9.0104401119938000
  0.6195904595893948 31.6171209723509499 15.7375544616763587
 32.7744969791108360  7.9954005314913346  9.0181374189743426
 -0.8492427065019340 34.6017879614781236 15.7027841371356445
 -1.2369868678139115 28.8722755566759162 15.7755637494018455
 -17.4167927587036608 35.7312773348607919 15.7992567204012655
 -2.6950734841447179 31.8556228549554774 15.7238249130641670
 -6.8312868921437939 20.6287495210654050 15.7375544601473294
 -4.5531738991724611 29.1101522249334579 15.7461488817165165
 -5.3805036081417681 17.6389154006412525 15.7238249137403372
 -6.0142022547877874 32.0846392727239618 15.6987006577358166
 -3.9192732588647319 14.6499573572095620 15.6987006574513170
 -2.4457110698153479 11.6644743042860615 15.6920107095085193
 -7.4812904840254104 35.0578813839217744 15.6761186803343868
 -0.9730821392711847  8.6816581543169864 15.7204586229852765
  5.2422050783859699  2.4664234839823171 15.7655171939518759
  0.4874315718646252  5.6956500602934836 15.7661587983542084
  1.9346765154236414  2.7061522312882049 15.7997243308354243
  3.7956767041024171  5.4560742976230685 15.7532415713744278
 -10.7951983056846537 35.2729909286488450 15.7002172180628499
  2.3385890654236374  8.4437407215902827 15.7229582633982901
 -9.3364875160191545 32.3012385089708474 15.6920107094368486
 -7.8743449517254094 29.3355102973902078 15.7113940703659338
  0.8680968832075522 11.4282740360518886 15.7015686170230193
 -6.4185665497536331 26.3638351945298730 15.7484157059804204
 -0.6083863814351131 14.4135910142268244 15.7113940700448325
 -4.9706516219677166 23.3825371947473464 15.7766977577794130
 -3.5258923685986630 20.3933291009685895 15.7755637499648831
 -8.2805236733564396 23.6121276475869983 15.7279487872174588
 -3.1031606726951804 26.1286025993709679 15.7931232731704050
 -9.7364103990631659 26.5854597033550277 15.7074976834887590
 -1.6603429007858321 23.1399208286339544 15.8129788779628822
 -15.9722122626794665 32.7454745907313907 15.7661587995108370
 -14.5178746843150250 29.7682798450410608 15.7229582629130533
 -4.1648449913273673 34.8350939481116200 15.6861760005598754
 -13.0543253760407989 26.7984646883283730 15.6948001097185159
  8.5464058054216512  2.2389859314644598 15.7179701807206857
 -11.5904808041808050 23.8290721899705176 15.6932543377981535
 -10.1330780423788180 20.8506738127745166 15.7045175785978532
  7.0985297290638263  5.2268547830970604 15.7223321235831257
 -8.6816677427611655 17.8643691909263254 15.7027841371949002
  5.6446498625840880  8.2138174947032052 15.7081717327531383
 12.2441539212920549  7.7779454694416383 15.7136910557691003
 -7.2259155120534277 14.8763203901966747 15.6861760021055190
  4.1787497800114899 11.1961191808949856 15.6948001134945727
 -4.2899687642593198  8.9153174946419806 15.7002172181293780
  2.7042600192533892 14.1760203292416271 15.7074976818465899
 -2.8266651395652937  5.9365522891727700 15.7501580375890686
 -1.3760592076867642  2.9517052800512462 15.7992567226595657
  1.2372705484081825 17.1601696439500593 15.7484157044953950
 -14.1065364563809812 35.4951154189562033 15.7501580373184797
 -0.2167149852404794 20.1490116555306535 15.7931232657578722
 -12.6559965418822866 32.5173125200610684 15.7204586215282998
 -11.1979469251364101 29.5494967726353934 15.7015686167953383
 -5.7606323446794772 11.8928006256048064 15.6761186808536532
 29.4753226671586717  7.7779454688299001  9.0034145525849674
 13.6963016671226185  4.7891446448692001 15.7019438784260625
 27.6204962724623222 10.5382467616362376  8.9682245301903940
 13.4405870032576544 24.9654746645039687 15.6761186796617729
 10.2655208249466074 20.8506738113952252  9.0125880301456363
 12.1116416145887484 18.0812453132386857  9.0124585519469935
 11.9808627604958833 27.9504438610526833 15.6920107098083648
 13.9628021743500970 15.3142804561516073  8.9814419422677396
 10.5285142163402092 30.9383858648826973 15.7015686171312296
 15.8236086712511952 12.5572727493178888  8.9422121974208082
 17.6910589844081301  9.8098128275367902  8.9242208229748403
  9.0742397702939019 33.9215728048735841 15.6948001116066820
 19.5555908850002282  7.0656058962004948  8.9409838183646144
 21.7808599722971188  1.3336678496952341 15.7046470567234806
 21.4092981940254070  4.3203023484985907  8.9814419423722018
 23.2515031214159293  1.5713854354789745  9.0191692718220118
 20.3101783952463819  4.3203023483288137 15.7356636658661806
  4.2972877741397806 34.8350939483493747  9.0309296085404824
 18.8529429303483624  7.3103118997152476 15.7748934101588105
  6.1466450372349213 32.0846392728596825  9.0184049516500302
  8.0067877346912244 29.3355102985543290  9.0057115386003819
 17.4072979985572580 10.3013012722476596 15.7928847851717471
  9.8688531821147709 26.5854597038863929  9.0096079266878277
 15.9630110328212602 13.2881367301989730 15.7761217832348581
  8.4129664566024935 23.6121276477928070  8.9891568233056098
 14.9076685466487771 21.9880234229826570 15.6827411558679586
  6.5510093326590981 26.3638351960794672  8.9686899040415309
  4.6856166819982201 29.1101522235204797  8.9709567271382813
  1.3694296504298218 28.8722755556721573  8.9415418597309362
 13.8277428552274593 30.7171860004398916 15.7204586216685094
  3.2356034552422885 26.1286025990918631  8.9239823355523509
  5.1030944052111185 23.3825371959002979  8.9404078505719333
 12.3779497945616868 33.7041361078771828 15.7229582633915914
  6.9637296753360012 20.6287495210386211  8.9795511483433010
 25.0936629236823094  1.1006827674660218 15.6951138152367982
  8.8141105254067416 17.8643691911186693  9.0143214719899305
 10.6610678321672321 15.0933426479034392  9.0191692720213421
 23.6226868695536254  4.0804969949895735 15.7277404566362584
 11.7229235866696602 23.8290721897939015  9.0238512708242276
 12.5154354147503977 12.3285733762658758  8.9946217746622796
 14.3778658742121159  9.5736822571784757  8.9702095376759612
 16.2421009561791720  6.8262529255551545  8.9682245282966360
 20.7171701116107769 10.0556119110252062 15.8123857230764102
 18.0967897198845513  4.0804969944370075  8.9893651522486255
 19.2757899954367495 13.0460261777932587 15.8123857167155979
 19.9386166167238201  1.3336678493573784  9.0124585519861480
  0.9816854895333236 34.6017879612777861  9.0143214717685805
 17.8304040363453034 16.0331442797515820 15.7748934116508153
  2.8275162673593170 31.8556228538853681  8.9932806951948034
 16.3743768745651899 19.0124560478414359 15.7224838364536339
 22.1638857038467734  7.0656058950835297 15.7761217841396810
 -0.4871476766236202 31.6171209723713460  8.9795511472226561
 13.5662720920381155 21.0667093675740489  9.0219917925884179
 15.4113788845129083 18.3028996222291731  8.9893651523709632
 24.3121785915795279 10.3013012724083950  8.9242208248998622
 26.1732702176990664  7.5500571577685101  8.9702095371810682
 11.1905199374443125 16.4858157672986074 15.7046470566415728
 28.0231749225000009  4.7891446447859494  9.0151617302395461
  9.7295746244564150 19.4499995216657346 15.7027841372174439
 29.8684823566849786  2.0216533609241645  9.0323989262940909
 10.9276410887096187 35.2729909282168705  9.0168883895691838
  8.2742412666726395 22.4216184202872562 15.7238249131667729
 12.7884393249223240 32.5173125194060972  8.9966469853255777
  6.8256441634619938 25.4035158973474715 15.7461488831100080
 14.6503174680342116 29.7682798420042580  8.9941473453792593
 16.5024672222547579 27.0201088204487334  9.0089338742943532
  5.3799601766532952 28.3921518348699031 15.7484157064724783
 18.3417867345815004 24.2711479002520427  9.0181374190941845
  3.9278900970331088 31.3805077791942999 15.7279487855670386
 20.1796954990707356 21.5227066659573261  9.0034145531354000
 22.0280787913856066 18.7769895157744671  8.9702095364763856
  2.4626781086089102 34.3655938412456621 15.7045175767646761
 23.8890725535622259 16.0331442807237821  8.9422121966093044
 15.1572340611934937  1.8017091465784247 15.6827411537097010
 25.7564655577117598 13.2881367301190103  8.9409838214029502
 12.6484303095920385 13.5173323120138349 15.7277404567773722
 22.4436865936494918 13.0460261778346496  8.9047198912613137
 14.0989803177557818 10.5382467616981561 15.7488810789726070
 20.5759773092704599 15.7896148298908763  8.9242208211061556
 13.0528326581782803 19.2360008461571788 15.6979363353638437
 17.2671584417925530 15.5469863047952330  8.9409838219344593
 19.1332218127790270 12.7990908412758344  8.9047198873184712
 11.5894246775418228 22.2047423357792368 15.6861760002478476
 21.0023064775891832 10.0556119108690094  8.9047198916202213
 10.1321396887241484 25.1815600439552298 15.6987006574219947
 22.8665336580420586  7.3103119002872976  8.9422121983037695
 24.7186797541636807  4.5596995059245762  8.9946217767534815
  8.6813955069632733 28.1670553609370842 15.7113940705318260
 26.5622425283660313  1.8017091465848418  9.0343644531395846
 14.5123620744377071 16.2661461252400308 15.7356636663565670
  7.2308145549583971 31.1546766396971329 15.7074976833364683
  9.4689302991743780 32.3012385091800027  9.0250948990165067
  5.7707481472697388 34.1385424679072571 15.6932543387505596
 11.3303897077976927 29.5494967725105226  9.0155369932724518
 18.4679734686984993  1.5713854350533678 15.6979363352938073
 13.1867681590365233 26.7984646881062147  9.0223054957440887
 15.0310245872252857 24.0444385760906343  9.0286652692408698
 17.0007968347317160  4.5596995061142387 15.7224838339509692
 16.8705963015938885 21.2890777475787338  9.0104401105362655
 15.5462063714113423  7.5500571560949794 15.7468960708689671
 18.7166176553581103 18.5362292419117516  8.9682245288193165
  7.6137332668290760 35.0578813839620125  9.0409869280508683
 38.3423203618275679  0.2077040795845407 15.7997243307150885
