Se W 
 1.0000000000000000
    37.4033050893136974    0.0000000000000000    0.0000000000000000
   -18.7016525446568593   32.3922123928454440    0.0000000000000000
     0.0000000000000000    0.0000000000000000   24.7171056087856371
 Se  W  
 508 254
Cartesian
 13.8897188514660535 30.9347795397937944 17.5000503916285339
 11.2698110690482824 28.6376951383686951  7.2582414145321978
 11.3129319989977670 28.6522568986968587 10.6153688586178223
  8.4754771093047179 26.8494020543064060  7.3043364110138969
  8.5181362750470537 26.8648249749616852 10.6615240938226421
  5.6767502008623660 25.0762246422142390  7.3457191881551864
  5.7116618420350500 25.0890300834231503 10.7041931337163820
  2.8757362494603154 23.3138967167228159  7.3748026031374163
  2.8948631745861748 23.3197348006792531 10.7340812819186464
  0.0736285533254642 21.5522987968146289  7.3845019137845842
  0.0736285533254390 21.5522987968145969 10.7442128994156736
 -2.7268680825974250 19.7806615113010622  7.3777830011502292
 -2.7398234649698310 19.7771783333302729 10.7352778481835145
 -5.5266302363636308 17.9951234115110843  7.3641630130455589
 -5.5398030206839941 17.9918899070744054 10.7204961861606503
 -8.3254703117227997 16.1969977122094733  7.3564007882047360
 14.0950102543143476 30.4490091236551130 10.5747750091571842
 -8.3287757636863944 16.1978616873809145 10.7129517167796457
 14.0624543871256744 30.4391677223904047  7.2170375880696485
 -8.4425152144709994 19.5259691678095955  7.3498709502930257
 -8.5986947135130922 22.8831919498490706 10.6877102960896035
 -11.3648716491697179 21.0516194924945204  7.3224379956820904
 -11.3822926650303646 21.0883159790455075 10.6804922830381450
  8.3117802612068452 30.1667854697995708  7.2890418005908399
  8.3580390930093937 30.1716120834918264 10.6461737308451578
  5.5230679275711934 28.3879694114513335  7.3296759178183830
  5.5623774657380798 28.3973044774108274 10.6877102962375243
  2.7319206142006758 26.6228435036787907  7.3615867526932712
  2.7560254125427583 26.6340837549868219 10.7202768346031831
 -0.0604060249614511 24.8634186692016677  7.3777829998739097
 -0.0569448533607316 24.8763799486150958 10.7352778471952544
 -2.8530138452173643 23.0981962864034003  7.3748026019891180
 -2.8676332368220048 23.1118416473275516 10.7340812843605615
 -5.6467380043304800 21.3191748989059064  7.3615867528658372
 -5.6685247482987275 21.3344301373734950 10.7202768323382518
 -8.4596531186288146 19.5457864425414343 10.7083785957788216
 -8.5709555377154309 22.8538164244598363  7.3296759191794791
 17.0283638221386830 28.9244297405974677  7.2055698045960153
 14.2330521255814801 27.1181729176648751  7.2387731844840220
 14.3968134630965459 23.8045274025481959  7.2748743199254102
 14.4197732252128290 23.8399881910689366 10.6320521592014767
 11.5890675407909995 22.0174546285593529  7.3136059968784490
 11.6153558076445798 22.0438685195583552 10.6712898712384874
  8.7748636705660950 20.2453341545552448  7.3459016538429296
  8.7955466807902667 20.2549026308731719 10.7050966274321109
  5.9543621976042846 18.4809201101444280  7.3641630113023924
  5.9637488866615396 18.4711288966507787 10.7204961880693510
  3.1357030507942225 16.7148779878789036  7.3615867511409920
  3.1333849973780192 16.6883824946059001 10.7202768297967630
  0.3238770340188518 14.9378901859618782  7.3457191876370302
  0.3175110505822409 14.9012530987021812 10.7041931327224660
 -2.4815105668664148 13.1481401010234489  7.3261950187423386
 -2.4838097837773265 13.1087624745985973 10.6839656286789673
 -5.2812541748387218 11.3470581819153207  7.3136059972693239
 17.2098147860016510 25.6419142304292613 10.5966063333742433
 17.0424931355672413 28.9469589802130862 10.5636893299412868
 17.1972633899496579 25.6028179132237703  7.2392602075521246
 19.9927026237464780 27.4112202182414642  7.2170552133547128
 14.2631464723694190 27.1448876005875768 10.5961443977778220
 11.4339387402845585 25.3230940918169374  7.2826659469700976
 11.4707516804581555 25.3468549222911292 10.6399462582058337
  8.6294130436587881 23.5415627581509597  7.3261950187199423
  8.6646646745804752 23.5592603865246311 10.6839656293287799
  5.8205474387376199 21.7750223495168491  7.3602235159909712
  5.8456064852749572 21.7798474005932476 10.7193344165928348
  3.0081597664438813 20.0128162100375064  7.3777830056844875
  3.0176539787739047 20.0033381080162940 10.7352778479566400
  0.1981632552673188 18.2448033873149988  7.3748026027052846
  0.1936557213032546 18.2253199422483370 10.7340812836716246
 -2.6069466347859529 16.4639592701255850  7.3602235176801880
 -2.6152975397435227 16.4398449753922229 10.7193344179978087
 -5.4088535905196649 14.6702904623123853  7.3459016538271635
 -5.4109085481199823 14.6475942117265117 10.7050966243552157
 19.9877316375591327 27.4453197535255065 10.5748523545353557
 -5.2715232081912147 11.3110849310790389 10.6712898703685841
 -5.8082872313705209 24.6666132110905210 10.7041931331613807
 -3.0094232839390793 26.4372040119284719 10.7193344167718223
 27.2197888203952303  5.4423684928718981 14.0555815173413556
 27.1771296537094180  5.4577914081893999 17.4127691967417100
 24.2640300113413332  3.9098889791465417 14.0293953125159927
 24.2247204724658438  3.9192240507221392 17.3874296914867337
 21.3042312615978453  2.3615997823381183 14.0087270168483862
 21.2785000443730077  2.3665330067488553 17.3672346579055414
 18.3394046967454010  0.8009805198877878 14.0041538936053946
 18.3370037464030311  0.8034111373734159 17.3607048207868431
 -3.3281892349055795 31.6343056232267656 14.0151383442578261
 -3.3064317484804460 31.6335955614289546 17.3743147534655051
 32.9647990172293319  5.1623058614518120 14.1209612133206992
 32.9347046699681485  5.1890205437611439 17.4783324255832540
 30.0145845415344965  3.6549365609719535 14.1017367441355521
 29.9714636132340644  3.6694983233867178 17.4588641942212632
 27.0596916349724701  2.1355813790841363 14.0709318771888210
 30.1355912854437342  6.9840993723226177 17.4344396615185921
 27.0134328060661169  2.1404079952755000 17.4280638082873516
 30.1724042250022464  6.9603385381299621 14.0771593518699483
 -9.0806409132178576 31.8668260237276968 14.0850534492487647
 -14.7881917581617515 32.1499410728509361 17.5115358040512490
 30.3170083532617696 10.2633249435676905 14.0458157379813233
 30.2907200856625742 10.2897388361013338 17.4034996120271899
 27.3663172196088595  8.7479330739488823 14.0331399791367399
 27.3310655879407989  8.7656307085092653 17.3909105904379579
 24.4133143879734149  7.2181633804210721 14.0129124732910331
 24.3784027458219903  7.2309688217859014 17.3713864186806184
 21.4576779560027262  5.6731097063589866 13.9968287776227545
 21.4335731590397103  5.6843499588471031 17.3555188559057569
 18.4985923372589021  4.1133158756480066 13.9966094213678289
 18.4948062433154838  4.1263405937421460 17.3529425973649047
 15.5379000715446214  2.5527939170013334 14.0120089819812126
 15.5565281204067638  2.5659216873454018 17.3712039526206290
 12.5787056044433374  1.0052505199367481 14.0458157392529657
 12.6147248389117870  1.0148098825253453 17.4034996112358229
 -9.0384510867652601 31.8689793675572517 17.4422312882824251
 -5.7797415741254561 24.6427815610837797  7.3457191881794186
 24.1014207984445044  0.6017844623205729 14.0366133258544377
  2.4383905581879959 31.4436737706956642 14.0087062340708233
 -14.4524068464949487 25.8969983554830385  7.2481353227617129
 -14.4727512871648454 25.9371834942778356 10.6053524371286123
 -3.1451244219840082 29.7412717747247370  7.3459016541721009
 -3.1637524726090183 29.7543995458985755 10.7050966279794295
 -5.9270168134721590 27.9671935345410994  7.3261950179273017
 -5.9599692305620877 27.9888735275446443 10.6839656309848792
 -8.7147217115618165 26.1799614564468754  7.3043364116739671
 -8.7494079322008442 26.2091939160998599 10.6615240889956944
 -11.5058115981366704 24.3795041206446221  7.2890418006908675
 -11.5331209862715376 24.4171521341785400 10.6461737309967948
  2.5768475023475674 29.9406604549425239  7.3498709507304767
  2.6025787159660267 29.9455936806031922 10.7083785937230580
 -0.2068463011689506 28.1808528688173112  7.3641630111489276
 -0.2030602053627223 28.1938775867277656 10.7204961871118627
 -2.9927151451353335 26.4179147687842608  7.3602235157969922
 -11.6947672497328359 27.7358420476370036 10.6153688573375131
 24.0609302015430089  0.5985232571116720 17.3946676125852555
 -11.6605959316740133 27.7057791087619520  7.2582414138646731
 -8.8721310579743111 29.5052183672444350  7.2826659484859890
  2.4142071467881046 31.4351993339679261 17.3670748154100743
 32.7966627990177244  1.8581843392233621 14.1423306031061067
 32.7641069319068237  1.8680257406694232 17.5000680247193543
 29.8458925604000598  0.3498025419702067 14.1117531715118041
 29.8009189870277105  0.3473287739741047 17.4689702840084315
  8.1884210665471127 31.2207591683812957 14.0706699978517076
  8.1431767332559382 31.2089714178412336 17.4278252198281294
 35.5705668010544471  0.0581586880391579 14.1648956898227052
 35.5571412097874600  0.0576524459754048 17.5232799229283600
 13.9217354081169411 30.9475243077559945 14.1422532675290302
 16.8554886650546401 32.2495410170517047  7.1938256913197849
 -17.5813850153848783 30.7371948666903201  7.1938256900282003
 -17.5876593934186829 30.7490748904022695 10.5522099223657175
 -14.6170386110806358 29.2235428748364008  7.2170375838858947
 -14.6418394509209122 29.2468163839724049 10.5747750072135123
 -8.9111150128227514 29.5252188889675686 10.6399462565796821
 20.1558421832679606 24.0880242173839925  7.2589246252907440
 20.1533900833224351 24.1345271422193726 10.6161149280551612
 17.3564672920324767 22.2876724533477528  7.2850820530450644
 23.6306344410743279  9.2706599558334055 10.7295401129796897
 20.8139894299464139  7.5151258322092378  7.3827024722797860
 20.8297512768720523  7.4976554625673462 10.7414344921650837
 18.0251778481938274  5.7540144461356295  7.3783667028942377
 18.0206180916683216  5.7382420768541520 10.7353429639550342
 15.2368292936424847  3.9936736048029204  7.3533114170842451
 15.2116072326758438  3.9819613644806622 10.7123734380115572
 12.4503176171402874  2.2234429060141427  7.3162127785911126
 12.4111641306170863  2.2172165900008087 10.6738469692630993
  9.6632014569144644  0.4382140965366774  7.2748743194607055
  9.6210116321353034  0.4403674393195959 10.6320521593280866
 -11.8262716165899597 31.0317822509517711  7.2387731829270257
 -11.8644543828998934 31.0444873833171116 10.5961443978941521
 29.3262167955942168  9.5430414939907990  7.3162127782194970
 29.3511856868512915  9.5122467385781064 10.6738469687841313
 23.6053147324771295  9.2865420928413549  7.3703902998447610
 26.5334580900555643  7.7477647560481335  7.3314382951087369
 26.4226503281616516 11.0551292184194594 10.7123734375353550
 29.2074640229015898 12.8498374544808875 10.7019672640286050
 20.6826883569587814 10.8291226758667758  7.3933773657038140
 20.6937469870238857 10.8275880097811044 10.7520854041957108
 17.8858608106899872  9.0659175188478258  7.3933773646655991
 17.8790024363660329  9.0571077976522183 10.7520854050950341
 15.0886336493392417  7.3061391243435976  7.3703902963909922
 15.0622194636562163  7.2921526814419266 10.7295401137882891
 12.2919417082375588  5.5396812584684438  7.3314382954639896
 12.2521747384285309  5.5240267258692466 10.6889430501790876
  9.4970094612789406  3.7597769709368651  7.2850820524295941
  9.4534098731894414  3.7454546573716456 10.6422160379347375
  6.7056112263303502  1.9643296207617873  7.2392602085482753
  6.6654771247660243  1.9556512908582060 10.5966063432789621
  3.9134607874451115  0.1572523886792826  7.2055698039031677
  3.8868852359565724  0.1582241146350008 10.5636893296898631
 29.1959703529474517 12.8683249605628927  7.3427908557114314
 26.3998961980679354 11.0711160453620625  7.3533114183722654
 23.4971611845438595 12.6096636258346617 10.7353429572829242
 26.5668988026260742  7.7211528186464653 10.6889430499293940
 23.7766125149753123  5.9421066912814808 10.7087433527578089
 -0.3622478479095125 31.5062129428534945 10.7129517176050815
 32.4229686757218190  4.6975364654257952  7.2392602085333069
 32.4505513867845465  4.6671184798330350 10.5966063336811889
 29.6318294564017997  2.8927289187467515  7.2589246259038784
 29.6733282256723676  2.8716010399729690 10.6161149321214339
 26.8448292782533038  1.0982220453123852  7.2892803903468808
 26.8900736108184084  1.0864342962993820 10.6464356129301123
  5.3592776567376319 31.7086702049796543  7.3224379953151653
  5.3997682534179399 31.7054090019172179 10.6804922830410582
 35.3840186844111315  3.1830018677183496  7.2055698030225166
 35.3964649241797673  3.1595009025396443 10.5636893256092801
 32.5913713977098993  1.3724139219138560  7.2170552150216238
 32.6233879530044106  1.3596691546611586 10.5748523431158006
 11.0992664411714035 31.9598646898083594  7.2481353248498346
 11.1442400160061954 31.9573909146023212 10.6053524351116302
 -0.3646487982502374 31.5037823253522618  7.3564007867427028
 23.7436256740030061  5.9651075561878502  7.3504766728473925
 21.1400431025270272  0.8635196909603063 10.7083993723584232
 23.9343883160160260  2.6236608409144915 10.6889395880075551
 20.9586740640131914  4.1951409246338534  7.3636963603780687
 20.9790042850514915  4.1769978591707142 10.7220358823057431
 18.1765250915245495  2.4348922294995878  7.3623179981812852
 18.1753391557781825  2.4246537039854879 10.7190678433018167
 15.3952207958333425  0.6735979009857043  7.3427908546126721
 15.3734633100216644  0.6728878394935488 10.7019672627218387
 -6.0869277080190241 31.2923835817274316  7.3136059982830171
 -6.1229469397083545 31.3019429446353961 10.6712898713214361
 32.2658283753891837  8.0219425001196694  7.2748743212187161
 32.2850584345600069  7.9843283671193479 10.6320521615859800
 29.4723665423913097  6.2172345719171185  7.2850820550059918
 29.5065698214951766  6.1866373799103105 10.6422160369594341
 26.6827231359725339  4.4229141339076516  7.3064640499968858
 26.7227057613426808  4.3987548141385551 10.6636707539260129
 23.8967794215817335  2.6410105162735928  7.3307897342880626
 21.1158596919506074  0.8719941292011488  7.3500307937502569
 23.4812220350979501 12.6057263062413742  7.3783667039204985
 26.2894523621153020 14.4004501839894719 10.7190678466477181
 26.2799925705784467 14.3963579717215353  7.3623179983068674
 17.5004434972198304 18.9772379810174705  7.3314382951124779
 17.5067697558442816 19.0195044560937241 10.6889430505856229
 14.6891177993754471 17.1998943477443866  7.3533114187988611
 14.6915857330695356 17.2275934148210297 10.7123734359891145
 11.8693256315544104 15.4334337962720607  7.3623179962315763
 11.8610517772688588 15.4395801099324093 10.7190678421381680
  9.0461488733127648 13.6693444119850493  7.3500307918912249
  9.0267180883685736 13.6526381827380003 10.7083993727208941
  6.2264796507744506 11.8966066930242640  7.3224379956361787
  6.2034100698056100 11.8631714098669683 10.6804922827347113
  3.4149169977012064 10.1106068017464139  7.2890418006029236
  3.3959675538140854 10.0681321721937991 10.6461737301272645
  0.6116705237581946  8.3134221428789061  7.2582414123711061
  0.6027209154481543  8.2687974424239936 10.6153688583182859
 -2.1858948466993562  6.5069412195517051  7.2387731830545654
 20.3061473449194381 20.8156362451981387 10.6636707537798348
 -2.1778064274669804  6.4675214111333252 10.5961444076683051
 20.3052160759264666 20.7689306147186130  7.3064640490931643
 23.1034308126759669 22.5716646967022285  7.2892803894847056
 17.3658636019216104 22.3325919608484540 10.6422160418608716
 14.5493088834029152 20.4981995990253907  7.3162127775532371
 14.5634934783871159 20.5352206718642734 10.6738469700230407
 11.7346521475839438 18.7227611351809387  7.3427908552655854
 11.7449159609857983 18.7419587007717965 10.7019672632478962
  8.9110047701353938 16.9561163529400325  7.3564007876622304
  8.9119092716688932 16.9528217598522843 10.7129517156526539
  6.0865533724741026 15.1902667665509004  7.3498709487384142
  6.0779600611712619 15.1655162692941143 10.7083785960807134
  3.2687732692864504 13.4151105544206626  7.3296759176845390
  3.2572029079447664 13.3763999604335044 10.6877102959600130
  0.4601302617285406 11.6275328807898504  7.3043364116508132
  0.4521573183940554 11.5828775009557159 10.6615240916468963
 -2.3409220240616548  9.8285839317912220  7.2826659475433626
 -2.3387510121421298  9.7848225735437211 10.6399462569787282
 23.0910171385583673 22.6167413146044005 10.6464356125121764
 23.2413617331870306 19.2471843940202163  7.3307897342926855
 23.2375825450455729 19.2884294909183431 10.6889395901189346
 20.4391861248085611 17.4525008373844663  7.3504766737364964
 20.5688979050091838 14.1627376337690247 10.7414344877552832
 17.7572941257987900 12.3696438028211340  7.3933773659046063
 17.7530938711503978 12.3799881896211428 10.7520854077571908
 14.9502048193066948 10.6092058749025604  7.3827024707656639
 14.9271941111920281 10.6042909020616971 10.7414344885541411
 12.1430314944395370  8.8470756037163341  7.3504766738698706
 12.1066187385969339  8.8300085953848804 10.7087433530177858
  9.3379040817856751  7.0728392481557369  7.3064640500111659
  9.2969901852265409  7.0502929356856070 10.6636707553710970
  6.5381716520431441  5.2839308634491475  7.2589246242967400
  6.4991249900666945  5.2585558130090266 10.6161149325024748
  3.7417692735887162  3.4810498581603748  7.2170552138600037
  3.7147237027344673  3.4596950932081878 10.5748523444874820
  0.9467820101519938  1.6701605071000105  7.1938256909749114
  0.9396307960401679  1.6587867251081163 10.5522099209783207
 20.5616490437702488 14.1403522889589244  7.3827024743458010
 23.3700452426183283 15.9523233322845464 10.7220358790334025
 23.3644979975116271 15.9256453116990464  7.3636963614528961
 26.1590821012290213 17.7485261234271334 10.7083993725791178
 20.4426120408870275 17.4925687130716376 10.7087433521405408
 17.6318949114182999 15.6720027829294999  7.3703902995765489
 17.6329893907745330 15.7018713597512782 10.7295401137831750
 14.8194434111764934 13.9049432451607426  7.3783667037144625
 14.8080640170402784 13.9167782949067504 10.7353429574483705
 12.0026712329661098 12.1438977616785220  7.3636963602522796
 11.9767937661873027 12.1353628059453964 10.7220358791359587
 -14.8147673082164282 32.1489693487826926 14.1534162745988645
  9.1877021387736555 10.3764890872032236  7.3307897342459176
  6.3775832029133133  8.5947972546847868  7.2892803907304922
  6.3447525428481555  8.5615083864302228 10.6464356124297019
  3.5740260624505189  6.8000333453513244  7.2481353235771140
  3.5493969309603526  6.7623219730264506 10.6053524381430169
  0.7754698865417197  4.9941857919451111  7.2170375853642224
  0.7677148557762895  4.9610708837981754 10.5747750075220051
 26.1638347289017545 17.7233454551451004  7.3500307929661535
  9.1538724328461125 10.3525936673724495 10.6889395901605440
  6.8753809280907978  1.2754112100463111 17.4783324265078974
 16.8689142566402701 32.2490347745225918 10.5522099195432766
  4.6683926990355760 16.3548701310112214 13.9950697296206279
  2.1123368846869988 24.7920676303745076 17.3344031359469994
 -4.3048390806326049  8.5026660625304924 17.4422312879530921
 -4.2818793172622645  8.4672052727889398 14.0850534490010553
 -0.8226501084759098 23.2500856650145877 13.9650202040431939
 -1.3451852532767770 10.0195210091933120 17.4320235538246635
 -1.3357889428230603  9.9746015028150836 14.0748895736282034
 -0.8157917331503454 23.2412759437541183 17.3237282435028881
  1.6035635325764630 11.5382628477317457 17.4106415590090791
  1.6044948009926054 11.4915572189121509 14.0534348563183364
 -3.7744584330703779 21.7029025606979751 13.9756711199100572
  4.5397091901137134 13.0600090686999142 17.3863158747199265
  4.5359300002334697 13.0187639720569148 14.0281660216501720
  2.1280987318184779 24.8095380007416288 13.9756711171350183
 -3.7514477255018104 21.6979875862431584 17.3344031365589899
  7.4574295557314745 14.5586673393039359 14.0087062348007034
 -6.7248587779341307 20.1718306556454543 13.9950697292293533
 10.3761822328894429 16.1101957505001465 17.3607048202903549
 10.3728767809066387 16.1093317752641703 14.0041538915530257
 -6.6989813115214769 20.1632957005866622 17.3534092476271269
 13.2927989558039119 17.6369030013796717 17.3712039524936941
 13.2907439986581775 17.6595992514789977 14.0120089814464031
 -9.6749344570795515 18.6545552787738274 14.0087062348424300
 -9.6555036715151115 18.6378490492139655 17.3670748156527317
 16.2201419764404555 19.1590533619246450 17.3909105899970235
 16.2178427633270843 19.1984309875108998 14.0331399781746047
 19.1617828064180244 20.6796605811404071 17.4127691978673376
  7.4621821840957923 14.5838480079540460 17.3670748154766095
 16.6948123779525801 29.1476925583440654 14.1534162750914554
 24.9050626110880806 20.4440220529021133 14.0366133260666839
 21.9588554527499156 18.9307935021314258 14.0293953122244801
 -6.5950338060336984 23.4771848661266986 14.0083622538226056
 -1.4918377574524779  6.6652792329404065 14.1204992755468535
 -6.5586210502320146 23.4601178595247823 17.3666289358402892
  1.4541896392465201  8.2191692459111607 17.4581809837872974
  1.4517375346432366  8.1726663213695350 14.1009906658102704
  4.4017782707432227  9.7355287657976408 17.4278252196998444
 -9.5477801124583870 21.9545997951290808 14.0281660190747637
  4.3893645944152055  9.6904521481863828 14.0706699967604951
 -9.5139504047898047 21.9307043745795838 17.3863158756905669
  7.3367808970796933 11.2555739707988334 17.3946676141733327
  7.3193598780270941 11.2188774840456791 14.0366133266156208
 10.9716756806571123 29.4355924222478045 14.1009906781586629
 24.9281321964504770 20.4105867696670131 17.3946676136405038
 10.2591373311032523 12.7812242946494266 17.3672346581502310
 10.9301769145795511 29.4144645435095455 17.4581809833168116
 13.5834058876021526 24.3228650945674438 14.0850534486835599
 13.1618495245791802 14.3153035555882067 13.9966094217813914
  8.0210532176007909 27.9084386455882374 14.0534348556978355
 16.0947059111425226 15.8432341920719146 17.3568820921250975
  7.9810705880827459 27.8842793289631707 17.4106415586069936
 16.0863550046089436 15.8673484869114869 13.9977711921385914
 19.0255295769840806 17.3693032749060698 17.3713864206382951
 19.0191635946911006 17.4059403633679928 14.0129124743739446
  5.0749599688909228 26.3650867721115816 14.0083622574085442
 21.9704258150047380 18.8920829082042765 17.3874296912418842
  5.0419731290592189 26.3420859059968961 17.3666289345815201
 10.2419994261429625 12.7614070217278375 14.0087270128751626
 -1.5043891565523078  6.7043755500073008 17.4778454018246414
 19.1538098620100499 20.7243159618162558 14.0555815166386964
 22.1165695423700797 22.1965866620766654 17.4280638088431985
 22.2756786075796995 25.5071601144797242 17.4689702833179190
 22.2510494763068678 25.5448714898810110 14.1117531724299603
 -0.9443584194595258 19.9375496601326496 17.3237282409031828
 -6.9670003973955579 13.5844323265455280 17.3743147535980427
 -6.9567365857674330 13.5652347622584770 14.0151383440387445
 -3.8935885276726721 18.3904151675731349 13.9817626410228240
 -4.0125347448189412 15.1072991146053770 17.3637941904892088
 -4.0100668111914155 15.0796000477526420 14.0047321705816721
 -3.8822091335462088 18.4022502170103301 17.3387389054380208
 -1.0697576334705055 16.6351906809005818 17.3467153084845869
 -1.0686631533854669 16.6053221030753484 13.9875654977703299
 -6.8406007678204572 16.8676133526607828 13.9980377676324625
 -0.9485586735066294 19.9272052732451570 13.9650202008423321
  1.8599964996298426 18.1668411730260040 17.3344031334913673
 -6.8323269131028121 16.8737596664011527 17.3547876112330357
  4.7795694898146905 19.7014671572192057 17.3387389059260855
  4.7955086404542202 19.6975298374165178 13.9817626504129660
 19.4693674010594897 27.3461225781339508 14.1423306051113933
 19.4771224305945054 27.3130076705854705 17.5000680234597468
  7.6982436540367658 21.2360774158934191 17.3637941913209453
  7.7209977837217307 21.2520642436006497 14.0047321719759257
 10.6245642487603646 22.7641519686489140 17.4008928309614213
 16.5238461106365264 25.8396720525771357 14.1209612136290268
 10.6495331440351002 22.7949467251707105 14.0432586383646427
 16.5157576983901748 25.8002522427420580 17.4783324253721979
 13.5641758276664515 24.2852509625609834 17.4422312888452709
  1.8672453606366162 18.1444558287199733 13.9756711176921282
 16.6823661404052004 29.1241915946051648 17.5115358051936347
 19.3043734595496908 24.0383960201939644 14.1017367508802707
  1.9810358121662575 21.4780707865800728 17.3237282432429041
 22.0976200971818564 22.2390612896021516 14.0709318783130204
 -4.1523436619301028 11.8089938634756866 17.4008928301765771
 13.7488988381754922 27.6400749835416732 14.1204992757183376
 -4.1381590707213505 11.7719727911012040 14.0432586381790490
 13.7213161326913049 27.6096569976410855 17.4778454049942624
 -1.2012090463522078 13.3299554806020524 17.3856673135826050
 -1.1948827865919347 13.2876890069795444 14.0281625582112319
 10.8049172791779728 26.1205560855374515 14.0748895728112728
  1.7375335810874850 14.8546926243828423 17.3666289368687323
  1.7409594962028467 14.8146247499413182 14.0083622572974118
 10.7707139980531839 26.0899588907158630 17.4320235549723570
  4.6628454520804752 16.3815481512066405 17.3534092482387052
 19.3133230667045979 23.9937713225503479 17.4588641947799559
  6.8371981618952384  1.2627060804195749 14.1209612114928920
  7.5783400260635263 17.9108354908492480 17.3547876132793526
  7.8318055435078735 24.5594287066424322 17.3856673135477173
  7.5877998173507546 17.9067432788491665 13.9980377721248743
 10.4943178057983406 19.4388685002383070 17.3743147546535859
 10.5058114776887237 19.4573560072634386 14.0151383449113940
  4.9289818969010648 23.0365335052508620 13.9875654951403767
 13.4203983695908189 20.9601352806319596 17.4034996106757802
  4.9036621876999380 23.0206513705558820 17.3467153062643717
 13.4301293369178207 20.9961085328381216 14.0458157383929354
 16.3607305234679217 22.4786095304570281 17.4344396626602709
 16.3629015376228928 22.5223708892458383 14.0771593540635269
  1.9920944422763980 21.4796054528716844 13.9650202018436573
  7.8652462540301986 24.5860406448831306 14.0281625573772146
 24.7796126061552968 17.1416771928482170 14.0087270136382145
 13.1750223084738689 14.3120700512453922 17.3529425956454766
 -3.6130188935545577 25.0010543387120592 17.3467153114440613
 -12.2025275538060090 27.0486376479668245 14.1009906768723905
  7.0068852950094280  4.5713514138967000 14.1017367543030918
 -12.1634808925233884 27.0232625995382811 17.4581809828646044
  9.9869308347113961  6.1272320067157411 17.4127691974274050
  9.9522446095278454  6.0979995418546187 14.0555815193987890
 12.9219109705317656  7.6644119018644590 17.3713864186853577
 -0.5263133891003821 29.8825397588442527 13.9980377690303008
 12.8933653149885057  7.6405802510783971 14.0129124730414372
 -0.5251274529401453 29.8723012329608899 17.3547876112709183
 15.8486386997971476  9.2089971766623773 17.3423030021729758
 15.8340193080700562  9.1953518156015512 13.9830243264475484
  7.0410566132492667  4.6014143528928386 17.4588641946061962
 24.7882059174589351 17.1169266975350212 17.3672346573978480
 18.7752810979821767 10.7548946658660487 13.9728927095001474
 -3.4648232485255246 28.3135198582359884 17.3637941905359732
 21.7098123109703920 12.2943772525431463 17.3393226061007439
 21.7193065230681093 12.3038553546723914 13.9818277642429454
 -6.4494778051703294 26.7831667418913781 14.0281625585573000
 24.6560147421112745 13.8262733526279149 17.3529425956180994
 -6.4097108364641482 26.7675122018398213 17.3856673116320515
 24.6654014311645930 13.8360645666009745 13.9966094212318062
 27.6126573148348236 15.3510771097638177 17.3607048220537621
 27.6135618163356611 15.3543717026167279 14.0041538935204706
 -9.4046623590062044 25.2569005264420454 14.0534348545048857
 18.7752810979821909 10.7548946658660665 17.3326036996116883
  4.0598130929573664  3.0603770789792968 14.1423306171247098
  4.0846139314200496  3.0836505875068756 17.5000680248803810
 -9.2046430842154923 28.5474164916398543 17.4320235538212316
  9.8295214878297710  2.8019750957570633 17.4344396626506040
  9.7905375313773249  2.7819745672665825 14.0771593534998090
 19.6412833405203067 30.6484067374867521 14.1648956893744842
 19.6484345548010459 30.6370329555213203 17.5232799189872601
 12.7746357314678214  4.3399999278789645 17.3909105899899608
 12.7416833127642732  4.3183199367155396 14.0331399797143490
 -12.0361754186388357 30.3515421731695270 14.1204992766147512
 15.7089373999657713  5.8892786944958244 17.3568820910973898
 15.6922292608496825  5.8699894511296309 13.9977711917582539
 -11.9960413187441830 30.3428638404414812 17.4778453995758163
 18.6412465202711530  7.4437747932697915 17.3393226064527042
 18.6447076913887386  7.4308135142547620 13.9818277690286443
 -14.9869288417169209 28.8474983727003895 14.1422532579043221
 21.5773887944975300  8.9932967453195012 17.3423030044690165
 21.5965157185513803  8.9874586618961239 13.9830243284050759
 -14.9598832706672624 28.8261436042945753 17.5000503878302602
 24.5221999844629117 10.5321711138866725 17.3568820923819374
 24.5472590285571250 10.5273460629477285 13.9977711918434622
 -6.2904884141869655 30.0899768721667549 14.0432586395066590
 27.4765162157269494 12.0618593094168105 17.3712039527104452
 27.4971992255348354 12.0522908310566628 14.0120089829051864
 -6.2513349277050265 30.0837505572033841 17.4008928309066704
  1.1202675293008406  1.5699985960457843 17.5232799198088927
  1.1139931523115114  1.5581185722646282 14.1648956894382696
 -9.2482426711122905 28.5617388017529024 14.0748895718850680
 -1.6732887230128803  3.3827637235342749 17.5115358039634792
 -9.3637484628691929 25.2343542127305867 17.4106415587695160
 -3.4900453122884829 28.3252320983672767 14.0047321725391463
  5.2327357714813294 29.6835326233933010 14.0281660190151509
  4.2289012609200842  6.3700099670979684 14.1117531715710083
 18.8953082666929681 14.0818735202804284 13.9830243254307796
  7.1958409465528463  7.9276893419614485 17.4280638078210579
 18.8998157998350820 14.0623900745823569 17.3423030026554841
 -0.6810344527122463 26.5689513854423183 13.9817626423039485
  7.1685315569818471  7.8900413273300023 14.0709318800612184
  5.1951268765505985 29.6661829471959493 17.3863158746264226
 15.9618290801299860 12.5300151295193913 13.9818277674549520
 10.1306970073160088  9.4533770385395162 17.3874296899829162
 10.1029578300581022  9.4240015140006701 14.0293953138443221
 15.9747844628596898 12.5265319512273532 17.3393226092599626
 -1.6591594080249830  3.3602344823683064 14.1534162892245696
  2.2570215194988692 28.1120525384922217 17.3534092482929445
  2.2773517380941128 28.1301956022181514 13.9950697253470953
 13.0549145397087809 10.9880185644639603 17.3555188558767703
 -0.6764746966681779 26.5531790164978041 17.3387389044070517
  4.2492457006726641  6.4101951069329637 17.4689702838358372
 13.0331277973869089 10.9727633243513925 13.9968287775005003
 21.8373555952563727 15.5923154758560809 17.3555188559488229
 -12.3240693420385448 23.7123962071631027 17.4278252191000398
 -12.3569000018192661 23.7456850735374800 14.0706699974992073
 21.8350375416955593 15.6188109679993286 13.9968287742096358
  1.2860790947820515  4.8618737093848186 14.1422532514754327
 -3.6394330816947100 25.0150407806901889 13.9875654938573746
  1.2910500787495527  4.8959732465440764 17.5000503910638123
 -4.5122228023738717 26.7030676584063720 15.6829876398474735
 -7.1452088486945096 31.7883024991906069 15.7373886281360047
 -1.5616450576822427 28.2569814255926488 15.6694539521528178
 10.0798738496568614 31.1291512639203241 15.7751580038798807
 -1.8445670444000990 21.6260289240824513 15.6407653735319805
 25.8291174667330026  2.7084884201015185  8.9875071346881139
 19.5468410867907849 15.7728770884756546  9.0516380833529730
 25.5289034606244343  9.3588153250832899  9.0341179666725466
 19.7982310596972049  9.1305536120613784  9.0763402313654815
 -7.4659282191573206 25.1635459294681532 15.7076702862410276
 -10.1014736611848193 30.2577675305506908 15.7739421549135201
 10.9584545117772052 13.7478682744100809  9.0413329834196379
  8.6001788848391740  2.0494259316169368  8.9431634530937156
 34.5207567070460470  1.4644446047074060  8.8789370430510353
 16.7326615905477389 13.9929358777365014  9.0656680269488525
 22.3519702295482574 17.5628155804664985  9.0301200711637986
 15.6484074134794788 27.5271074182438120 15.8146727471614650
  8.1357821585209784 11.9705248960145827  9.0149214047350377
 -4.7913582373612824 20.0870664568630737 15.6580347650690559
 18.6020899001172637 29.0361326663145078 15.8381216048418878
 31.5661888852661825  2.9758679832830279  8.9135724743225691
 -10.4216818491043206 23.6378971634435224 15.7295984696972244
  2.5231773407859706  8.3880581060895789  8.9418556507182156
 14.1894297423136919  5.6041258021422333  9.0341179669684255
 -15.8448750180506739 30.5430556375353888 15.8381685631775699
 -7.7431980328228160 18.5593251871933127 15.6757726255805796
 -12.8880969260684051 32.0530486364897556 15.8146727547891910
 23.0422639050627360  0.9330031867547864  9.0149214053150803
 -0.2678879156045518  6.5856025259891107  8.9132952971912474
 11.3914142150838256  3.8331044294474785  8.9898961475122459
 34.3500599591621949  4.7800860445758033  8.9024328562147215
 28.3204227349494246 11.1516767383129665  9.0189348647330885
 28.7815263939930119  1.1780421997286583  8.9419476040718102
  5.8135556184314403  0.2541448251780872  8.9024328633728356
 25.1477972284955307 19.3611559141748621  9.0149214049158353
 16.9923649031246562  7.3669136762650833  9.0656680285867211
  5.3239466847816921 10.1841250648877306  8.9783121004593056
  1.0965785148386131 23.1766398505624309 15.6407653743876462
  8.4352166765412555  5.3617091894404521  8.9613619304307015
 11.0911040730005830 10.4484378576934542  9.0301200747922294
  7.1274649221717539 29.5987050427126164 15.7295984688114725
 25.6724912422215610  6.0310705349748330  9.0094353254036523
 15.8191041630600555 30.8427488586870169 15.8381685659414657
 22.4767029223199941 14.2354806458340359  9.0590708478785178
  2.8567775268433220  1.7641378235063432  8.8789370495478099
 -7.3102383298516909 28.4740890301577494 15.7272094575120143
 17.1400074865214549  4.0502120372708399  9.0476516565281546
 19.6705267339585248 12.4529658465653323  9.0763402321671212
 28.4616607208776635  7.8211734848530172  8.9898961480215647
 -10.5658703848831834 20.3366685654889636 15.7021842049533422
  5.6429924826414766  3.5671569272893144  8.9135724747167107
 16.8570855002041924 10.6811645388552758  9.0763402353120242
 31.2493390374198619  9.6211999411512004  8.9797169832557184
 -7.6105484724767587 21.8587556014533781 15.6869855371203375
 -10.2664358677173961 26.9454842722507237 15.7557436709917642
 14.0438008502566181  8.9140940045649195  9.0516380833593839
 -1.7092876408065587 24.9402797864515016 15.6514375791061067
 14.3463336335356981  2.2901684897011974  9.0189348629339197
 11.5564436971586808  0.5188909631953746  8.9797169832980490
 11.2357243253610495  7.1436475317903847  9.0094353241321752
 -13.2232916197590669 25.4295351849971567 15.7751580033042451
 -4.6578516951063751 23.3930994582151541 15.6654675251490172
  1.2371935200192909 26.4981171162140221 15.6580347650008811
  4.3406113604764398 31.3741902761527207 15.7021842039628563
 25.2756855698677008 16.0279782618595377  9.0413329840777266
 -4.3553189106857468 30.0170249748419309 15.6981707439032903
 13.9102943076557324 12.2201270061334792  9.0590708439741725
 22.6008167988899800 10.9048344443720495  9.0656680294594594
  4.0335488143702509 24.7294805594564728 15.6654675221678286
 31.4019892789944706  6.2957320292267092  8.9431634519691308
 -13.0586600616728976 28.7400365348188416 15.8035331332975844
 22.7352013582463854  7.5777129038280240  9.0516380862754513
  8.2799706957673163  8.6692962988151265  8.9875071341847814
  1.3900506679639379 29.8183560021720986 15.6757726249495235
 17.2989162560534773  0.7328444721619233  9.0357209469417388
  6.9708386987732229 26.2761229278209569 15.7076702854900407
 28.6159489365575830  4.4967289380694044  8.9613619396794419
 25.3993433839384437 12.6910474911750786  9.0476516564580223
  4.1811164468256203 28.0537629036665059 15.6869855344779126
 -1.4027362882286887 31.5743489905849799 15.6813846621528317
  9.9142963918271718 27.8104645254447540 15.7557436708708636
 20.0917032122257631  2.4888374609603674  9.0413329871328862
  2.6862448545246020  5.0766242685466763  8.9016788469117056
 19.9388460644747560  5.8090763456056038  9.0590708470152670
 28.1928135842338392 14.4873503036583546  9.0357209470912299
 22.8827689914240011  4.2534305581200131  9.0301200715753644
 -0.0995626444243568  3.2710607956760778  8.8789840038287995
 12.8645363388057916 29.3313254785828121 15.8035331325358630
  5.4783609245439955  6.8776582779591777  8.9419476044589761
 12.7003367355238037 26.0114614341036408 15.7739421544046614
  5.9845001525606349  2.9757845907998273 15.8038103074492540
 16.6075100906641531 17.3017428684421972  9.0341179662088411
  1.5519001805744221 31.5630971015631161  9.0340325385714753
 -12.5517127030439202 26.0130476644249562  8.9418556501838680
  9.2358286515592756 11.1464579970982314 15.7024675057554433
 -9.7659931328971172 27.8098876647455171  8.9595639980077166
  6.3049947869219993  9.6177166798238130 15.7387935070314775
 -6.9789420391921153 29.5946969959531110  8.9862123003071215
 -4.1911046638931726 31.3661881633468873  9.0152374343341606
 12.1580917074967019 12.6853829969487126 15.6757968234582901
  3.3643034308789539  8.0982099394302463 15.7751580047393354
  0.4150093834107634  6.5855343766002230 15.8035331340388741
 -12.7171523915599849 29.3314088724882218  8.9132953055343904
 -9.9321133306610108 31.1269299951814347  8.9420619506210421
 -2.5394248283994441  5.0767403341573836 15.8146727475392321
 -15.6717923684049456 30.8429057740360122  8.8789840096011403
 26.7057509279483689 17.0405146003001065 15.6830730705580681
 -18.6280239913322987 32.3497029277626709  8.8673309451749134
 -15.5010322812837060 27.5275439726095073  8.9016788451286164
 -1.2410086292294489 29.8082671610128180  9.0374841362350846
 15.0788342015382675 14.2305696765176606 15.6662023003620394
 -4.0310906858209963 28.0484118873294683  9.0262985423914870
  6.4461446831051497 12.9460375483565819 15.7021842032426999
 -9.4658238931657905 21.1607354653561011  9.0146381036559866
 -6.6756857196950534 22.9508720685847614  9.0276144861667351
  3.5151025874422861 11.4202941846627439 15.7295984698541247
 -3.8829960154442356 24.7279083213477016  9.0439379732553320
  0.5730251347374419  9.9009475944781347 15.7557436710103165
 -1.0881708536692705 26.4913532181716960  9.0509033041771438
  1.7103713120031439 28.2481970747768756  9.0413087850553318
 -2.3779774148435848  8.3876674264198119 15.7739421541340583
  4.5042509840172320 30.0094886205023421  9.0146381039216408
 23.8841111148701550 18.8205211573624176 15.7024675046287960
  7.2935967354114526 31.7832945441395047  8.9783120998419648
 -12.3966577590514877 22.6894767830558770  8.9783121018139536
 20.9387382533229101 17.2992589210600407 15.6894911220145747
 -9.6096518032022544 24.4880539644119608  8.9866673535181345
 18.0034348613420185 15.7692368159613530 15.6731676357838747
 -6.8209750811095411 26.2749481486499583  9.0056500034291425
 31.7373256328263444  0.2544653172051868 15.8154267643877411
 13.0356730880921692 32.0527281472243004  8.9016788461974929
 23.7557277289612010 15.5203046145820061 15.6757968246252286
 20.8137734523863429 13.9906459189576218 15.6613170413071110
 29.2664875400792219  8.6683884682944683 15.7308933084554479
 23.6335274008124507 12.2182740768810909 15.6662023058525044
  8.7695392133842329  1.1802634694754290 15.7750436486387979
 20.6905818298463089 10.6811819789758591 15.6526042340901288
 11.7227105057996557  2.7124964692642397 15.7308933082113533
 14.6705618596325884  4.2587815754673430 15.6908070632593670
 17.7537936724526801  9.1330519193157063 15.6526042341358433
 26.3125172265414804  7.1453174461826361 15.7114556070495173
 17.6134816923218906  5.8158402447331206 15.6662022994222863
 20.5582777061585169  7.3716328754138578 15.6613170409125360
 23.5037519023343933  8.9161620402958111 15.6731676355153020
 11.8806774646836359  6.0322453135466461 15.7114556054041596
 26.4534396794924227 10.4481600732533000 15.6908070637704551
  8.9356594088280268  4.4973057967754713 15.7575416111305344
 29.4067252064775033 11.9684720412973338 15.7018681742982444
  3.0298601762002062  1.4642876885680565 15.8381216056874692
 14.8186565294937918  7.5792851407057205 15.6731676361872267
 26.5824780253552149 13.7443696512061369 15.6796214717028626
 23.3611382182627416  5.6091036819422246 15.6894911224232185
  0.2466565148951731  3.2710918930560577 15.8381685556162086
 25.9952492788330112  0.5238989179329822 15.7387935073668181
 28.9510735645627726  2.0514028412305763 15.7752499589396074
 17.8814677918838001 12.4504500992973846 15.6526042309555748
 31.9075785148401039  3.5673084679575835 15.8038103075589866
 14.9537921353787340 10.9024052043183701 15.6613170414502889
 20.2535527256985404  0.7440963617336622 15.6830730709614592
 23.2059035292521116  2.2977048442330918 15.7024675051796709
 12.0259668243824560  9.3563213940694645 15.6894911224481834
 26.1593598298791612  3.8368054713887823 15.7304382556678064
  9.0920007429172784  7.8191394976070105 15.7304382545674724
 29.1143228682575064  5.3623267569688942 15.7575416069778793
 32.0700258868632915  6.8769836108070379 15.7750436541957573
  6.1499398440608024  6.2941457981156237 15.7752499595594777
 14.5105478810642250  0.9410053001961215 15.7018681738914037
  3.2006202623833739  4.7796494884772001 15.8154267650742018
 17.4606439151537209  2.4989263016757772 15.6796214655192738
 20.4120238569378607  4.0589963883974924 15.6757968243390788
 34.6938932177266963  1.7642636430835921 15.8381215989104227
 13.7864924238998992 15.5234244685894538  9.0476516531304298
  9.3665396404768249 14.4800730351981066 15.6830730701664098
  7.4577072856113160 28.4703879900109058  8.9866673544811242
 -3.3650072968964126 11.4233944038807067  8.9862123008646861
 15.4862781953982900 24.2074369186893428 15.7750436639724878
 -0.5690039423436026 13.2200722243726663  9.0056500032232947
  2.2370857080737707 15.0079345416449144  9.0276144866728174
 12.5476864917514259 22.6859935203199861 15.7373886285482047
  5.0540751849448950 16.7868888486449066  9.0413087816044015
  9.6187701894027349 21.1555167240506314 15.6981707455542594
 18.4337646275237681 25.7215909377179344 15.8038103087526896
  7.8808254808987606 18.5628238111653445  9.0374841423824286
  6.6976908391302157 19.6161459713584456 15.6694539519466183
 13.5200605596219301 22.1245930907264707  8.9797169819307019
  3.7750503774385620 18.0717128167110808 15.6580347613004811
 16.3236751300665723 23.9195260346245284  8.9431634535397801
 19.1166619281377663 25.7216590862961603  8.9135724766335969
  0.8451885412363455 16.5343163736387737 15.6654675236188385
 -6.2930823393715167 12.9519868083934213  9.0152374354881726
 10.7050726605067279 20.3387214207310514  9.0152374350869824
 22.0659559738621098 24.2089835230070776  8.9419476034132970
 19.2746776817449685 22.4062458681164749  8.9613619334555690
 21.3878973973748714 27.2305691933401413 15.8154267589981590
  9.7600081789796054 24.4860199778320222 15.7272094605883872
 19.4176277255612746 19.0899659309721983  9.0094353261922500
  6.8272509154011853 22.9483781360535914 15.6829876424819261
 22.2167551327286468 20.8868992782809144  8.9875071327291938
 -3.2153743508736889  8.0997565441098747  8.9420619562963299
  3.8991642543281859 21.4023590185168473 15.6514375824935374
 -0.4257915312054720  9.9021420182782371  8.9595639989429809
  0.9688741891601529 19.8542276162879716 15.6407653750185940
  2.3728301753507530 11.6984544357285234  8.9866673547519724
  5.1824585675794035 13.4866723051580912  9.0146381041300909
 -1.9689909543977953 18.3142575850515108 15.6514375796751342
  8.0040983838368618 15.2666788618222391  9.0340325392100329
 -4.9151601220047221 16.7837689926118259 15.6694539549870644
 10.8341134526880420 17.0444892209163150  9.0357209467604083
 13.6590869246149182 18.8228387700087438  9.0189348650307828
 -7.8675390919111319 15.2627042412281924 15.6813846617778978
 16.4727683569386123 20.6104060825757109  8.9898961475165340
 -2.0941424526899288 15.0054505933998179 15.6829876421871166
 10.2494210192426269 30.2557906216208892  8.9418556482775333
 -3.4998107885135212 14.7494511160226978  9.0262985424123556
 -5.0425656195615209 13.4843546925775293 15.6981707445411978
 -2.2288841879195389 11.6967873800899387 15.7272094605971411
 10.4126703215935557 26.9448667055424522  8.9595639998694327
 13.2059259706405570 28.7398849913540246  8.9132953081175241
 -5.1815919849138083 10.1826003694162406 15.7373886261894764
 15.9922406736517626 30.5429298203022448  8.8789840027229019
 24.0255992302286145 22.1230683997679130 15.7387935075196506
 -9.3351129036388016 17.8271204278404021  9.0340325379200941
  7.6108646824551585 25.1618760157366985  9.0056500003180293
 -6.5435608370903759 19.6218104670459148  9.0413087840970583
 -3.7478604092765044 21.4047882595790853  9.0557885666504880
 18.1326486029639540 19.0871212378786979 15.7114556045167806
 -0.9478588720636932 23.1741415432310447  9.0645013737935329
  1.8566251617247802 24.9355605872621986  9.0557885660989630
 15.2018417549488394 17.5577423472370384 15.6908070637648951
  4.6594856733932994 26.6980897780841389  9.0276144863622143
 12.2827213530336099 16.0213880454565611 15.6796214665585900
 21.0744827201857206 20.6087390284654006 15.7304382555980169
  0.7159751815399773 13.2172275319371781 15.7076702827931403
  4.8020993590194365 23.3910314233091867  9.0439379729114489
  1.9889292853760165 21.6260114831578178  9.0645013739335720
  2.1121209074412035 18.3165475441913728  9.0557885664335362
 21.2248298859432865 23.9191353572930439 15.7752499587329389
  4.9318748559939580 20.0889193860017343  9.0509033095807379
  7.7517871355148733 21.8590333883952006  9.0262985417151143
 18.2758610142082105 22.4050514452184260 15.7575416080138275
 10.5648349951216129 23.6388049917960714  8.9862123007299175
 15.3366452468347685 20.8837990594110146 15.7308933056762239
 13.3683733427318625 25.4302098547010900  8.9420619540697199
 16.1622277170093938 27.2304531294952987  8.9024328553632266
 12.4085702056790659 19.3552066543455759 15.7018681739926524
 18.9483090581034510 29.0361015692860391  8.8789370502336507
  9.4911610403149034 17.8198431586504640 15.6813846651188999
 -6.4189311918899437 16.2858054181097920  9.0374841428021995
 -3.6228183429974092 18.0766237859124814  9.0509033029688784
  6.5740330244067495 16.2792152010527218 15.6757726218754900
 -0.8201847535092712 19.8567433632673946  9.0645013772111422
  3.6503176838000302 14.7443778816810447 15.6869855333399979
 -0.6982176835664483 16.5379566448468402  9.0439379733103333
 -18.6280239913332402 32.3497029277624435 15.8497746612486843
