Mo S  Se W 
 1.0000000000000000
    72.3319022730155012    0.0000000000000000    0.0000000000000000
   -36.1659507011746868   62.6412649876821632    0.0000000000000000
     0.0000000000000000    0.0000000000000000   24.4856654507443388
 Mo  S   Se  W  
 516 1032 950 475
Cartesian
 14.2613066722624762  2.8482882167394297  8.2702649607306107
 15.9772187670560459 15.4608674706647715  8.8920148465421018
 16.4008523313531320 18.6266569296697142  9.0342316122545174
 16.8231168436404595 21.7970148641597561  9.1458845068670094
 17.2448703457064987 24.9704837610579524  9.2261778244230506
 17.6662566450197218 28.1459989467120941  9.2752229012527714
 18.0881665459751346 31.3220001340597776  9.2931413015809756
 18.5094944170041735 34.4979681415314587  9.2800328108634567
 18.9297883754691796 37.6733716377580024  9.2352659165849786
 19.3496296866117277 40.8470100315550653  9.1587624700176580
 15.5515038307105886 12.3004809483908115  8.7254055753129602
 19.7704885116500684 44.0175418736678523  9.0500800279266542
 20.6141387323968459 50.3432788191558629  8.7427504519252537
 21.0383627299739793 53.4964226245306307  8.5648222600765838
 21.4652111520098217 56.6448301294004324  8.3987200566322002
 21.8948834474989908 59.7908717941234684  8.2704712081382521
 16.7698137295094654  0.9100392891422093  8.4584979049066007
 17.2029826667637700  4.0578709093724648  8.5351289673765560
 17.6345621592084996  7.2075346883359765  8.6599156421190848
 18.0632749574377591 10.3598534206638142  8.8103361449792050
 18.4896279466181177 13.5173818203034628  8.9633109080862461
 20.1917365244120504 47.1835357471398211  8.9099115348076516
 18.9137432010287831 16.6804521597409128  9.0978457343544630
 15.1233295902907958  9.1462986289624126  8.5510005181153623
 19.3837548045809278 61.7292058559543975  8.4554594343753990
 16.4357241469711184 60.5183412318928973  8.6982226260974151
 11.3228561350401051  1.6425756820517770  8.0057337518074245
 11.7553088140250992  4.7898948471282337  8.1136653725797103
 12.1859740823831419  7.9385974097076764  8.2772211663809951
 12.6151994060730388 11.0892637568754289  8.4707333810544121
 13.0424839536696755 14.2455227747343951  8.6690367158733910
 13.4671150158409034 17.4082071089439232  8.8517533208696015
 13.8903682787476548 20.5763524242894746  9.0075079995196496
 14.3122908415856607 23.7480808907303960  9.1332374796888445
 14.6930567430734431  5.9964599083822758  8.3907393613726278
 14.7337522726913388 26.9217428123300238  9.2287951969720847
 15.5757325124677788 33.2733263188250206  9.3267599046442413
 15.9961306072578608 36.4486859414086339  9.3280633751250992
 16.4158315233655472 39.6230400367461115  9.2959688979924611
 16.8351757785251372 42.7955972716083295  9.2290363492408147
 17.2550405337570041 45.9640359988984386  9.1274690298050061
 17.6754954846897938 49.1273447352746402  8.9930674114115590
 18.0981471563362142 52.2844333974417452  8.8363772476166371
 18.5235308535192758 55.4358159640592731  8.6787199917572657
 18.9519808435424970 58.5836667620826788  8.5439646537942995
 15.1549577974112868 30.0972664836121204  9.2933116122940067
 16.0049076826729362 57.3704758715665477  8.7988765936621540
 19.3357284052088794 19.8484651341671636  9.2013415463897346
 20.1781158987120790 26.1948114686997791  9.3061416949117586
 25.2148591292514439 43.2845714553129710  8.8462320254929150
 25.6366792355338191 46.4478349771629695  8.6495963998333778
 26.0596881933853126 49.6048547263217898  8.4303422791315370
 26.4843087041079173 52.7558999946387033  8.2060429960226955
 26.9110858462969063 55.9035096184258933  8.0024245902190732
 27.3407247600846794 59.0484961678521429  7.8452466516309682
 27.7734221726053221 62.1931695734303673  7.7592145836473856
 22.2335461629570936  0.1910106026631392  8.8557110114127084
 22.6672751537431765  3.3406449850928137  8.9021970879600492
 24.7940471039143553 40.1159623349019654  9.0132704909776340
 23.0994055385228698  6.4917139215606747  8.9954730893276249
 23.9534689923157984 12.8019347687664133  9.2435447412082627
 24.3747258191850982 15.9634322261126691  9.3529152435680185
 24.7933056010054358 19.1290683967557413  9.4283282678523239
 25.2115192825208325 22.2986645716207690  9.4638220239308595
 25.6300368597723640 25.4713305011852711  9.4575023804299168
 26.0486200298033879 28.6455604893121993  9.4121000288830103
 26.4678476671048912 31.8198977233923834  9.3314046249035094
 26.8869035850021660 34.9934251072328451  9.2175737057653482
 27.3058869891465790 38.1649973702895622  9.0715100951980236
 23.5284928210794035  9.6450967091835196  9.1167747476813954
 19.7570907654749846 23.0202487289055675  9.2707189406291786
 24.3737335898474434 36.9441511854726841  9.1493053365210084
 23.5337139686633314 30.5950141956675417  9.3277723914368522
 20.5999222939703586 29.3701729229801600  9.3087140797632202
 21.0213160080323220 32.5461231131671411  9.2799047483017674
 21.4417233431494942 35.7218867467010668  9.2196741428738509
 21.8620594350951372 38.8960139070979736  9.1285290860961741
 22.2827546315684124 42.0675343476375190  9.0067207730558501
 22.7041174043537772 45.2351995792989356  8.8542643543970350
 23.1264352358477936 48.3971327965984344  8.6733446470887099
 23.5499495965639376 51.5525738861008094  8.4747909985582766
 23.9754687997991347 54.7020126379254492  8.2793041638464455
 23.9537023387566386 33.7703193474857528  9.2543453568313154
 24.4035456198086713 57.8487610703836381  8.1124910403520420
 19.7162997406522855  2.1229513360124450  8.6937745850588879
 20.1493439318470919  5.2724648297300707  8.7806616841189697
 20.5798875566988464  8.4242629396649633  8.9045869579121426
 21.0066165816359742 11.5788348297650519  9.0434461355826521
 21.4308364297628913 14.7385929279937837  9.1747500193151108
 21.8522157873058340 17.9036351098736404  9.2785890935877795
 22.2724695308563803 21.0727019304686678  9.3464593289530349
 22.6924873471530155 24.2450371150648358  9.3761361790267248
 23.1131337661457827 27.4192785098920879  9.3689568118473403
 24.8344266975336652 60.9938748876155117  7.9998745404719473
 15.5775679758604362 54.2200808123280922  8.9339886710295371
 15.1541065637725261 51.0657798623925601  9.0800667516954263
 14.7337568756476269 47.9055103700316778  9.2136977244267531
  2.5805126083693777 18.8744065100302265  8.6904166128185807
  3.0004162337157991 22.0342086005753259  8.9441744817476803
  3.4177555500181707 25.1987100850799521  9.1633441452895621
  3.8329098201180329 28.3670465718477161  9.3445549382785380
  4.2464213940525637 31.5375244802215526  9.4875541975353634
  4.6587894978897788 34.7091418238372285  9.5919874589746819
  5.0711424990206035 37.8807489689215728  9.6550020705276669
  5.4832170822244919 41.0514911760374801  9.6741420449698285
  5.8951786268022000 44.2198500099354703  9.6486157573500293
  2.1572715745162108 15.7220508083309323  8.4115068679725731
  6.3087211754326331 47.3852278311467074  9.5825202134628533
  7.1469844018274191 53.7037575870459136  9.3646413801006023
  7.5733475015384579 56.8578609747407242  9.2515315118787811
  8.0036420946025117 60.0095111010702098  9.1665329801707678
  2.9406736445045398  1.1915129630295254  7.4844171524864898
  3.3755356369283271  4.3388425116084415  7.5842713304519584
  3.8088480349962226  7.4848891325096236  7.7698614833618915
  4.2389631332915680 10.6299422255513445  8.0124377582347464
  4.6672617868101618 13.7769425756941342  8.2835356474942987
  5.0926212425195239 16.9296041953910112  8.5562838372101275
  6.7256045461144360 50.5467485474847820  9.4826860251216445
  5.5151221263315016 20.0893371389335549  8.8097157832501001
  1.7309676491415076 12.5756284188071685  8.1251631856951807
  0.8689883764033765  6.2881474114004403  7.6324410179514368
 -1.6385010484838203  8.2343061147906322  7.7679742391249027
 -1.2077377226952204 11.3761333422412978  8.0132294358335372
 -0.7798056657949232 14.5193369869720907  8.2911234998036942
 -0.3562324829814583 17.6659952686836625  8.5766775393230095
  0.0638542273719279 20.8185265744143777  8.8474300120814799
  0.4805252462886274 23.9778471926589276  9.0897206385905704
  0.8943629527425977 27.1422193625062178  9.2953661911395571
  1.3063820782016404 30.3099106951554482  9.4609154753215456
  1.7165206224478604 33.4791175502327576  9.5868746796774413
  1.3014901908378771  9.4317838931547691  7.8565844068644335
  2.1261777588169308 36.6495206850938189  9.6718868026268492
  2.9463966023579360 42.9886366322284559  9.7127077477944770
  3.3581522455572843 46.1551234851774055  9.6694720787691093
  3.7724349964758810 49.3187165282135993  9.5888073299644461
  4.1917268418213522 52.4778348890206203  9.4817760504569240
  4.6162663418333238 55.6330576946955588  9.3696577055797086
  5.0456989947477764 58.7860913968157277  9.2771781061492131
  5.4786791791209861 61.9374378656053182  9.2248729153689339
 -0.0022682430058756 -0.0039076315480552  7.4316716826485028
  0.4339372332146242  3.1424215814253440  7.4836767398002078
  2.5362484285057336 39.8198489537242963  9.7139677794295114
  5.9353404063211919 23.2536444940466929  9.0317631898078883
  6.3530784389709707 26.4223999166177350  9.2187815603919390
  6.7697624137368715 29.5938952321065400  9.3697654833400410
 12.2072662721713527 49.8417788311157608  9.2872763848574102
 12.6287988308552794 52.9990665074736356  9.1549827540093442
 13.0544530857783734 56.1519044417756845  9.0228072539958077
 13.4839244695050020 59.3019067723749700  8.9147858598106584
 13.9166231476933664 62.4496709870072166  8.8516377826671668
  8.3854878958163503  0.4410359100656098  7.7675796746973758
  8.8185156970499907  3.5879322423179438  7.8519702635062201
  9.2504679603922195  6.7350210039471392  8.0086654921677916
  9.6803230126033526  9.8835929021821300  8.2129593821851188
 11.7895912620877521 46.6788435914813391  9.3977316216639242
 10.1085256219069830 13.0356326013878814  8.4388694399292543
 10.9584718437456257 19.3576941648278762  8.8606028128857641
 11.3803285463639785 22.5269112663304050  9.0317464784199100
 11.8010979716395497 25.6987579553504162  9.1723828505755645
 12.2216581743803143 28.8722817991275384  9.2813083471577222
 12.6414439933108262 32.0472651042263905  9.3583032005316991
 13.0607811452407194 35.2227247522707856  9.4026476213662225
 13.4795680643901221 38.3971393759142430  9.4122178969433854
 13.8978924915009756 41.5697544544480877  9.3838803014013905
 14.3156173316681343 44.7397765194141925  9.3170949234317479
 10.5342467427247630 16.1935658083245464  8.6604593175070157
 11.3735101288729883 43.5119566820147838  9.4730868263339332
 10.9575810626952013 40.3418889469165052  9.5089712821953860
 10.5412865767668649 37.1690547857401796  9.5026793759382180
  7.1853634411411456 32.7664736998240542  9.4853762109898625
  7.6008769645423957 35.9396655610653895  9.5635119221807070
  8.0154182431895720 39.1121144177385887  9.6005723010316384
  8.4291521796071667 42.2827730733255507  9.5929244823326609
  8.8430177050290304 45.4500588649596651  9.5427231729751369
  9.2587636059892446 48.6139940852096828  9.4547751153037947
  9.6780211206604321 51.7740049006491247  9.3379870353906576
 10.1013052528991043 54.9291790410918992  9.2119301838552836
 10.5293829980241327 58.0811676430310726  9.0997448117910142
 10.9611552604854143 61.2309687269081380  9.0244667911111964
  5.8809101022113017  2.3889410923571597  7.6320085415846748
  6.3142866907926107  5.5357768908008733  7.7687892010075172
  6.7455013073782464  8.6823395559227183  7.9718523948346940
  7.1745671549845627 11.8304918525344664  8.2138044128479653
  7.6014527851870293 14.9831013785309466  8.4676870875073273
  8.0258779480387084 18.1421679751000440  8.7090629604228482
  8.4486434625138873 21.3065992995690614  8.9240133165490896
  8.8684589779356404 24.4758213024660378  9.1071197281634824
  9.2874500747571478 27.6475983335928639  9.2572138839949876
  9.7060619109909165 30.8208563814590413  9.3734860668860200
 10.1237954256442926 33.9949934736671864  9.4561591907608484
 27.7255129362766333 41.3337498383313147  8.8930754834111152
 28.1465514268918220 44.4978577209085699  8.6829191659009215
 28.5688489568381137 47.6557168390915891  8.4462730284552077
 28.9928404026114528 50.8077944629237663  8.1971288058507046
 46.6313880309519675 37.1657809200036553  9.1401464081503487
 47.0405984301868543 40.3161761636281710  9.0020789362246116
 44.6034601099071324  0.5180268843226475  9.1275934872964868
 45.0380980897570495  3.6677345740500091  9.1400858888525001
 45.4691248142908506  6.8183264035665472  9.1956662318737692
 45.8951959096130011  9.9700085058277033  9.2727649045733678
 46.3144723179461266 13.1246780908884855  9.3465779701641072
 46.7268809042836892 16.2816158990780409  9.4002418508444929
 47.1357817854334229 19.4389717816253977  9.4283351357727430
 46.2226818878597356 34.0135907107882147  9.2650841416743503
 47.5420831769666918 22.5962744396614887  9.4311576105700912
 48.3547832929586505 28.9076142654960009  9.3656568271500156
 48.7610713931771187 32.0616408349818798  9.3021466692323855
 49.1683016063927099 35.2142208353094190  9.2221720098898281
 49.5758973422579245 38.3649606053964831  9.1297156188471966
 47.5611526088624359  1.7382848476310717  8.9999938891597289
 47.9944870733841924  4.8872689741669815  9.0266508495366722
 48.4235565859569235  8.0366937644856566  9.0904653478137689
 48.8463732707451754 11.1871035070546618  9.1670856509403098
 49.2625796382713403 14.3401441294112644  9.2358908185062205
 47.9483785084854901 25.7524074732210622  9.4096640752145628
 49.6730569767847641 17.4944273511302626  9.2864262868687515
 45.8154231094164359 30.8591020936001748  9.3710900573756177
 45.0025953356692341 24.5442671123744631  9.5080654839543861
 39.9831355095030787  7.5274094252231727  9.3743957125159376
 40.4091552071605520 10.6817875586657376  9.4616509270963505
 40.8288699297406268 13.8396426198166100  9.5402024397351166
 41.2412641333617884 17.0012122024778947  9.5924663468212490
 41.6498702407086228 20.1645583734244624  9.6114920704903177
 42.0571765891139080 23.3280704411772462  9.5960791209778709
 42.4634064101395907 26.4911231343897633  9.5450583134301326
 42.8703051502717756 29.6516215034546207  9.4583701211756903
 43.2778545821502192 32.8092388666916221  9.3401424919622951
 45.4086730574933028 27.7027594838710804  9.4534492842456004
 43.6872483612791029 35.9642884322305392  9.1943708096858572
 44.5087014427151715 42.2669600789725806  8.8443356339803998
 44.9227683932269315 45.4142793824462032  8.6536592859183745
 42.0788716397828040  2.4463829110462560  9.2221111669920930
 42.5118402701344493  5.5971141332502876  9.2668818447886654
 42.9407412086556874  8.7496153188983268  9.3426666032032237
 43.3635734130030315 11.9044805433254091  9.4239907709047888
 43.7791563109821880 15.0628755239762331  9.4891592667493381
 44.1890371593682545 18.2231581534866258  9.5263733498950458
 44.5968665344698181 21.3835175167646447  9.5325814974043315
 44.0968683727535833 39.1169593397825679  9.0268752985841694
 50.0810209467939202 20.6482016721899235  9.3174765261404939
 50.4881398523338021 23.8022084459622114  9.3303773772162995
 50.8946911660340433 26.9557468406331573  9.3263019209991462
 61.0432355137554623 19.1549482576929009  8.8522282317169694
 53.8975154080634979  7.3141896960291728  8.7153108552564102
 60.6287613300127575 16.0093921425996832  8.6881213229391587
 60.2098073114923196 12.8653054871481203  8.5273534744954631
 54.3214478116501098 10.4595826774572505  8.8009790555795373
 59.7858886294811569  9.7226028094932655  8.3814125129878168
 54.7399301741980295 13.6066333443975598  8.8960118008493332
 59.3580226490909766  6.5803385527293106  8.2663933763429309
 58.9259316337861705  3.4377982310128687  8.2008704995758688
 53.4677750024104697  4.1684568604730536  8.6582724757045266
 55.1537200862098018 16.7550345884426832  8.9881307238064174
 55.5642902061637400 19.9040342385124944  9.0731143168416999
 58.5100176818094511 21.1039255266747006  9.0172413411586110
 58.0987409235294550 17.9562385940194567  8.8965554245048590
 55.9733543447085040 23.0537549963115822  9.1512272051847763
 57.6844922644225093 14.8096357264906011  8.7730902455599296
 56.3804605610132938 26.2044366767358596  9.2218385668839193
 57.2661119748207952 11.6640471193916522  8.6507807688362544
 56.8429297378199365  8.5202603941953630  8.5408005076625386
 55.9826516039377040  2.2324198512798206  8.4267707479212532
 58.4928629023872801  0.2941203652904703  8.2011431631731426
 61.4333025278890048  1.4962543637709091  7.9599664917696726
 61.8677133580635967  4.6395450087914352  7.9976982129312741
 53.0346347319700087  1.0227676887630788  8.6496655224837014
 51.3010690913313354 30.1087105005567857  9.3069276445887006
 51.7068030451220579 33.2614839578174752  9.2733575087028797
 50.5163019394214530  2.9556680697420035  8.8424847718611392
 50.9478786077917363  6.1030995642586516  8.8829698129171817
 51.3744699219094940  9.2504849420017710  8.9544994631581964
 69.8221780120397142  1.9468802600268025  7.4810383892336665
 51.7945137256986641 12.3994742332092489  9.0349188387731409
 67.7508323544492725  7.0378610063174705  7.7627291129103408
 67.3159709601611809  3.8948709494427991  7.6255585886058217
 52.2083482149371960 15.5500062994910593  9.1088060619963365
 66.8795932289447279  0.7498097361716279  7.5768774162461670
 52.6187364740549697 18.7009519050169182  9.1696897381099287
 65.2412450392670991  8.9811892810508294  7.9994653833188858
 64.8089211006086430  5.8396321871039527  7.8435771067624414
 53.0269881361074056 21.8526727794849087  9.2177426914712335
 64.3740286207561923  2.6964160563766186  7.7588735504227744
 53.4344878122944351 25.0043965729822339  9.2545073481471327
 63.1527501596041532 14.0643401366386307  8.4530725001711513
 62.7281037690313283 10.9227732953327124  8.2631117432167223
 53.8411672355468767 28.1562548245103947  9.2801397805562189
 62.2994854973183081  7.7818583549193132  8.1045806403344081
 39.5521375479332207  4.3747999178550447  9.3041077239434404
 -2.0732735087070848  5.0915140178811074  7.5815304379175821
 39.1183958028524827  1.2236449602673187  9.2731717002867295
 42.4010467760066234 47.3622182990220892  8.4302528961455678
 28.5780596912795026  5.7851959887608864  9.2228910298598059
 29.0072533989383068  8.9390966947006731  9.3234654485548987
 29.4322791357147544 12.0949620168150833  9.4342439590044869
 29.8526552825270883 15.2545271591493137  9.5313395718722234
 30.2680732388595715 18.4183200042987103  9.5957146559584832
 30.6817613183561484 21.5855239445364298  9.6193953851147072
 31.0947317766036235 24.7557163946582435  9.5986465998292712
 31.5088616460022664 27.9271295575375440  9.5344676575700653
 31.9232011595538268 31.0981985423133160  9.4294125942949396
 28.1453133788894121  2.6331335279545800  9.1546941609075745
 32.3383791765529196 34.2682081191779844  9.2868730870932072
 33.1717366657201396 40.5999872731830393  8.8944007733793669
 33.5910314380579322 43.7587337429588956  8.6481791438410696
 34.0120390334428748 46.9112450410285433  8.3784041119952271
 34.4367841854968617 50.0581325578743446  8.1014648715909932
 34.8641427303412783 53.2022215480780858  7.8409799008625249
 35.2949718582647165 56.3460555622914399  7.6233702741433866
 35.7289541931057784 59.4913410402380691  7.4798503433260368
 30.6698232030295443  0.7051171736382517  9.2231729612920219
 31.1041245172504119  3.8566166937971680  9.2576453790734945
 32.7547308668369581 37.4359971127412692  9.1083453257719995
 31.5354954076717426  7.0096720673466564  9.3349177323854171
 33.2208170263699429 61.4420269570761022  7.4793192755742846
 32.3555251515382309 55.1508482001006684  7.7567635859921067
 29.4184863628714481 53.9552246891281300  7.9591169580087930
 29.8478062301387652 57.1004762601352240  7.7591199654157270
 30.2793060342115794 60.2458808590064265  7.6239555127848790
 25.1879947496377419  1.4107912693711102  9.0208042504959938
 25.6216838586587770  4.5617557214133013  9.0787932460463932
 26.0524413487145914  7.7144853076970064  9.1764989012463793
 26.4796018082529905 10.8692480565160903  9.2934409486668343
 26.9023937776754316 14.0276500326181495  9.4065966038675359
 27.3207660901214133 17.1899383697315500  9.4938939946970926
 32.7866989172933145 58.2962403669573206  7.5759209401230061
 27.7366619065741666 20.3564062473813046  9.5431132155054552
 28.5686729189277528 26.6989153558263865  9.5110518380336107
 28.9856237456378842 29.8718156284342555  9.4328985959280693
 29.4029034121392527 33.0444875188934972  9.3181335142811701
 29.8204377081553815 36.2158186642286992  9.1693721488520872
 30.2381501990765997 39.3840706561597074  8.9865977020588765
 30.6575865661940590 42.5482655847021647  8.7700959413581892
 31.0789592295353359 45.7068481173055403  8.5231238400529641
 31.5015990485744481 48.8591807648072134  8.2577246394895063
 31.9271381406360426 52.0060079704028340  7.9935498207673925
 28.1524073884216328 23.5264190717014863  9.5490382836633945
 31.9633778442452190 10.1637780315296773  9.4363351229415784
 32.3862323191317429 13.3211542486044685  9.5374581274454293
 32.8032836631958560 16.4828137559684329  9.6149518117799406
 38.6274599652299671 39.8632014721837251  8.9538989899755705
 39.0430466977960080 43.0157418645015852  8.7149985391462952
 39.4620430909441637 46.1640114867047728  8.4599128840340008
 39.8854068183493524 49.3088175574070107  8.2026813814161201
 40.3127453450094748 52.4511160879224789  7.9633476715065203
 36.1569092921299244  0.0009511930728526  9.2928707354974662
 36.5913035594127223  3.1519245212141227  9.3085329641892418
 37.0235854826531394  6.3042428715958829  9.3689832095391772
 37.4523302980633730  9.4579433801903328  9.4574555461835583
 38.2141239411354121 36.7061306195624439  9.1664559744433785
 37.8754167923380294 12.6146013227283547  9.5483538879331178
 38.7023730485590960 18.9393695806919098  9.6543033013629795
 39.1107118934463287 22.1051594588687479  9.6541846504470392
 39.5183334736477860 25.2710981982272465  9.6162783285378541
 39.9258250901007656 28.4361199697366729  9.5383033109041317
 40.3345421246403220 31.5986488621070123  9.4220308345866108
 40.7437552143468267 34.7582737464213665  9.2712598812251290
 41.1546969814283230 37.9139504625076356  9.0895767614624727
 41.5669427302484351 41.0670588672354739  8.8831517164813043
 41.9821497069733454 44.2162917933628776  8.6598882698634458
 38.2916829988168814 15.7752892801800080  9.6179634193696888
 37.8023472257586093 33.5441850225311597  9.3459880288905044
 37.3914587646363756 30.3795649913907830  9.4884548044637409
 36.9817531179974495 27.2126742783398079  9.5920177509838744
 33.2163578788508644 19.6478118018165056  9.6558693317705142
 33.6273920200811034 22.8157101522090748  9.6556196045297522
 34.0380861482704233 25.9851280554889001  9.6125378622357864
 34.4495595997921100 29.1546239588461873  9.5269602345816740
 34.8617349946491117 32.3230185342196137  9.4006691076366078
 35.2755920945557477 35.4894945813800220  9.2359661492283340
 35.6903151201966722 38.6529515464966096  9.0341957755121971
 36.1066431960415315 41.8112080003437327  8.7995263670094843
 36.5252676787743056 44.9636636836121966  8.5391936842953626
 36.9477194249676941 48.1111470313539442  8.2652412860826221
 37.3738194266804200 51.2553283980932335  7.9976216686188586
 37.8033492554413613 54.3976242708374826  7.7600585317694160
 38.2365415156285593 57.5410430964682718  7.5791379300627391
 33.6300484996752118  1.9288308928404492  9.2812550566377894
 34.0634760734031090  5.0805789314973202  9.3292810604920167
 34.4941206197938115  8.2338283503968857  9.4138788865147482
 34.9199126377476929 11.3890379674306974  9.5124694338211686
 35.3397297144864169 14.5481561891533566  9.5994706684988920
 35.7536759522577583 17.7113391176697341  9.6558568884620701
 36.1639864342007868 20.8774001198216688  9.6748895754934683
 36.5728956563481020 24.0449851041343088  9.6540383143179582
 42.8245066429336063 50.5053217790137694  8.2064312943712814
  2.5185248890639618 60.7143133421087029  9.2911188180074884
 56.4147178669693403  5.3769285926057862  8.4593538157678783
 -24.8809140992029434 43.4645735761544927  8.8557563438240177
 -19.4040003087241715 42.7157007394187787  9.1057948405137079
 -9.6530316604655191 31.7622374947558654  9.4173939930414985
 -8.3442361234940599 20.3539001308133614  8.8622668996241227
 -5.9301668953656455 60.1954405241805190  9.2387401474098514
 -6.2366177000282681 15.2622240390300217  8.4393915984441090
 -2.4589433742009583 22.7630608113642161  9.0035336891224667
 -23.6285062430340247 52.9043311804932728  8.4092389155491833
 -17.7453569910764415 55.3184793438219131  8.7535392348695300
 -13.4130094171017102 24.2528737082214576  9.1326019206159845
 -21.1098182897940028 50.9617261438455671  8.6886464825432519
 -10.0593536850373138 28.6066099711741977  9.3015741757338137
 -6.7079865905590621 32.9735310549564105  9.5142569426763597
 -2.0459594247860124 25.9216586741842079  9.2226254120087567
 -15.2227602515162861 53.3816676978252147  9.0022769060642371
 -16.8666550062120670 40.7672876117219403  9.2575714520222778
 -24.0509256004189176 49.7586510464204537  8.5525613779364917
 -4.1699644566963281 31.0285752898711067  9.4792350909460286
 -6.6618381473221424 12.1211535667754209  8.2051743689703347
 -13.0049800070629118 27.4036491267765179  9.2391312363841411
 -7.2087654583454466 50.7320361077619282  9.4771311459144982
 -10.4671231353050445 25.4535249921142785  9.1648129141921331
 -1.6353958924672682 29.0852876768672424  9.4048182912397902
 -17.3163827881611354 58.4678398844855138  8.6840946989429000
 -24.4676284532139263 46.6115267748897253  8.7046250371910734
 -13.5159366382930379 45.1314932110919500  9.3448679863069426
 -15.1391750763277724 32.5084834822255786  9.3288225250898744
 -6.3017024846702681 36.1367185111748555  9.6044232232776086
 -12.6936204286647456 51.4452905100233977  9.2210343413131071
 -1.2265200307700512 32.2516153919571664  9.5482239032538274
 -12.5989165660306188 30.5570521056866333  9.3318225882104855
 -1.7188136053953658 50.0240721237482404  9.6008448615448181
 -7.1140818903795191 29.8137278869378264  9.3904099468712694
 -2.8749440638230555 19.6099993983094940  8.7539544652509509
 -23.2014730443184085 56.0497040978928851  8.2907493960174303
 -18.9952137247097426 45.8668009518876687  9.0305311295867163
 -7.9318079105906287 23.5036787479220415  9.0582451036206955
 -0.4426433542758747 59.4909757918851909  9.3262791615504845
 -8.0307048425544334 44.4086130481772301  9.5870917893253811
 -4.9880244026559799 24.7090764279518567  9.1366093923856404
 -15.5446399327863407 29.3553817588663932  9.2820723659552655
 -22.3475160764879810 41.5144096890546379  9.0285657028732693
 -8.4370198208234122 41.2454038666667984  9.5935673144768536
 -0.8730189245548988 56.3378283661601245  9.4023328726913729
 -4.1486056616733080 10.1781059228973980  7.9675231560760871
 -12.2730591905357365 54.5989341317579573  9.1350619613009698
 -14.3662512185268216 59.6829463463756795  8.8635990352191687
 -18.5840488153243868 49.0183146881824570  8.9428842768259695
 -4.5781801663427535 27.8668357901476185  9.3248115261743134
 -22.3372771357615640 62.3422949739827601  8.2098845860156189
 -5.4003424992724849 21.5555216944311141  8.9197877743085012
 -8.8418756069984159 38.0818782949093944  9.5665816024681831
 -11.4120049387475024 60.9020498259082288  9.0144173487561048
 -14.7975662216772985 56.5328716062863776  8.9191558077579653
 -5.8169866375797081 18.4069142873371412  8.6830399743783069
 -18.1679167456908104 52.1690208968627971  8.8464634228378234
 -9.2475879431433370 34.9208391755133079  9.5069981044967875
 -1.2988383263656818 53.1825304461108459  9.5027522469351915
 -10.8766039092894236 22.3028443028085306  9.0128647549252712
 -3.2954249904867687 16.4626354819602838  8.4856841911782741
 -22.7703707322596607 59.1956216500900823  8.2179842373695120
 -13.1072178364032297 48.2886639475903223  9.2944131875531006
 -21.5263230318212422 47.8127779729449571  8.8071228770426480
 -11.8447391190896045 57.7509425055394416  9.0576522851354486
 -7.5218695421298127 26.6570358112964954  9.2365587609076076
 -3.7197424851423335 13.3193466866805839  8.2160450414961996
 -7.6221029662321333 47.5710087460170286  9.5471014160344829
 -2.9700793906143157 61.4191116775491466  9.2816188120117467
 -21.9380353396305168 44.6637935008853617  8.9212083478664628
 -15.6402397118062719 50.2287092155103565  9.0885518050658440
 -2.5416541857999140 43.6958054086251479  9.7138772271612677
 -20.2608875061011418 57.2561945051574170  8.4863254222668907
 -25.2760778554627414 61.1374291195923405  7.9708830618019393
 -28.6480886639357237 56.7903537593834642  7.8536039552173609
 -17.6791436827242556 34.4607204300309107  9.2936604313963880
 -11.3823311285222193 40.0282937308027797  9.4877847958346475
  0.8194083735552689 48.0899936186042893  9.6537750939992417
 -14.7333652146752172 35.6630865143168734  9.3604888422835355
 -29.0794498051137431 53.6470309728251138  8.0068437927999287
 -5.4900660537887473 42.4687090152308713  9.6725162372926476
 -4.2550053450743892 51.9571547122489505  9.5110689045463523
 -16.4599838004267980 43.9210180272613044  9.2188411839686282
 -9.7429050750751394 52.6656563527530110  9.3228402164485331
 -30.7191195463557101 61.8832181747962764  7.5837909680253395
  1.2361504100813494 51.2511043276831515  9.5617670968078539
 -6.3619999948273671 57.0428549950103445  9.2995279180377857
 -20.2183487145699559 36.4129603408536724  9.2270986371793242
  2.0865131273303388 57.5622127558280781  9.3558779065791295
 -33.6600913362405691 60.6860828084182273  7.4829312276992432
 -3.3562070608556875 37.3605280288431771  9.6770696049546086
 -5.0823484208920213 45.6334880172843356  9.6513256406931642
 -4.6720110018423959 48.7970422180871353  9.5953196185157061
 -31.5882495027411387 55.5926576275429412  7.7640902481027343
  0.4075786060607303 44.9252829562483953  9.7132770644446520
 -10.1594992048766031 49.5084220021360579  9.4034475351389375
  1.6586007519973684 54.4079532098562737  9.4541168854966919
 -14.3275461962504131 38.8186115120764015  9.3756596468070175
 -17.2730561627596799 37.6137254325414077  9.2817275908448931
 -31.1536439910152190 58.7365523947012491  7.6303004103196335
 -2.9495751547976612 40.5286253267508201  9.7151560355290467
 -10.9769834632085832 43.1883444735422231  9.4886691132455940
 -19.8291562869476188 60.4041928803599291  8.4423394997477903
 -28.2146808119077015 59.9358576565568271  7.7687650936611643
 -9.3190785355045751 55.8198507442777796  9.2347159800535099
 -3.8318622895739436 55.1133140588904382  9.4142360098687625
 -20.6886857983483807 54.1091598941798821  8.5759667870427965
 -16.8831139935022705 61.6163614620770801  8.6606787120013493
 -0.8182108028372027 35.4196947229975407  9.6523456685690903
 -10.5701257070542969 46.3485759386592875  9.4606759618523402
 -25.7093196382341169 57.9913139574672414  8.0132817372067038
 -2.1325612416516031 46.8614193736925060  9.6748560680974922
 -19.8111163893624784 39.5642544296321077  9.1708980571715593
 -8.4548308765513216 62.1234299402395038  9.1342736286013064
 -26.1405705728539708 54.8466511080735799  8.1224244250347049
 -12.1932364991495259 33.7123054392124644  9.4063774288466870
 -0.4103889047536717 38.5890459780152355  9.7144832453696495
 -8.7597286631425000 17.2073426669192457  8.6572713029061266
 -6.7890151666471885 53.8888954010110268  9.3878356639617984
 -26.5677272079186508 51.7032103164000176  8.2788293774267387
 -13.9219360205474754 41.9748265575317845  9.3712313725732663
 -3.4030506988214215 58.2670316952656933  9.3296368754385899
 -16.0523680344482891 47.0748842741193982  9.1627621277284881
 -3.7630426018174470 34.1934441480382318  9.5977244950380438
 -11.7875944580889414 36.8696017751949370  9.4594627987613489
 -0.0018963727903621 41.7578543231930794  9.7341111861385503
 -8.8887042762930495 58.9722514776281912  9.1642811212630448
 -26.9910032491502356 48.5590947004747946  8.4616956807064749
 54.2468315566266455 31.3082279876346519  9.2935006888263487
 -5.8963988599764869 39.3026282792265533  9.6572118171304133
 31.3600464683998439 19.8748899148141263 11.1845953946826135
 -16.5990896410575175 35.9239611280464572 10.8717228064950682
 -16.5206101192010095 35.9050283028442223  7.7494584721854807
 -16.0968748034023434 39.0501384380691192  7.7436835095557051
 34.2861870447490986 41.9370084248353479  7.2216283206437897
 31.7753782466024965 23.0649288993435562 11.1854691844177463
 32.6433142288439342 29.3399757541202462  7.9372884697813406
 32.6066750212759970 29.4473848729849408 11.0574668822602646
 31.8251178676846322 23.0387029590241816  8.0653247836202233
 33.8731828938665771 38.7916739639249215  7.4532276949431298
 32.1902704776835336 26.2563738588507896 11.1426728337853795
 33.0240368341662531 32.6357250488405839 10.9322216168917077
 33.4626867575480631 35.6430991862236297  7.6511654035012286
 31.4169581731885330 19.8910006892749607  8.0643291250032139
 33.0525257359289881 32.4920427883471277  7.8127233294465350
 -16.9850393862057949 32.7620193484500462 10.8655995609168716
 -16.9464417400082255 32.7605742642529947  7.7420766658984590
 33.4440188774545248 35.8214177518363641 10.7693926553260564
 32.2338045462939107 26.1885607519013384  8.0224553346101217
 33.8655030562797492 39.0040652484337116 10.5704597695658009
  0.7006547922285660 60.9614907009023241 10.8636264974465568
 32.2110560881648524  5.2786557759774713 10.8672325584138427
 54.9631356591952525 29.6004455173196384 10.8457029517495709
 34.3464619041276009 21.1118805844996871  8.1026273543784271
 34.3250313493114305 21.1147616346524529 11.2231089712748382
 -17.5663375097932573 50.5327448143225411 10.5166487471257515
 34.7538750418425906 24.2598455959315800  8.0812507838759586
 34.7366607518579897 24.3040764577767803 11.2016577780254565
 -17.3606195394939569 50.4122346348362456  7.4011047651883164
 35.1622366651938734 27.4083247778014858  8.0177952903250258
 35.1479484515016267 27.4940136671749045 11.1379149306342793
 35.5714996759693918 30.5569964254044635  7.9129558863077705
 35.5600118352636443 30.6826540170335278 11.0323531180849699
 -17.9691342125349820 47.3757017429606364 10.6029064681638800
 33.9112262468031602 17.9282247319548738 11.2031508375102273
 35.9827872343608064 33.7048260224226368  7.7688762454048845
 -17.7834276054882636 47.2667313455241214  7.4864763405152344
 36.3955083971903974 36.8513846934220268  7.5869299211631729
 36.3864226207000883 37.0512469431924458 10.7045146657741359
 36.8114065861509232 39.9953247221955621  7.3702981914341041
 36.8004540535264724 40.2279499635681006 10.4874603078158479
 -18.3635410669180139 44.2156824849161723 10.6765054459549393
 37.2315843772753468 43.1370859672310374  7.1252980360207552
 37.2146518468192795 43.3953562106401520 10.2417596134381803
 -18.2054847980599384 44.1227246091661911  7.5582840754092464
 37.6574306833784860 46.2789120198764152  6.8613949654089197
 37.6291259545877566 46.5517132174248758  9.9775797153970913
 35.9728749252416762 33.8682007158891878 10.8871927249185738
 34.2879152427530869 42.1801574079128798 10.3381003556751754
 33.9387736948310987 17.9649499368354739  8.0827287741240266
 33.4933663917709836 14.7470356510807594 11.1446791961321026
 34.7034077873430533 45.0810473874174704  6.9620591739434889
 34.7107844313488343 45.3462357084677734 10.0786375318170514
 54.9590657465220858 29.6177706529521210  7.7218079758234959
 35.1259299790540283 48.2262842352806871  6.6870818321291132
 35.1348762413905007 48.4980973888259470  9.8044855571599143
 35.5542183916736931 51.3791197398813182  6.4164009000921904
 35.5596312082806136 51.6351142348320167  9.5362304870251737
 -16.2965364381362718 59.9458636090403019 10.2936795850701390
 35.9875310823676671 54.5429543391179905  6.1749956731938029
 35.9855004219086752 54.7572478344965745  9.2982190999002050
 -16.0806735220676416 59.8940224535978416  7.1756262661795649
 -16.9368919123890862 53.5632604684760025  7.3090134956004196
 36.4255500677511748 57.7223063005540808  5.9910149422353340
 31.8284171429218254  2.1725483997067521  7.6907488333272367
 31.7754838119913465  2.1468876121699800 10.8142545590977601
 -16.7298908157476625 56.8198324480943953 10.3428853632694473
 32.2593903941769042  5.3465163115145824  7.7450493750141671
 -16.5104563262092299 56.7233828456110913  7.2264675321469740
 32.6879451574220994  8.5121754806029060  7.8339906965045740
 32.6433006493000235  8.4201843955033215 10.9550881425790632
 33.1113223877951341 11.6687170804409952  7.9354502041524828
 33.0708303317411776 11.5758530327721854 11.0558305322464907
 -17.1539742333664975 53.6819382159067402 10.4251030795618274
 33.5281914064777880 14.8183571743842641  8.0246462065441850
 36.4138088593453162 57.8650211599312669  9.1185452717297171
 30.9424648073358597 16.6898891374695140 11.1414251564045568
 32.2199723503545599 47.2893643938953545  9.9430968736599183
 -16.2108353511618546 39.0860920420870173 10.8641409012272678
 27.1361776204843075 30.1559835199459698 10.9520793138851680
 27.5988101899252172 33.2284030807286399  7.7277283247574626
 27.5665547609380326 33.3450045575831098 10.8484661044683932
 -14.0556116842532575 33.9503521647008313 10.9249563453901857
 28.0043222167110812 36.3861948324020830  7.5914379431708436
 27.9978878233255450 36.5320316729124386 10.7118819620026340
 -13.9842481020622991 33.9755836335478776  7.8031679352854137
 28.4088641147053345 39.5414441883585823  7.4224767474457201
 28.4302623137410997 39.7164160736333258 10.5422861101247953
 28.8144634902814900 42.6933099956127222  7.2211590924728455
 28.8652263750619866 42.8964101819410928 10.3398706872293733
 -14.4424216025978289 30.7859823376340529 10.8743709767152783
 29.2220585174004448 45.8423041206232895  6.9899253148054417
 29.3023691882374564 46.0677925308762610 10.1080699694407237
 -14.4083322403666596 30.8313042925854468  7.7514377634348568
 29.6323903887696716 48.9923418707516447  6.7387662719042742
 29.7387606111160601 49.2258741393742412  9.8570343132889082
 30.0479672797549853 52.1483051433936851  6.4866280500179947
 30.1753990797295835 52.3676465556497988  9.6063070628629585
 -14.8271261032851811 27.6243126883352161 10.8078599220322591
 30.4696933568268946 55.3133458756361023  6.2595729848184796
 30.6109571048121047 55.4927927266762069  9.3817292900564926
 -14.8345913955468554 27.6884011187563424  7.6844752108222405
 30.8979429661832619 58.4911977012804130  6.0849591213848324
 31.0446886530737629 58.6050641897200251  9.2102529980420389
 31.3347340035941038 61.6794690970043717  5.9901425333084903
 31.4758299518036537 61.7068767645450507  9.1179422999792745
 27.1924066058451963 30.0697204586420170  7.8311559176330388
 57.1193584136770411 24.4663601695519795 10.7283444501909511
 -13.5632061372861727 37.1207489073610191  7.8374064293543055
 26.7853753732542224 26.9118436541765291  7.8996665519598839
 27.9314544528703728 57.2869800651333989  6.3040914548432170
 28.1360759039341204 57.4157696176550232  9.4256131408403920
 -12.4729236745586469 46.6239050317890928 10.9256205033044704
 28.3604383482565545 60.4672509851196054  6.1762145967141233
 28.5700451010417424 60.5243600882891428  9.2996766259911663
 -12.3211173553351738 46.5555673146873943  7.8080276096605523
 23.4478062444915132  1.6548323717556277  7.3642689986073746
 23.2788500907850953  1.6328451725616777 10.4847533239700486
 23.8769471158027287  4.8288322722545276  7.4310358628052393
 23.7167007353522479  4.7598544505579499 10.5506432876731786
 -12.8747103795164435 43.4536663820437212 10.9608123761820444
 24.3031517490698086  7.9957042958291460  7.5360751521875002
 24.1513349440697027  7.8979231549386455 10.6548069267372743
 -12.7324405284958786 43.4108075563929674  7.8419701938304422
 24.7259471029208129 11.1547030075766731  7.6585826627327318
 24.5825706941881705 11.0499517928425384 10.7770334235076977
 25.1443180590999447 14.3069438400609243  7.7756478197649805
 25.0093409983003525 14.2171019526345752 10.8940020598714380
 -13.2718763617753535 40.2842998653780953 10.9709077825905084
 25.5578935200667452 17.4552362121629123  7.8659778363467669
 25.4331163013546231 17.3966400074984833 10.9852577172857995
 -13.1459734421011660 40.2658169678603741  7.8512273906891199
 25.9683437865979485 20.6041348939212661  7.9189346605141457
 25.8557967191489197 20.5831436273900081 11.0389565570656227
 26.3774129757953020 23.7559222048430598  7.9301774997293357
 26.2803492832268546 23.7738990023795651 11.0507529621353005
 -13.6653622411831588 37.1164049803703477 10.9579976196162949
 26.7072258943835124 26.9657131291597310 11.0205654264427171
 26.3829114442821577  2.8841526578204109  7.5224077466619406
 26.2549522294676407  2.8454115430224096 10.6438961816614714
 57.0676144537449943 24.5464748614822490  7.6054926076179017
 31.7567033259051499 43.8858384511549602  7.0873220535938763
 31.7893913296539097 44.1266543004212437 10.2043597789057507
 32.1700272199129671 47.0331163745893477  6.8254722905823257
 -15.0225711666426136 48.5785234036301006 10.7401005912022622
 32.5888110286707899 50.1829825996519361  6.5550422600392650
 32.6519024993480471 50.4358383917497619  9.6737951226709811
 -14.8425800731561388 48.4832315640328062  7.6235648697523200
 33.0127538537091283 53.3419935956657767  6.2987853449969080
 33.0830190982746117 53.5666449199786143  9.4202636973292737
 33.4424210246506348 56.5144407706415279  6.0841080212367808
 33.5145094176422944 56.6831137907556553  9.2089546277139238
 -15.4238383272440291 45.4144363863282052 10.8006535961991581
 33.8792490525934937 59.7003873229114248  5.9409969720460891
 33.9453437747673661 59.7867952949832429  9.0700175387826079
 -15.2590794577788671 45.3392676621380843  7.6828705959581951
 28.8897762656031674  0.9399220425988197  7.6075893412952196
 28.7957269792615520  0.9332309790006680 10.7305370534667155
 29.3208003298541726  4.1152609913128293  7.6492991396335581
 29.2328923615249074  4.0610770875878499 10.7713297279757168
 -15.8191892095782300 42.2497346872004726 10.8412642169164393
 29.7491086403991289  7.2848167316085917  7.7324684617568984
 29.6663041402430814  7.1982924001912130 10.8531588163036012
 -15.6763641851071753 42.1950940607764196  7.7222511531258728
 30.1744618029190690 10.4452918928860399  7.8377077502267882
 30.0962200720333826 10.3480506730463393 10.9579159722334509
 30.5944150521475073 13.5973146027239409  7.9415054227718755
 30.5216178331827699 13.5121228580691373 11.0614313800058923
 -14.4249640046595182 51.6307319005704954  7.5457103843648667
 31.3587804851293193 40.9521842414471351 10.4414644047168128
 31.3462305033633974 40.7389213934218049  7.3238916930902791
 -14.6127768372002862 51.7390472374029144 10.6623485392934239
 26.8120330669107716  6.0563269330021363  7.5981523898146754
 26.6910948182937311  5.9777174123682766 10.7183402908276477
 27.2378592801711115  9.2203060695140984  7.7040223050159504
 27.1232231739005947  9.1217961533894876 10.8238079768793636
 -13.3250471058313433 61.1519191650074276 10.4695888327139759
 27.6594906039863702 12.3760993052355772  7.8184977305527852
 27.5509854392394935 12.2799902273996988 10.9379625472645881
 -13.1480371102861646 61.1200506128686456  7.3496518780779958
 28.0764681136187626 15.5250867018596210  7.9181296451222396
 27.9749374094904368 15.4526033578417064 11.0376853909821531
 28.4874413137566336 18.6719814174624439  7.9849549653230421
 28.3950506407239800 18.6352924928634103 11.1049452802502131
 -13.7614008836444501 58.0258724746952268 10.5047036074376337
 31.0076281865972021 16.7446569178889888  8.0212952407262552
 28.8969189371963111 21.8197354732481017  8.0112821004969348
 -13.5774894677282738 57.9472912369874464  7.3865657074023012
 29.3055339392499690 24.9705295309362896  7.9933530834704269
 29.2338983842519120 25.0160164304389809 11.1137280221636505
 29.7148776113503814 28.1242665638895133  7.9328551219061536
 29.6556145465114014 28.2076500237958818 11.0532117474913765
 -14.1922420074532845 54.8892759472231049 10.5770083400500408
 30.1230879606635895 31.2795601760785900  7.8331730123795493
 30.0787376261643118 31.3976920394276782 10.9533257384009080
 -14.0038599488143412 54.7838913527447247  7.4599373757803740
 30.5309456330585292 34.4354123690704412  7.6977630967598056
 30.5036009245374089 34.5856309844446983 10.8173374522087418
 30.9386986363192342 37.5889282925115538  7.5279795520018826
 30.9306562944324632 37.7710031146422054 10.6465735095287322
 28.8144116386857441 21.8239423523774363 11.1313450172344250
 38.0896599202668682 49.4263253723837863  6.5933223773982084
 38.1061635083762624 28.7271684254003112 11.1001620619145580
 -18.7539648034091897 41.0567088085910825 10.7368471984206568
 46.2442856945690011  5.0861044893319898 10.6794724404659327
 12.1408231844355505 -0.0552397966302871  6.4990266946970188
 46.5227432794701983  8.3207703314105679  7.6265236889941059
 46.6738550754952684  8.2266067668879064 10.7455023813871744
 46.9456156166936509 11.4730363237947248  7.7032735301471869
 47.0961019526311659 11.3813328707720576 10.8218310733789842
 -24.7106850037329231 59.4780859494438019  9.6236639432995137
 47.3634764408117377 14.6195547497048963  7.7688469420328241
 47.5101876191964365 14.5473774438642565 10.8871618817576081
 -24.4611030123037239 59.4031259157363607  6.5044984020643009
 47.7778851275499719 17.7634533899617928  7.8120290718074079
 47.9162981236141263 17.7169400045140861 10.9315382983924803
 48.1929416590316393 20.9070062244534363  7.8319154443778753
 46.0944092432821364  5.1590211698071471  7.5598406157555909
 48.3167133538170077 20.8871079742116663 10.9522796119724202
 48.6107711641647313 24.0495087095369016  7.8293373866259772
 48.7124828988457921 24.0558951067007563 10.9504267553372898
 -24.8990951422755735 56.2268953439877563  6.5803968654134550
 49.0314568759327543 27.1918539164858970  7.8053367826352327
 49.1042978607850529 27.2235844686694506 10.9272241898469211
 49.4554422335310591 30.3345382202762970  7.7624203179218965
 49.4932333131229854 30.3898417617113736 10.8848964905703820
 -25.5523914560896159 53.2429405442575359  9.8261203390293659
 49.8816583420184259 33.4771083023177738  7.7029814692188534
 49.8792474619007038 33.5535502065952329 10.8258973830514371
 -25.3385294177361899 53.0622635312572442  6.7093292005513954
 48.5993452407835562  3.2162726686158432  7.3954207472877593
 48.7858549261397272  3.1667382068862646 10.5142411847943205
 -25.1358680948458044 56.3648985578296191  9.6981413313958598
 49.0304293491106193  6.3842761822561300  7.4402537651180385
 11.8862150124010046 -0.0549011537412564  9.6185794264556943
 45.6627179311884035  1.9869156383610920  7.5271042573778093
 43.6983719415606018  7.0091109735518433 10.8277849412758034
 -22.8219788961832251 51.1256384709258072  6.9911267307293175
 44.0116905749409710 10.2537049085092651  7.7868286804134694
 44.1254980469113534 10.1600298042428108 10.9065003524989965
 44.4300214535659777 13.4035074279082895  7.8609549008709143
 44.5451936991859938 13.3248442462741217 10.9800004106730480
 -23.4377037294353521 48.1488747602402967 10.2445033604697748
 44.8422172405874235 16.5497413470312722  7.9128402975258609
 44.9574040257173877 16.4980608288515569 11.0322420182423766
 -23.2576157457752224 47.9772166569322280  7.1286927330260861
 45.2531990512923841 19.6937982892857235  7.9361730344496548
 45.3645144648921530 19.6730445742665658 11.0561998682016025
 45.6643440757736911 22.8383718903881281  7.9306226362286996
 45.8089314902755049  1.9563213324888125 10.6480397721412778
 45.7655997896580260 22.8491687015184795 11.0509845337516559
 46.0790357038614715 25.9815095885799536  7.8964230500299619
 46.1637325789564912 26.0234300288807994 11.0174443778466191
 -23.6917836416033936 44.8326505472207870  7.2664708836050069
 46.4972631082381938 29.1233811227447603  7.8354995504532576
 46.5584903095921732 29.1950021090052445 10.9568254371724709
 46.9192834650364645 32.2650673251095910  7.7510677864987372
 46.9495965535119453 32.3635086678549513 10.8725353225048060
 48.1140142282721968 41.8450706117815727 10.5202495399997265
 47.3456536442231339 35.4063342688031781  7.6470123554306539
 47.3392120480745291 35.5278761024460579 10.7685928671972917
 48.2066372738691769 41.6906340786917937  7.4004232103447585
 47.7748395413933835 38.5484465038966064  7.5284225521650603
 47.7267702450607132 38.6885048416081290 10.6495378606853315
 -23.8298603412968468 44.9979512339812331 10.3845246961735000
 43.5864459129100013  7.0966608654864345  7.7077369328999126
 49.2183259364876307  6.2982558622026374 10.5581539708294425
 49.4583660274908752  9.5406916114052098  7.5116764489065453
 43.5874832048853875 48.6933703393372568  6.8053260338569750
 52.1853432790874123  7.5063563476923969 10.4086663489608853
 -30.1174661630142708 60.2196433099981263  9.2183148805647388
 52.3967181206634933 10.7574073024864738  7.3712085005598835
 52.6028191415143240 10.6504908137942742 10.4884306133916212
 -29.9423646653669415 60.1506501968113199  6.0928925282419097
 52.8237850564755007 13.9035427318797584  7.4540376601361178
 -30.5425810274950784 57.1160393825549804  9.3060448827348239
 53.0105080515577853 13.8043102529873689 10.5714869225949837
 -30.3850712689583098 56.9640066368045836  6.1829146746195898
 53.2495250278818020 17.0459022233801498  7.5286321555008184
 53.4099204888570611 16.9621125946127123 10.6474125835123932
 -30.9628917748816868 54.0051551422036411  9.4676004854830147
 51.9674503197333593  7.6047552783462384  7.2918109168350167
 -30.8289020553916195 53.7920397629695231  6.3470959738969350
 53.8032105471242801 20.1214132309630607 10.7124732076786255
 -32.5911581008669131 62.1404953351325986  9.0755466755124434
 -32.4788765148309935 62.1267900935079993  5.9462486249603401
 54.1027743390495175 23.3314316308233458  7.6453619393624521
 54.1926934279086083 23.2805248328259324 10.7673894685596387
 -33.0188872498100991 59.0420570254243344  9.1220633447967394
 54.5308035273187670 26.4748944543263995  7.6888387542691907
 -32.9205513219916952 58.9342632325609017  5.9942943979025518
 54.5783182940346734 26.4400657507619279 10.8124778150647671
 38.8861800008786034 55.9394102173385122  9.2579979824546346
 54.0384139733145190  2.4935671139136919  7.0181482336642675
 54.2900376055927509  2.4525804096077319 10.1347158866021605
 38.9678005437831700 55.7510611091529000  6.1339026081209900
 53.6751989623692580 20.1884254932765970  7.5921682122498408
 -25.9602236426472679 50.1097679166324284  9.9872008377376069
 43.4564199061891330 48.9296108483742316  9.9222185689038476
 51.5354115623639117  4.4419286372136684  7.2347728275429617
 49.6436228786044467  9.4417603729588873 10.6295723826201236
 -25.7797858059200209 49.9077741045214793  6.8707981349664973
 49.8818793794328386 12.6888775338913593  7.5873015321662942
 50.0591139671803660 12.5974561635595776 10.7049069647332473
 -26.3583220794664754 46.9670927091049890 10.1634060068042409
 -26.2186864787473581 46.7611978453043520  7.0462674640489142
 50.3020862640468920 15.8333130802491677  7.6510370072271980
 50.4651367731336009 15.7607761220991378 10.7694272152227377
 45.5806775844835954 43.8178764252751378 10.3417382647542002
 50.7220871662479027 18.9757140910374709  7.6974058659795368
 45.6758824322827550 43.6190380072079122  7.2237008960865916
 50.8648930574768698 18.9246113370158540 10.8171607541586425
 -27.2049847039673658 61.4001311163768051  9.3924531914456288
 51.7579102650501000  4.3739075988285325 10.3516876141741800
 51.1429385538355632 22.1182654089288739  7.7272031581990070
 -26.9769831585365480 61.3683670394295078  6.2704237545706221
 51.5671775653523170 25.2612019584786225  7.7414648509543911
 -27.6325882321603551 58.2951818580324641  9.4349476721941112
 51.6492348626257041 25.2518571058403900 10.8636475426065946
 -27.4164974652668114 58.1833394000684976  6.3140784548005877
 51.9934385288827841 28.4040744168378190  7.7413518892673183
 52.0362454162177670 28.4145204447542703 10.8648132414050878
 -28.0544064927979413 55.1833523834807380  9.5502979096546543
 -27.8587606292618872 55.0076189201098131  6.4310176008150330
 51.1028184885070047  1.2698299259037880  7.2204996382959425
 51.3235292340130158  1.2505751585623019 10.3384589782130050
 -28.4682288316322811 52.0619704691102214  9.7198963047051219
 -28.3014946226285815 51.8447519107880126  6.6021204690190967
 51.2589449838979547 22.0883924324367342 10.8479488448230708
 38.0455181522009980 49.6952214931191563  9.7109107826264509
 -23.0366392869442222 51.2932328312999459 10.1062844097400948
 43.1568964111722551  3.9295989991730753  7.6476422559167219
 38.9212734722816762 35.0932142060789189 10.8208353386295606
 -18.5818595916358191 61.8464103749592553  6.9595219438338489
 39.3344956181157599 38.0589006668949210  7.5109881624383368
 39.3278247014021360 38.2686906992756590 10.6287994063560944
 39.7569097968223630 41.1991934868398459  7.2915134215929678
 39.7324107417567092 41.4368772905501004 10.4084966005568305
 -19.2580292548234908 58.7456225780214325 10.0943435251403280
 40.1854385600870785 44.3397319128414082  7.0520431601842457
 40.1371726957155204 44.5960646667163161 10.1682275222018657
 -19.0138982344508669 58.6700301834443252  6.9774220251385559
 40.6203824432337655 47.4830291261376658  6.8037714343546467
 40.5434043341760741 47.7452289993245529  9.9201227049009919
 41.0601426975851567 50.6329883541467254  6.5618875355498334
 38.9162004444023424 34.9171813787254663  7.7024449259301289
 40.9537287977195206 50.8819275525333978  9.6798730601027323
 37.2771316331483433  1.4643213328247013  7.7281967421970164
 37.3032929432691205  1.4463669548423446 10.8518513980539719
 -19.4451454463169355 55.5009842738524242  7.0462721417651002
 37.7091536737141197  4.6384859568805936  7.7647772287942232
 37.7386317119346515  4.5764157794977303 10.8872551706030745
 38.1388005266155261  7.8054146993276881  7.8391093847183244
 38.1706215682321144  7.7158696833397276 10.9604542262157452
 -20.1018135016383788 52.4836394598623102 10.2604489646720225
 38.5630764311392937 10.9626673641757240  7.9291602433767316
 38.5981413922132788 10.8698877065950814 11.0498946437417125
 -19.8750973152003709 52.3444754887823294  7.1451548808788354
 38.9803403068264700 14.1123025412329817  8.0095850404172957
 39.0200894334681720 14.0391284562177336 11.1296279311082227
 -19.6850348115660871 55.6198822122153018 10.1619940622707965
 39.3903969880963558 17.2594229800462493  8.0622492278209510
 -18.8235212153934235 61.8633928296021907 10.0779062456919366
 38.5025793570980568 31.7728895395654796  7.8598310242568825
 38.5272064385499675 52.5824439834589654  6.3426289516825127
 38.4642126928128221 52.8242675714841496  9.4633673863231440
 -18.6299612267270298 40.9789101267117672  7.6166218595514756
 34.3364760051422166  0.2310211387112774  7.7217030650492351
 34.3203589023856495  0.2344703190556310 10.8457556287865611
 34.7686864121277992  3.4058865875403699  7.7432963253355727
 34.7567264073317190  3.3617484982602446 10.8665892320790096
 -19.1410481466399389 37.8973054234744993 10.7861992730460532
 35.1991601546602553  6.5767118849174064  7.8088246021583263
 35.1905154353801208  6.4964946112133868 10.9307287931816504
 -19.0566219383137891 37.8338849427491368  7.6639354689841719
 35.6264015961852820  9.7384566331428086  7.9005761919492397
 35.6207618353562339  9.6439103436712568 11.0217813712356705
 38.5145201269843724 31.9116693466952235 10.9789372099085121
 36.0471532246138722 12.8911700404996132  7.9938282916338856
 -19.5263374907295315 34.7382265119826741 10.8248560894987396
 36.4604831415451685 16.0388502626803700  8.0651045849526479
 36.4648531978821069 15.9829290341725816 11.1853691601761085
 -19.4843375427891630 34.6901637798645837  7.7014211919365332
 36.8685825474477440 19.1859743340018625  8.1021536476970066
 36.8787232779869001 19.1659875787848861 11.2227075845994850
 37.2753656648008302 22.3334625710284769  8.1015024477420994
 37.2893309458866611 22.3523033602522041 11.2220602595491119
 52.4207898466582733 31.5773920215864088 10.8516068231016121
 37.6830139086420388 25.4806398549406659  8.0614258752166315
 37.6981053369922350 25.5397702678545109 11.1817173167263437
 52.4200182948504150 31.5474170438043480  7.7278867033026177
 38.0912524274136430 28.6271388963375095  7.9804399295035617
 36.0456991413713581 12.8066829264121242 11.1143070809630800
 43.2661991446485459  3.8724607388646586 10.7690327660920033
 39.4347512236166509 17.2181256431821410 11.1824813164923409
 39.7974091895233357 20.4066392082564434  8.0805618848192289
 41.5739895238891037 12.0975538130584699 11.0357162656360046
 50.3104130243756487 36.6198705128955240  7.6299875881972854
 41.9112683975803506 15.3323145784639596  7.9814992720739601
 41.9911172904203127 15.2707243612166241 11.1011310745182712
 42.3199858555000290 18.4786955827210768  8.0174907257215828
 42.4017591021161593 18.4496221307169037 11.1374376422466472
 -21.7748322082650567 60.6669982624619308  9.8466409215893744
 42.7286260536571589 21.6243036234927288  8.0207182706853608
 42.8093964366330013 21.6295352093436009 11.1406677709635122
 -21.5171354445210028 60.6241447515000900  6.7284098482392798
 43.1374376312260210 24.7696003220665908  7.9901518136995975
 43.2125177860025431 24.8103444459849563 11.1105370472344553
 43.5496591834977878 27.9127862786360268  7.9255482560017931
 41.4974408520290723 12.1841491528056256  7.9158634211048957
 43.6132007814440996 27.9893790360140393 11.0463461460806531
 43.9662337711741813 31.0545266098019788  7.8294015754844146
 44.0112998771738830 31.1640958146520042 10.9500162192172770
 -21.9514291839312250 57.4475158625390279  6.7708825665912471
 44.3867351030868349 34.1950745582347650  7.7057119679183028
 44.4063310150876447 34.3345502460567147 10.8260506122580686
 44.8123437440724715 37.3361622193434428  7.5594949601958827
 44.7997644770155645 37.5010187192264510 10.6790598603900833
 -22.6260292530292020 54.4282414279190050  9.9815461536019754
 45.2421537247018577 40.4771430190222858  7.3968547779995255
 45.1904746473110919 40.6619336794815780 10.5155769418567751
 -22.3870046701499312 54.2814026371909009  6.8655862762459678
 42.7245351867703960  0.7557267488033872  7.6284952416229412
 42.8294778327563748  0.7454183898496969 10.7513106751056480
 -22.2041046518993141 57.5521786093214942  9.8879118837075470
 -20.5076648468531850 49.3362124185978459 10.3694051494387747
 50.2653757886975399 36.7140612593105473 10.7527254269456609
 41.0764289681231816  9.0313273764377620  7.8326208822205219
 39.8450197733134956 20.4010496021658341 11.2008844427196692
 -20.3043393612952023 49.1945948172344671  7.2544337543961568
 40.2049072401343324 23.5535255081600852  8.0629390092456354
 40.2529862418490012 23.5850683105090617 11.1830772722512517
 40.6131741297876161 26.6990216675405243  8.0072843693112219
 40.6582915865773984 26.7699971352221837 11.1274100932328555
 -20.9037640468014700 46.1828008869220810 10.4768036860453826
 41.0244397661272870 29.8428025331157301  7.9133370207926195
 41.0625957870837297 29.9522256363940222 11.0334471986820084
 -20.7327101592240268 46.0498042629405973  7.3599893906117604
 41.4394183615963243 32.9856474452816997  7.7847088244359304
 41.4644464211517700 33.1305034308970932 10.9045153332671489
 41.8592288676347408 36.1258878664410901  7.6253052445260430
 41.1496168216782863  8.9374041005637572 10.9529966067998945
 41.8653071758738591 36.3031831992306095 10.7441887855793112
 42.2826986292468874 39.2663488166031343  7.4401474430478274
 42.2624584426559124 39.4710361386160642 10.5578789786251104
 -21.1623031260906025 42.9061686001585372  7.4572034398230898
 42.7127148336418045 42.4069319849576942  7.2358818210636002
 42.6590647988780134 42.6323879127484417 10.3529586163430825
 43.1479002053987415 45.5487647301210430  7.0210302739368258
 43.0556719288740837 45.7856271925428402 10.1379360474629170
 -21.6807564597000635 39.8711998981373483 10.6687416994667217
 40.2171236726420744  2.6974888849001668  7.7036273124972849
 40.2853327987166239  2.6592013339843428 10.8264726818787747
 -21.5915959498299088 39.7624319725041815  7.5472239952778608
 40.6487445644018308  5.8689318567729600  7.7536477634863132
 40.7195629939545043  5.7920948819948608 10.8747921625033133
 -21.2942854420370331 43.0272093815192633 10.5767173294152741
 27.6988173944144549 54.2946590432672380  9.6122455138724732
 22.9019357125887097 19.3423912504452566 10.9111228289020445
 -11.9088552916512604 49.7015415073092868  7.7481447167479489
  4.8698325345534101  8.8203715061685273  9.4741622760030797
 -3.9365705870878993 47.0662335653740698  8.0814777650665821
  5.4125294166900586 12.2037647048800260  6.6080912775567535
  5.3053842884101892 11.9519947820646433  9.7256643646338663
  5.8286991412959139 15.3569122882520617  6.8756833561822406
  5.7421035376869813 15.1009215666034180  9.9919477251325493
 -4.3988272550638960 43.9464861776666282 11.2392009026042654
  6.2387952844566890 18.5073207253823746  7.1322413130352889
  6.1789128312771373 18.2668427775807132 10.2482022799217187
 -4.3428011044109738 43.9187726090402037  8.1200093696458584
  6.6463569487318042 21.6567659886261765  7.3620174068861681
  6.6158310939586524 21.4435426433477616 10.4791788692493704
  7.0510499289843320 24.8089151602084108  7.5589715950018812
  4.9905516250164874  9.0424028237829059  6.3538733293658272
  7.0489492949743813 24.6269548204703383 10.6774288584469783
  7.4559253619371368 27.9635678246085604  7.7215484499560150
  7.4797953346323478 27.8139872474279919 10.8406683156682160
 -4.7491835007706289 40.7711934545575900  8.1225461556849599
  7.8617872605135144 31.1200117806149379  7.8491955858383751
  7.9090955446347229 31.0026590477081392 10.9687513707483681
  8.2679549273791899 34.2759099420415296  7.9417183945008860
  8.3359168062587319 34.1930407110347190 11.0613210632540238
 -5.2132281502978381 37.5771696772973272 11.2060744224189026
  8.6756212346108672 37.4303576383715040  7.9960080276702659
  8.7613587108616375 37.3852401529224494 11.1156387003646930
 -5.1552455222026570 37.6232591296057493  8.0873397251087091
  9.0833233668170887 40.5815357250902622  8.0081858866118925
  9.1838205957750372 40.5779309919511419 11.1274628350879734
 -4.8075442695455521 40.7624875385724934 11.2414964318891464
 -3.9883760480839028 47.1281556856418931 11.2002578916394899
  4.4358791974313494  5.7029319518886084  9.2642679917363235
  4.5618597222409321  5.8678512885409368  6.1407951743434674
  5.3379983905620039 33.0588518721777334  7.9620751604931774
  5.3869780551291058 32.9514438125536131 11.0813420084304237
 -2.2611939225217821 59.6976446743428113  7.7497347197689006
  5.7460372616165687 36.2111196792226835  8.0443148839147547
  5.8066827147575149 36.1429243865195247 11.1633715040265180
  6.1543039933477282 39.3617799012965222  8.0842562435601870
  6.2247361881704082 39.3351417499257039 11.2031758525840157
 -2.7163198949926812 56.6136493342842329 10.9416938398999388
  6.5620910208112280 42.5103316356679386  8.0794092336548395
  6.6426186569356620 42.5260516234352721 11.1984595784957754
 -2.6888334382282415 56.5273226521694738  7.8207249694818035
  6.9705136583348475 45.6576329969455870  8.0321759540580508
  7.0603975450984011 45.7121108643595093 11.1509673619105527
  7.3815175643293998 48.8048031924487518  7.9476347052425833
  7.4803565461427590 48.8910674736228898 11.0661339853955827
 -3.1466946202021955 53.4661045528367609 11.0359573704952219
  7.7959083456784164 51.9554619891778771  7.8355299695952549
  7.9049155529205093 52.0577365806926124 10.9542365062009832
 -3.1106933904527230 53.3664999513894571  7.9158932912285316
  8.2143462881500131 55.1134499131738949  7.7157527323861927
  8.3336548708045299 55.2092089922858023 10.8347215344279135
  8.6377698695005325 58.2802373964450524  7.6111707308770251
  8.7678865894503986 58.3470080463412515 10.7313222835058646
 -3.5714755680602486 50.3031210329275353 11.1289671755123969
  9.0654785797776416 61.4534721344696706  7.5437736876693151
  9.2049507006674496 61.4739915187238140 10.6651345599117793
 -3.5265911802374315 50.2142343083086828  8.0098504466607032
  4.1260078880815518  2.6796194632009893  5.9972877120980117
  4.0039947557018962  2.5981705074557833  9.1245536707692949
  9.4918086191248179 43.7303336464702781  7.9770576955491777
  9.6051439706971298 43.7668756971826340 11.0958634921370543
 -5.6170573246340165 34.3924126814823836 11.1321209069652447
  9.9014864463878833 46.8779192006469785  7.9064104874862187
 -7.2346309039609196 21.9055841769224742  7.3866819126508521
  9.5829259112618885 22.8568956133936396  7.4595954426309010
  9.5430518623774692 22.6837567059469478 10.5791762218360876
  9.9860289829585671 26.0138286716379916  7.6173520727346196
  9.9797760888199978 25.8692978544157626 10.7378021308430061
 -7.6078305627661411 18.5498882846909794 10.2917932842390929
 10.3901766605325356 29.1718930620644272  7.7425189503582770
 10.4153364417805481 29.0570201465862894 10.8632891966756961
 -7.6691795366004882 18.7645661248980495  7.1736675113421500
 10.7944777931973608 32.3311606981890520  7.8347337015022109
 10.8488838195901547 32.2460803212860156 10.9554662325615713
 11.1993229134070358 35.4895589860694258  7.8930277884152682
 11.2811206599111369 35.4365626599256913 11.0135805564559117
 -8.0038487525756938 15.4026804405619657 10.0739296078844376
 11.6055230083722076 38.6454423794107740  7.9145043221666480
 11.7110677679934447 38.6286562624167473 11.0345142309062219
 -8.1080111142626787 15.6221948114181153  6.9555277788890990
 12.0128621205810333 41.7976376705833417  7.8958541777444058
 12.1388001650783917 41.8193196270469940 11.0149966199981524
 12.4210640643903005 44.9479609661590445  7.8371842114481733
 12.5640958389800890 45.0061979982287852 10.9552402876978281
 63.9257835780201873 12.2653692688951566  9.8640021931556010
 12.8305995926671503 48.0969179792044983  7.7414191062943978
 12.9888828586050131 48.1871424552440573 10.8582622425378545
 63.7790083412719895 12.4754460684237429  6.7454211665635508
 13.2431566791389237 51.2470447725334495  7.6157727511920141
 13.4168465894643507 51.3557765700266486 10.7322689121132591
 13.6597152395118258 54.4024009530606989  7.4783277797967651
 13.8481531407578320 54.5084356909115400 10.5947877482564508
  9.1041447395043118 19.5016567269886423 10.3885098105644040
 -2.2822670942895837 59.7479714640658131 10.8726250090929391
  9.1795071646421089 19.7021338191277628  7.2704130716034481
  8.6629406137385168 16.3279605224314750 10.1690487401983720
 10.0258890342353428 46.9499437205326799 11.0243429246375477
 -5.5635691216766787 34.4762233115082850  8.0128369377140771
 10.3129515398689122 50.0266398022625225  7.8013970544941849
 10.4489428631537145 50.1247131783798849 10.9189852662564686
 10.7286498924140368 53.1801444800033920  7.6756969075215000
 10.8770911438310467 53.2851252100235442 10.7934472375152364
 -6.0183883768731636 31.2127688571470934 11.0211536587010155
 11.1485371081792213 56.3404073349223182  7.5514621022397472
 11.3092662820215999 56.4297858047244532 10.6694726606922128
 -5.9740240488341323 31.3314681619735680  7.9016908126364251
 11.5730483310224948 59.5095115248631359  7.4517586884330651
 11.7450616828631560 59.5612541649550238 10.5710675423846467
 48.1680692163929010  0.0424106422616186  7.3969877666757560
 48.3490532019907491  0.0433046091869332 10.5167999080943471
 -6.4184459965303535 28.0378288429299438 10.8765913532655958
  6.6631509877894510  0.7009754314115221  6.0931064651585238
  6.4779190965324345  0.6786611664224808  9.2183786941238051
 -6.3884198375223793 28.1883608390172249  7.7575085893576468
  7.0970958571556748  3.8903543386473474  6.1845229785190199
  6.9098593900559475  3.7817524248625753  9.3076750333407201
  7.5258978429278125  7.0698304629628801  6.3522973588454210
  7.3452280963322725  6.8950103095389341  9.4726506924620200
 -6.8162607066368226 24.8683775582135809 10.7023720637446207
  7.9475909580469146 10.2380128429097308  6.5706204399126946
  7.7827818633297259 10.0227715819710266  9.6886594773259205
 -6.8082487916930843 25.0464478059615381  7.5839288304310353
  8.3634146981068938 13.3967667165402098  6.8127874406798554
  8.2224095202725653 13.1666921082578678  9.9294587337181994
  8.7729705842060461 16.5500968285984520  7.0520910941291106
 -7.2119633459010748 21.7053691751642432 10.5045935585724148
 -4.8273773905334183 61.6623326479074194 10.8081568780617570
  4.9659635109835651 29.7615543590676701 10.9598029614854546
  4.5418638296200582 26.5737246567399907 10.8006961191501851
  1.1245826419103881 43.2333912226171577 11.2800334801079316
 -1.4306730554942688 45.1812083585647528 11.2606549918933840
  1.5172899621078575 46.3615958556161871  8.1197414484742723
  1.5395590030467603 46.4179650290707286 11.2387348178112401
 -1.4136377911935916 45.1403769260518999  8.1415208354300912
  1.9270764814039740 49.5089740984466147  8.0422006951540546
  1.9577954560582387 49.5958229292500903 11.1613679605863432
  2.3423644010477465 52.6605657265747453  7.9390629519418221
  2.3821150182340820 52.7609149236685084 11.0590076227533949
 -1.8419546804606701 41.9959203238384049 11.2810559924137284
  2.7631973819403663 55.8205165876849136  7.8320116484459188
  2.8115584033957326 55.9102811707174681 10.9526216558605078
 -1.8198858192277303 41.9921875026455922  8.1616830306860013
  1.1097698651490437 43.2143403063571370  8.1606716073165320
  3.1893921448334908 58.9898567208146503  7.7454480423186896
  3.6195710435719497 62.1640450236889990  7.6997136539568318
  3.6829317317358119 62.1740298084255087 10.8232718825065763
 -2.2513317498065648 38.8087016433657581 11.2622551554818671
 70.4859579899281528  0.2528338109878671  5.8923315858409406
 70.5400806349488079  0.2437515653321532  9.0232296907016476
 -2.2261662781860121 38.8437871038862426  8.1430736882834989
 -1.4025348782676810  3.4456156140827368  5.9446382137214560
 -1.3624558907636359  3.3410317673885621  9.0738234323525919
 -0.9589876513455399  6.6307851868578016  6.0926543989919377
 -0.9354564567079703  6.4438292238279669  9.2179551622219975
 -2.6587078157333099 35.6200127735211893 11.2022336865216037
 -0.5183233713435057  9.8019401910443182  6.3145476030554306
 -0.5109208008675526  9.5586185653677322  9.4359866442803870
  3.2458827020479668 59.0462917601776454 10.8678561661781146
  0.7126495004380798 40.0453346137108355 11.2808686908221016
  0.7030881899669783 40.0659277339638251  8.1614869930639689
 -1.0058299101836286 48.2873635386003954  8.0841436608039530
 68.3888959475862492  5.4168279037606375  6.0885604627178402
 68.4968295032083034  5.2665462235295282  9.2138438300567227
  0.2649554988060448 57.8308890460175817 10.9211564274033535
 -3.4958334722682771  8.5902289422598805  6.2672066245234053
 -3.4132238604308305  8.3759257323705487  9.3896142493645094
  0.2499018992403552 57.7580856495092476  7.7994166982268531
 -3.0530393433783827 11.7515965322296143  6.5026783380715081
 -2.9962562803624468 11.4970536340297560  9.6218376706426199
 -2.6142904800814617 14.9033860150379702  6.7703877075902064
 -2.5806340820520965 14.6313762180722193  9.8869968933326984
 -0.1673974014640503 54.6894693021497957 11.0127771814977855
 -2.1829538357324987 18.0470121302020736  7.0463825295361353
 -2.1670832213737334 17.7789764766506799 10.1621765590317228
 -0.1745620940396742 54.5920850031110092  7.8923181275806211
 -1.7589142023711863 21.1881468036389222  7.3099396946089277
 -1.7534876229160197 20.9401129345647519 10.4259493755176003
 -1.3412769814182315 24.3294449231793237  7.5471132238123735
 -1.3409815290481264 24.1123655728516191 10.6636457661055264
 -0.5947205599770498 51.5330983452384999 11.1152619299829709
 -0.9285914188008629 27.4734721875532450  7.7495103652954027
 -0.9294946763005366 27.2931320349304727 10.8662775284649502
 -0.5931295428530644 51.4362984847872013  7.9954373458843682
 -0.5186802048858101 30.6203743495348881  7.9127923076157485
 -0.5181439943150128 30.4781892046159228 11.0304396822712256
 -0.1109097881657345 33.7686839639573151  8.0366993759336580
 -0.1081602144547664 33.6652669047199709 11.1555109091365985
 -1.0159920296756697 48.3619001328586862 11.2031024554113401
  0.2960133265981168 36.9174776441003729  8.1202937708167102
  0.3017580219199786 36.8552978358405738 11.2395859216055474
 -2.6324586924240871 35.6958124427415058  8.0833013037035677
 -0.0836541395727082 12.9602078331777850  6.5813280060665544
 -0.0876404810790252 12.6862097353503565  9.6991702866668330
  0.3448135217126270 16.1093515712148907  6.8667059745308556
 -4.6832738168090513 19.7379129824841897 10.3429578622162683
  5.7010607421997941 57.0500012165149499  7.7380094958911512
  5.7899395048331286 57.1292907297268115 10.8586840292870281
 -4.7085281463887547 19.9776487729907188  7.2264902796677006
  6.1274756473973335 60.2219979584834206  7.6601341908849117
  6.2254495547878461 60.2610658027657493 10.7825678344691607
  1.1423509890711383  1.4659492589731200  5.8949881933910175
  1.1055823852225559  1.4196163305368550  9.0256532985950528
 -5.0874739995993092 16.5858647359798681 10.0928251792417374
  1.5834145881965760  4.6591822107358150  5.9971790038672683
  1.5349865717203770  4.5194992238785421  9.1244658135576469
 -5.1422947306936591 16.8366348559776675  6.9759275228764572
  2.0210834833633324  7.8404808121002061  6.1867310342386368
  1.9645286559200528  7.6278070121471604  9.3095806201825013
  2.4516012067134625 11.0068097192276468  6.4347902729061852
  2.3942391576588617 10.7501084995549760  9.5541326405932026
 -5.4929214593088878 13.4447452970515577  9.8433191258586774
  2.8770413774091574 14.1617279268568002  6.7126147654849309
  2.8250868787813674 13.8869249081256996  9.8293412163769158
 -5.5823433451979909 13.6907209715323646  6.7252751152335453
  3.2954209719428911 17.3092046955624284  6.9934828597532368
  3.2558658549954740 17.0402077914930068 10.1090178286680263
  3.7078732891436865 20.4558254421346994  7.2562347926132995
  3.6858566747472037 20.2096398540279054 10.3713474945916815
 66.4289378347476287 10.3164598653321704  9.6137771324548922
  4.1171824528688346 23.6032527709071722  7.4875286743099601
  4.1154027230013073 23.3887947418504645 10.6038864945182567
 66.3046044292941019 10.5383940734493464  6.4941981241785065
  4.5243091732326324 26.7531155038012436  7.6829112023866841
  5.3583273448309328 53.9861657347662387 10.9646969421057090
  4.9309980899792416 29.9054827703402282  7.8409900951034759
  5.2786834236115743 53.8864720482524646  7.8448898261042892
  4.8613851540617929 50.7318388791188184  7.9582240853368678
  0.3352087864263329 15.8289198356011429  9.9826448486110539
 -3.0654147338328483 32.4337433504947512 11.1012960387825856
  0.7663818487748395 19.2524398477529104  7.1462742471666623
  0.7580900262886728 18.9864365152683199 10.2615214197433122
 -3.0405001589605205 32.5487582976308758  7.9826176988219153
  1.1816617761746446 22.3960724826275310  7.4022059938342064
  1.1799398769439313 22.1576366868875034 10.5177341525659145
  1.5928014904299121 25.5416196322504554  7.6245600605003938
  1.6008513136603764 25.3383973065939223 10.7409305725282547
 -3.4711962327828916 29.2510862218261991 10.9622563725023348
  2.0017192060366598 28.6894782520556788  7.8083641115309970
  2.0195151546176890 28.5244448523907792 10.9258935790966554
 -3.4501193705005102 29.4025276773061925  7.8440640018237477
  2.4097584713106910 31.8396575567275839  7.9526373985954066
  2.4356797712393310 31.7125814828625714 11.0713708091046037
  2.8171503859761060 34.9899961488467923  8.0577120451537176
  2.8493751883064293 34.9027614280850855 11.1767280640823738
 -3.8761187942582565 26.0730682593623335 10.7869376057381530
  3.2249919900387645 38.1398713833485772  8.1211844486824543
  3.2632607700061160 38.0940585970944596 11.2401625725871384
 -3.8635484032026004 26.2591785825606649  7.6692948069325633
  3.6328943312700890 41.2886334566434741  8.1411537108761074
  3.6775448205026593 41.2847449222278371 11.2602781724643624
  4.0400289626632784 44.4358612053771509  8.1177242818525386
  4.0929485532191823 44.4722809040178717 11.2369023446616563
 -4.2801231762131176 22.9015005426550964 10.5781534299533728
  4.4489685375213588 47.5831102753113555  8.0544904636336732
  4.5102469809949728 47.6551276104665504 11.1732948360241924
 -4.2827041517707993 23.1180989697190782  7.4611876581254704
  4.9316588471250267 50.8281555403860139 11.0773879469349730
 27.5088213818485308 54.1171851987890093  6.4928408913377424
 14.0810105590365104 57.5660061004852821  7.3523737900980084
 -4.7689477548134933 61.6385544412400606  7.6845726055454904
 18.2172096033069479  5.4631236553236935 10.2158255036754575
 18.8641848813109938  8.7200595589789653  7.2325200634859250
 18.6540318515871384  8.6007186251208019 10.3491223536096939
 -10.3232025535737257 41.4939921247835599 11.0830913132432229
 19.2827932687985779 11.8779007094714952  7.3802039817692782
 19.0879158425518511 11.7533119656713438 10.4972144806305980
 -10.2059180084282648 41.4814665076590359  7.9637297762503616
 19.6986490596249908 15.0313533242002464  7.5197363100295016
 19.5210471816720883 14.9217156408017129 10.6374411813926937
 20.1096458743300417 18.1839830161657012  7.6327534908017354
 19.9535903087817381 18.1017654019761451 10.7518204866604172
 -10.7220168087271670 38.3190418479307411 11.0643415142551209
 20.5175415363887268 21.3388517261304003  7.7120267678737324
 18.4406430650586053  5.5550455131638321  7.0987814622928003
 20.3870641005581135 21.2873518474753602 10.8323548860212338
 20.9227734763085174 24.4973996076044216  7.7559752375795998
 20.8222944631894293 24.4760658982440056 10.8775015822154906
 21.3272591325246275 27.6580448907865240  7.7653098798870497
 21.2602456262777544 27.6651886291485134 10.8881445400817523
 -11.1184403083916212 35.1468364005485512 11.0173212610092310
 21.7304648651722623 30.8207899915293488  7.7423185946663571
 21.6994910238367744 30.8546517964658911 10.8658669693288186
 -11.0308004453833046 35.1905981696831560  7.8969071224153753
 22.1325392527968141 33.9836342653043886  7.6880679392251938
 22.1380527693900646 34.0441924003435830 10.8115358910233201
 22.5345296208731334 37.1452065045827169  7.6027919310167915
 22.5769527866637745 37.2320616366662733 10.7255309370986627
 -11.5102813308209075 31.9774142519294848 10.9448653143236250
 -10.6160509427431791 38.3355467592108496  7.9446226231041956
 -9.7972879170395508 44.6275593513945097  7.9530724202261345
 17.7791969115226429  2.3387350464069692 10.1198750603427730
 18.0132240989848249  2.3818705048375275  7.0015366831321248
 18.7949377047242123 29.6193360609672425  7.7290144771909430
 18.7676863432684442 29.6072479100322603 10.8526621970955581
 19.1972032178342928 32.7826631801148380  7.7209459304082371
 19.2092832263448550 32.7965921448935376 10.8447604777218825
 -8.6746796853447403 54.1739178117173950 10.8744585834669092
 19.5983413192300127 35.9454392982198740  7.6818570263472283
 19.6494550123960607 35.9858269881041153 10.8051215194109282
 -8.5600058615693442 54.0728835460781809  7.7553195128786809
 19.9996778891719984 39.1066618347160642  7.6117570245929507
 20.0888571715787734 39.1737396969749838 10.7336558673076610
 20.4021373666206038 42.2645866307389610  7.5104558648841477
 20.5280814267498464 42.3591993644616593 10.6305584497238588
 -9.0971905868460698 51.0153504884624667 10.9605068441645450
 20.8061879613481651 45.4192080626082202  7.3777826828374771
 20.9674211587735932 45.5407382452051621 10.4960788172122435
 -8.9770977454796217 50.9207983276145910  7.8422377166258164
 21.2123873642476042 48.5707702851147261  7.2160145584120210
 21.4067268281644338 48.7139219488811293 10.3328237242738119
 21.6218757988122583 51.7236028354357700  7.0349136149656566
 21.8455563302249800 51.8721671431477844 10.1509061066552029
 -9.5118692461544772 47.8451000515524782 11.0295454985622019
 22.0364139237815948 54.8811909269856457  6.8545856538347865
 22.2837037899736927 55.0139782707488791  9.9703669773141979
 -9.3888997510274166 47.7733919014796555  7.9118629353379095
 22.4570597286501368 58.0479491850478624  6.6997757018893314
 22.7207225008612959 58.1405992009450259  9.8163143937124318
 22.8847570298262326 61.2230477862156448  6.5952566708117404
 23.1559898233625745 61.2557612409031691  9.7129160921160498
 -9.9199215417990416 44.6699305990384090 11.0716966180977696
 22.9366443927511128 40.3047730825609207  7.4871132317387037
 23.0164889922994469 40.4176891149029487 10.6085123759338433
 -11.4489997867119886 32.0461569341860226  7.8238732721488189
 23.3391661299131385 43.4610547346597045  7.3409236281110593
 23.0391584659840802 19.3922327093552909  7.7914700741812393
  0.6792454541637765 60.9308051460585034  7.7402320103486453
 -10.7864401197137862 59.2363754713078166 10.6375015476189372
 23.4480640527309205 22.5454822496465432  7.8351215500189042
 23.3310588057710468 22.5309539203975788 10.9555843015971259
 -10.6438498663172521 59.1750203804393280  7.5173327495729518
 23.8550971211289777 25.7020330478096426  7.8395993508111905
 23.7627959592403677 25.7208769503805463 10.9610719685769809
 24.2602791616939335 28.8625086326095825  7.8076311043971911
 24.1964780199365208 28.9114110693830817 10.9297223761114886
 -11.2205753751847208 56.1018856056318853 10.7010446635084513
 24.6649585494115229 32.0240562153426325  7.7421849147845183
 24.6317856351847482 32.1014179577053298 10.8645050904342302
 -11.0710378399605993 56.0069410747213254  7.5825350336362511
 25.0687742807141305 35.1844058775888939  7.6445874587768792
 25.0671999838263311 35.2895480414513187 10.7667426996654712
 25.4719141013560737 38.3433984819240408  7.5156406107770426
 25.5035898977332174 38.4756080664754521 10.6372562073107790
 -11.6470801056934210 52.9543379679527462 10.7853316288629646
 25.8748896816771783 41.4999710397292318  7.3555920840957558
 25.9413217645021064 41.6590341847570542 10.4759978766816939
 -11.4926165776880325 52.8504840042480879  7.6674697876599947
 26.2788594649514522 44.6527874764737120  7.1649173999692319
 26.3808390704904099 44.8369446786418777 10.2840728474490195
 26.6847274929223026 47.8034123555808179  6.9477764107881752
 26.8211585826090229 48.0049213714962946 10.0659859239083094
 -12.0644758193156765 49.7931538670915117 10.8649793195287430
 27.0944391991603730 50.9563262982217040  6.7162253970913772
 27.2611328483517816 51.1578938727427612  9.8342917216469701
 22.4743490065016438 16.1585430589233603 10.8283234697292592
 -8.1362705914319982 57.2342666519706853  7.6718057468214402
 22.6282362185940542 16.2413543401487424  7.7100147184621903
 22.0462720745504122 12.9832891721597363 10.7128109339008581
 23.4565574678882456 43.5998831705291821 10.4605969262485683
 23.7432434548927880 46.6135625580082475  7.1651536141892338
 23.8974348592548687 46.7758285341315982 10.2833676004872121
 -11.8995157758390668 28.8117471755682040 10.8504304767911464
 24.1497289796587289 49.7655489445147339  6.9659476107393594
 24.3383200141097724 49.9397428701429433 10.0830096598981420
 -11.8715484376349654 28.9029982883561090  7.7288916211845873
 24.5608975821569970 52.9207895354221662  6.7591748775130327
 24.7783678763339310 53.0871032827221327  9.8763212133460883
 24.9779533330688039 56.0842114179957960  6.5695237794375148
 25.2157967751206229 56.2187226225568679  9.6874443004868791
 -12.2870509558061727 25.6495939874222252 10.7383767923664202
 25.4023072912418648 59.2576699578663622  6.4224636799452659
 25.6519119846536867 59.3363891851367384  9.5419214264300614
 -12.2982758022186616 25.7598442153671776  7.6163514895135762
 25.8349381383764758 62.4383176936189273  6.3419253943697935
 26.0856946115837474 62.4443707003321578  9.4625555167164066
 20.5158012353271708  0.4284099286566733  7.1752884541147024
 20.3070491819789645  0.4246298185762156 10.2947224852929118
 -12.6731891894516551 22.4926182698779193 10.6134027891125129
 20.9442182624790973  3.6037217513536541  7.2312890062881054
 20.7447808969860077  3.5461767338158721 10.3500255595266033
 -12.7287609998750568 22.6180471330373258  7.4916969814828072
 21.3709683982449086  6.7737311320100373  7.3337175276893003
 21.1817674348570755  6.6781683294926708 10.4513149976827595
 21.7945340832038141  9.9355401302658528  7.4624115512989766
 21.6160383755077987  9.8233711649542261 10.5798984309678445
 -10.3486523078180976 62.3621050554678220 10.6156962744017527
 22.2133502105053289 13.0902992278323627  7.5953558271658697
 -10.2130614584462602 62.3495591447307902  7.4940063864716544
 14.2829035541252765 57.6462037741067874 10.4693871302385588
 18.3264243066941823 26.4184065522662088 10.8292236446148387
 -8.2435682530880179 57.3172701209466808 10.7918587877775938
 14.2216500602756071 36.6821842645403962 10.9407853051710653
 14.5364023749191649 39.8562878373522480  7.8034218589580222
 14.6560735056214302 39.8723485774631641 10.9235859592116515
 -6.9564120188164162 45.8961971552984025 11.1547934796321044
 14.9420251123652044 43.0107883174670462  7.7503463734847653
 15.0879915715664357 43.0611705902574755 10.8691861951364821
 -6.8662645721008406 45.8456687971169572  8.0361543190105991
 15.3499054510932069 46.1621679139150984  7.6607876618505548
 15.5183803586101146 46.2453737960321476 10.7782139472144269
 15.7594696142748312 49.3117281987048273  7.5375542910844899
 15.9486661368009166 49.4210689440557616 10.6538334656743992
 -7.3643229201576235 42.7163264505464824 11.1775092902024422
 16.1725163413434316 52.4637975518171089  7.3919288927418654
 14.1319982168215166 36.6993868717428811  7.8194258980638613
 16.3812743110469761 52.5819343883985724 10.5074481409819196
 16.5898921966343238 55.6217588323727341  7.2453033130059419
 16.8155533058481375 55.7262217228757777 10.3604724467917357
 17.0121096090456732 58.7884571726031808  7.1207982351205112
 17.2520230499202647 58.8566717431952142 10.2369258368091920
 -7.7690761297937510 39.5351619729895560 11.1656312168694729
 17.4404201584076759 61.9611308358992545  7.0406773582175353
 17.6893080792803588 61.9766876570600829 10.1578462205192146
 -7.6799497642348626 39.5521113633553369  8.0465710975169618
 12.5711533706505563  3.1268787152145787  6.5674186332717994
 12.3202364522783103  3.0551412190372873  9.6860433289746322
 54.4734037056875025  5.6636132205639100  7.0515350072381606
 12.9970498282186462  6.3029903129861031  6.6994229074301499
 12.7569568330465870  6.1751422756688452  9.8165021313880985
 -7.2731092171893525 42.6992724506748687  8.0585199827810658
 -6.4583191247289173 48.9930971405423534  7.9808252743676942
 13.7850576479131597 33.4916393856375265 10.9224435521252268
 13.7282879741500210 33.5392028837065368  7.8003569903423555
 14.5070000239360422 60.7371937673748405  7.2608048091978219
 14.7201665496758469 60.7717217475294120 10.3788363031256488
  9.6236657009240059  1.9146682387331353  6.3101428724666784
  9.3924445105056549  1.8631992941852380  9.4316597205817914
 -5.2638140706979053 58.5331203202244623 10.8489652862220112
 10.0533964925384929  5.0968897066412575  6.4279610410063137
  9.8276001541123357  4.9738326535745951  9.5475594418590060
 -5.1996370526317106 58.4649160684717799  7.7272600280433128
 10.4768959503536170  8.2692892641494762  6.6043784573192159
 10.2646709438944406  8.0975490065579194  9.7222106861100706
 10.8944848219157997 11.4321515711385864  6.8135346886971986
 10.7045283745313267 11.2361703422271066  9.9302179262820651
 -5.6969480650798099 55.3941068369700531 10.9267178196865196
 11.3064052913266835 14.5883298636823628  7.0293232252060891
 11.1459813852543856 14.3919759402413927 10.1460769471558354
 -5.6252419065176928 55.2983875169739889  7.8066841014757733
 11.7133628460417114 17.7422505470516185  7.2301131429186283
 11.5873200297652126 17.5624028174528100 10.3481282280860096
 12.1176878989082795 20.8982541288849148  7.4049386627676315
 12.0289132138288188 20.7426331065971397 10.5246756910267631
 -6.1241325182656103 52.2409122138875119 11.0184725139665929
 12.5201628815456019 24.0566690169540358  7.5499751594476887
 12.4694323471658226 23.9269238993711326 10.6714105709178533
 -6.0445292327028941 52.1428287997222952  7.8991181602627094
 12.9228657432392282 27.2162847113973783  7.6647852418918916
 12.9090755945226388 27.1134811403206584 10.7871956921644809
 13.3255845803702915 30.3774560864116339  7.7483416774682272
 13.3476188005734144 30.3018177642915134 10.8708413541071529
 -6.5445837420713975 49.0730665887154700 11.0993135233898741
 13.4182906487692950  9.4685851369219272  6.8728730450557896
 13.1958385838361387  9.3087868806692562  9.9893531748276487
 -8.1700562955658373 36.3546340068534732 11.1193666552423327
 13.8337993399031696 12.6267861577475955  7.0621203306427613
 -9.7647213141137232 23.8329606084123746  7.5172988336470237
 19.1028171535535023 53.6754695512848272  7.1347610585165331
 19.3379550231015358 53.8018061912918668 10.2499849931545004
 19.5211252134970188 56.8370856740291046  6.9812720235635854
 19.7747904462223296 56.9377213730902270 10.0965938404795263
 -10.1378070942047280 20.5200593797699149 10.4674171717792497
 19.9456521295485807 60.0069597498759677  6.8630291973456110
 20.2114964794595799 60.0598183018769305  9.9794327878427804
 -10.1971976161684097 20.6909794139470193  7.3475374280402157
 15.0802597253541339  1.1630239186550733  6.7511770306213998
 14.8252424018967783  1.1384762538784969  9.8696913280688445
 15.5085332469715365  4.3404432639135333  6.8379370454948418
 15.2621431265026111  4.2557161580388847  9.9553072275564478
 61.8037927191932681 17.3687928784415497 10.2904476639241089
 15.9328187438305360  7.5097026551305319  6.9741973863103848
 15.6999132620219175  7.3840172509038426 10.0905385068001419
 61.6977529283764170 17.5496671910837172  7.1712391116408423
 16.3521871236577852 10.6703961493251285  7.1363629298735463
 16.1374710543929503 10.5278316278655417 10.2528211999541359
 16.7675057346871768 13.8265347617422396  7.3010848612180688
 16.5743289419933006 13.6878816742068370 10.4180307398459817
 -7.8077485808954910 60.4487592334592492 10.7386705087395793
 17.1786132738408526 16.9803584322737784  7.4480976208069798
 17.0114219676832867 16.8619146791666701 10.5663081838879869
 -7.7075147807940896 60.4055832428721473  7.6165711562651524
 17.5854119462476142 20.1357873975275652  7.5660684838242611
 17.4486382471388595 20.0440387298966876 10.6859356960467711
 17.9898264725159258 23.2945772031077070  7.6521934096575501
 17.8871563025250637 23.2300557701702850 10.7736769635964631
 18.9018641135647698 50.6499488781220037 10.4148544376355989
 18.3923324303728890 26.4565173043713635  7.7063445215837429
 18.6892018708235454 50.5207356726865981  7.2990926149287150
 18.4662990525789148 47.4817258975482730 10.5683288049618351
 13.6356121464286293 12.4584851938730168 10.1784796213749029
 -8.0880968758616074 36.4050815571868114  7.9997847144979088
 14.2443096165528722 15.7820620854587084  7.2443192806240990
 14.0753848367968910 15.6246219606692218 10.3615225078896014
 14.6506405054243523 18.9372454261875127  7.4035581398521932
 14.5156604874733191 18.8021166956394836 10.5224050523927328
 -8.5687836881092068 33.1784001511890452 11.0395217636067091
 15.0545729219923405 22.0953008700638094  7.5334359543831875
 14.9561316717338393 21.9857118366562787 10.6543339956364438
 -8.5009317461920535 33.2605352864402946  7.9194260930504639
 15.4572724597925895 25.2558029714038206  7.6331439972010555
 15.3969664895814695 25.1716530792457007 10.7557756197721766
 15.8590027438875776 28.4180029568733588  7.7024818455269992
 15.8373348004420080 28.3596698727871654 10.8259037235876505
 -8.9638041811901630 30.0061721862140196 10.9293272782029636
 16.2611859094497575 31.5812829088834448  7.7411955450611822
 16.2784663445492015 31.5489145620574085 10.8646071668599866
 -8.9166249927952634 30.1172205592516562  7.8092874789241638
 16.6634769766408368 34.7436146357694966  7.7488154422992732
 16.7190114634695597 34.7385193587414207 10.8717717210855760
 17.0653287774395075 37.9044424786402985  7.7243438954931527
 17.1577061146783763 37.9276865402128180 10.8462067732742273
 -9.3567302873986939 26.8392841161062279 10.7933543458731354
 17.4677208331558944 41.0631240417465051  7.6668176261032768
 17.5945237367190117 41.1164922068980943 10.7870690005449070
 -9.3377533476392092 26.9751042601726141  7.6733883188375547
 17.8727998096430589 44.2182067785821218  7.5754893329081039
 18.0311154745419131 44.3019627265446374 10.6941697416949726
 18.2796812284744306 47.3698683477125897  7.4512522999275692
 -9.7480173489458419 23.6770296164407839 10.6373382694711314
 56.3444727214344425 18.1545743563498441 10.5444007226868255
 36.8670054205590745 60.9134237543607284  5.8932350302598770
 54.9083342299750754  8.8230623986031596  7.1264974796961793
 60.1805303160651448  4.8361757125119320  9.7108613064478462
 60.3690635062079579  8.1014244193517264  6.6894784175494033
 60.5986209575208576  7.9560888865219122  9.8069216329890772
 60.8132078657237116 11.2573914950448017  6.8296617332785710
 61.0081168624764132 11.0849809744936518  9.9472922316127690
 61.2569676518218529 14.4061273553127638  6.9953152044218436
 61.4096438008741004 14.2231593046220581 10.1134795753618079
 62.4403313129517059  2.9785780136583622  6.3412959561477766
 62.6802452092364319  2.9088597738754518  9.4616616004065381
 62.8857385337876238  6.1551128405695499  6.4185342224199937
 63.1031357386585938  6.0195971466638802  9.5379363688586007
 63.3326872399179166  9.3206218029459542  6.5597944208925414
 63.5180093398015302  9.1375716775137938  9.6787163623952992
 65.1668473773383425  0.9858728379117633  9.2552598505423340
 65.4092729596406457  4.1980920551245662  6.1762082254369881
 65.5937373355528592  4.0892011769754353  9.2993436628882939
 65.8567285486023479  7.3746347641979462  6.3037102401366161
 66.0138362681157957  7.1984544333177967  9.4250408256906777
 67.9426035419790253  2.2296090844583416  5.9913009268008199
 68.0702327807063341  2.1642715312991032  9.1190376348092581
 54.7191278201922557  5.5753720109479445 10.1675003434058500
 59.9264094804227128  4.9352541954600042  6.5930405885488836
 59.7535198413610544  1.7244926337596851  9.6765007125082310
 64.9642520170885973  1.0128005948266745  6.1311295456852744
 59.2711542618585980 19.3386867762515244 10.4806376388557734
 55.1395864059719187  8.7076280145257190 10.2428940387987204
 59.4852696998879367  1.7600755507155199  6.5583312570393684
 55.3413370363994375 11.9730799350497694  7.2235377952846536
 55.5497963390391476 11.8498860743592704 10.3400080064283610
 55.7738204112784075 15.1178433106541963  7.3259115999199187
 56.2057563242762015 18.2604864887417833  7.4247093041900163
 36.8429552991878211 60.9642242948638398  9.0239319676645540
 56.6373259520262451 21.4028820365543417  7.5180933942052004
 56.7334854533473631 21.3093871606568044 10.6397318157511585
 56.5422164244692311  0.5407046655228677  6.8001793419835543
 56.8125715967891551  0.5333795712648378  9.9172923224974632
 55.9506467474359042 15.0005449043388825 10.4434790213429736
 57.2427100960860287  3.6484233024669330  9.9182978102023736
 58.8811820334005702 16.1876575517543770 10.3436566090645989
 56.9776546472383743  3.7156641673752859  6.8016841652826203
 58.7329003649211430 16.3333471158309891  7.2250877679931671
 59.1691417641282342 19.4759021072522600  7.3599746620596767
 58.2946411944958882 13.1891190603459112  7.0907087908872164
 58.4850980592363996 13.0401462426673955 10.2074623592328440
 58.0804737331966194  9.8999842985993443 10.0809956871033339
 57.8557029167117634 10.0398716190595358  6.9645717628540638
 57.6664588049461457  6.7693761709792541  9.9784119227376511
 57.4170074752310455  6.8832946131917483  6.8621130477410004
 21.4582729845035622  0.9297321834005933 13.6216483367992236
 25.5547082068912381 62.1659207598087278 16.2707503511842724
 21.8233016815091432  4.2540318581831738 13.6703794924827697
 25.3581052769148556 62.1548147210012658 12.9298184399754863
 21.2635932091434263  0.9192850393418323 16.9715592090893637
 25.1867917145272457 58.8803210295758035 16.3339979711873156
 24.4406836581297959 52.3073008172910860 16.6010859794123711
 24.8158953208048025 55.5937629825442983 16.4488207225785708
 24.6274765160376141 55.4799519899044213 13.1059820495157631
 24.2650317427173583 52.1625158288124808 13.2563238532953971
 24.0600777832172525 49.0198428678528657 16.7755337907450937
 21.6341126740355669  4.2027039250564648 17.0204686811950552
 23.9040651237476709 48.8604410460598046 13.4283931222486608
 24.9907845841470788 58.8116881255688924 12.9918990905768403
 22.1885597571447839  7.5708643194546426 13.7533888896632739
 23.9501478197903914 23.9719660921004518 17.5289835333056665
 22.5558610294677635 10.8757232889970528 13.8593532342835530
 22.3857914253185974 10.7754280778160219 17.2118050807740559
 22.9260810145128389 14.1657704219813514 13.9707256900215047
 22.7696097957265273 14.0690500785678463 17.3249953884750383
 23.2988706795936018 17.4438170770495660 14.0678230247169260
 23.1596705624808301 17.3676456361896534 17.4241388445603533
 23.6712300456309173 20.7151223512596978 14.1364236296672967
 23.5536204309275661 20.6694632494308301 17.4944621178098423
 24.0419287024290682 23.9837263780227268 14.1700433342042160
 24.4112629092380438 27.2514662532852974 14.1676831027783567
 24.3477106110738468 27.2732902436672155 17.5269948411444751
 24.7797628869916942 30.5175004024794099 14.1284380593307510
 24.7457801265215238 30.5746081820473670 17.4871558533029585
 23.6729240855377654 45.7290058435853410 16.9540855633206817
 22.0078333790384377  7.4875903823865295 17.1044388576336921
 23.5442833549984307 45.5733296584156093 13.6047743373978509
 19.1643776044239758  6.2556107016934863 13.5443396732236803
 23.1839221864874929 42.2967229662907016 13.7670794697881487
 19.3356475138795361  9.4608982844927745 17.0028283694343472
 19.5285417287880421  9.5679338653195689 13.6535293615522484
 18.9600180668644640  6.1756416920679200 16.8922600300594432
 25.1473753684427912 33.7827216920346274 14.0511813308286690
 18.5884618541223610  2.8919058022762227 16.8134647011034453
 18.8009727478072293  2.9316914972406876 13.4661101331378870
 19.8947307046969328 12.8661799689202070 13.7791464881772541
 22.5249207630258788 60.8459526427794799 16.4690095701867492
 22.1550947990998139 57.5595095411499713 16.5522380708534058
 21.9392642893828942 57.4791986624706652 13.2081179240855473
 21.7808919294930519 54.2723373968123468 16.6761423606194299
 21.5765952229413074 54.1570974377721441 13.3305518463120904
 21.4011674167001615 50.9843789006658952 16.8266058882909277
 21.2143911990700360 50.8496865172941739 13.4785817427863766
 22.3035795395817509 60.8131739053825697 13.1260137813541427
 23.2805392880226769 42.4347001692400951 17.1193101139863302
 19.7164271681458203 12.7499365916920393 17.1306335110407524
 20.1039714823526658 16.0439607475754684 17.2560937579310405
 22.8843602580102505 39.1386948344110621 17.2598731151995253
 22.8216375117337904 39.0260430466660679 13.9045434908378134
 22.4857913823101825 35.8411387358541802 17.3689832571340972
 22.4576109400611834 35.7584896497274727 14.0115504576925289
 22.0867164636075302 32.5414149069232366 17.4421565539014729
 22.0927085275332438 32.4929368890583490 14.0838145980522249
 20.2625193961806005 16.1503527413259960 13.9021692448922316
 21.6880220804647941 29.2408673016295140 17.4769330990013856
 21.2899516364220212 25.9410280646159848 17.4737383024001751
 21.3619368126719813 25.9612438607424210 14.1154235737713591
 20.8926014592171008 22.6412666959191533 17.4348012421864418
 20.9964930759565860 22.6936058563353491 14.0772552329321421
 20.4968163594573092 19.3417409754632779 17.3610559469233188
 20.6302651244573170 19.4243997164137490 14.0050547723455114
 21.7273173494583283 29.2277525358749557 14.1183992057460870
 25.1438410735026530 33.8759381456202107 17.4083933421870825
 25.4411320063365558 12.0890126734918226 17.3928861914990485
 25.5419147188213174 37.1754171781925464 17.2916411093302465
 30.8772753068336954 58.2433233671060933 16.0812288001265316
 30.7670949811871068 58.1528602907940595 12.7401406995026161
 30.5084513983566943 54.9574138723010819 16.2102934965250185
 30.3999505235277958 54.8146872114101100 12.8693567619368299
 30.1357641353725612 51.6707480575825286 16.3842841360926457
 30.0346712649423573 51.4911660801597790 13.0420101948139600
 31.1372414294919686 61.5028731301671812 12.6706549900963683
 29.7587070619269731 48.3852523904373300 16.5875573086003563
 29.3765541026822632 45.0972403825786614 16.8027203713038347
 29.3040797162104347 44.8925287599757041 13.4554209165709864
 28.9891678047331531 41.8042815072273015 17.0109021843934478
 28.9382123955813988 41.6134060901775342 13.6609524895152248
 28.5963876327304085 38.5079938931431727 17.1984079927816857
 28.5700887503685621 38.3413617446280170 13.8452152654438496
 29.6691820421399477 48.1837565265517256 13.2424444513931316
 28.2003965140465169 35.2089188235470019 17.3555039337748980
 31.2441951560336513 61.5272403737026679 16.0115612731968682
 26.9952096890582034  0.2483228604077012 17.2659703454401949
 29.6729100150715652 23.3201694771367229 17.6696163541572560
 29.7432768621855566 23.3008340223521522 14.3094875141033135
 29.2788121736961173 20.0114918594497482 17.6625737077003393
 29.3614249458408381 20.0324382663405807 14.3024387774756967
 28.8873791803762714 16.7043707425083738 17.6154443593260481
 28.9793906051840651 16.7607649334933200 14.2559318019145724
 27.1219399715748075  0.2507101794806108 13.9103860231237118
 28.5000505911926538 13.4023695498644919 17.5377886006696215
 28.1180433260472213 10.1066759265855808 17.4464985952595981
 28.2247380743281155 10.1897903518215713 14.0893566253938189
 27.7405489240276992  6.8172941640014235 17.3615036939212182
 27.8549587338782878  6.8850147789563163 14.0055341338030050
 27.3666381690583620  3.5314559471220215 17.2977971736661935
 27.4881000483274391  3.5707101184895489 13.9424599830526095
 28.5996464118926816 13.4814401532071297 14.1792697192530994
 25.5138101048643549 37.0489602186968199 13.9362593274681785
 28.2008430176243614 35.0740118185834575 13.9994287274829556
 27.8302927951387318 31.8086501481578807 14.1170116400979815
 28.2162649451498027 60.2036729887278597 16.1478317286338751
 28.0566753710091774 60.1537305995802285 12.8065346580227644
 27.8479281273706043 56.9180424544248353 16.2447555700493567
 27.6903738344864863 56.8119139614695570 12.9031966085449561
 27.4763755247313561 53.6312929351554075 16.3902979694010327
 27.3269076336777665 53.4840204061917888 13.0478035666187022
 24.4746919690675000  2.2525616577448493 13.7955048083838001
 27.1000997043484375 50.3454256135281426 16.5693715356812810
 26.7185665609739793 47.0582872875637790 16.7661968410681332
 26.6028052477526984 46.8744721133558713 13.4191443913087660
 26.3310748866240907 43.7669912855222023 16.9619661761896623
 26.2415886698844432 43.5917665694154692 13.6123635365862459
 25.9385519855765878 40.4722766703360435 17.1405246530791509
 25.8788568734807782 40.3179459591919525 13.7877411599823088
 26.9641699252858302 50.1712960132406636 13.2245134708720968
 27.8034002646165206 31.9071883926835973 17.4749208776080422
 24.3131641716054148  2.2266550304864752 17.1484718381221022
 24.6851362685509486  5.5108686267941236 17.2064127041756798
 27.4057599335057347 28.6042187161798900 17.5553220365573353
 27.4583208192234594 28.5426666091895704 14.1960281966606754
 27.0082890085800642 25.3007675596116073 17.5962784980939801
 27.0847584908774159 25.2752579196205573 14.2368154991749698
 26.6121955220289408 21.9959255193037500 17.5982500011445424
 26.7089826439312894 22.0067597512634912 14.2389601623326367
 24.8407321991777579  5.5714638810479995 13.8530901945520828
 26.2180949845150693 18.6901691706939985 17.5611968089458870
 25.8271164136285627 15.3869912224549186 17.4888136558991825
 25.9539256778958816 15.4630573790550301 14.1313579860511620
 21.0146565307374544 47.6933769579442313 16.9861687559085297
 25.5789481494327831 12.1793266129148652 14.0371777662198056
 25.0607977897064558  8.7973684912286600 17.2924771842318776
 25.2080703592994873  8.8818286667407431 13.9380746947324852
 26.3315375876823303 18.7372528184560352 14.2026992435200796
 20.8525484944560056 47.5574356380570009 13.6362267730619138
 15.9183897678163344  4.8612704531990882 16.6671606956476026
 20.4910342465104875 44.2772971742186101 13.7846338413248226
 13.5806511363752360 60.1597921344932232 13.6957880253870883
 13.7799715418068498 60.1910072354740251 17.0455600877235369
 10.0318181856738047  2.2674463915964727 12.9049494603658790
  9.8505681460940213  2.2247533160182504 16.2467614548708994
 10.3962711335360236  5.6075731388843160 12.9924283004501380
 10.2188357779500407  5.5062110429445577 16.3351154761770836
 10.7583826809722005  8.9343193906555260 13.1295448347587502
 10.5896675910925868  8.7886822224191015 16.4728579616328332
 11.1194968695085432 12.2453094860581917 13.2999196876949135
 10.9642459181015486 12.0715934038361858 16.6453845629280366
 11.4800885154200003 15.5398297080434880 13.4868499674033107
 11.3445184273047914 15.3570776297468914 16.8337751404993838
 11.8405242077379622 18.8203263320977250 13.6687283129178461
 11.7311816324583358 18.6476816422763427 17.0183136384514455
 12.2014057265788995 22.0924983511682740 13.8301681941550214
 12.1228289642213181 21.9420331867618259 17.1832042536239271
 12.5634082429536935 25.3604806489701460 13.9631389583672885
 15.1384072061567423 48.2435201652412715 13.9031776284386162
 14.9110122691031677 45.0423427777288552 17.3669424584943037
 14.7677452861167744 44.9649757271873014 14.0108753411404319
 14.5130979188375449 41.7410380835967914 17.4490240555518703
 14.3976598534115787 41.6934375525643262 14.0909881965416108
 14.1133207546711450 38.4396747742777407 17.4967947362004388
 13.4063113802281002 56.9038884338035587 17.1183538620335369
 14.0283349377316515 38.4247116277571763 14.1377655174844392
 13.6596351816189454 35.1572990306388107 14.1498545976624186
 13.3127501910474173 31.8386081504301046 17.4840782180369629
 13.2923693268507783 31.8916023510933435 14.1255829114829030
 12.9146074135359061 28.5377257704325515 17.4201848424195092
 12.9273038621653527 28.6264902453744199 14.0628980918114603
 12.5178082415888863 25.2387280557942510 17.3186494158405964
 13.7126080407940378 35.1392680950982452 17.5090765266641810
 13.2164231466834270 56.8387166504982488 13.7678337390947902
 13.0273894418553766 53.6148470766058054 17.2188118172159896
 12.8501969875999844 53.5270522436128573 13.8663602556716494
  9.0712079061322122 20.6118206413395626 17.0546449335377552
  9.1432439465294131 20.7989730440090952 13.7047839459801182
  8.6836109849856360 17.3195511201835188 16.8563709624987901
  8.7802954781157521 17.5223409518608655 13.5093838121722829
  8.3025886430936815 14.0326189206265024 16.6475975180511533
  8.4176810354742049 14.2340093645740744 13.3025549371789662
  9.5071807437105260 24.0695787309401439 13.8764108061737623
  7.9268247200888480 10.7494100209203829 16.4480908589941137
  7.5554942988045042  7.4663461633217212 16.2774032826367367
  7.6927343652009856  7.6075333341911850 12.9357014168497084
  7.1869612471307853  4.1838529464966419 16.1520613160819657
  7.3280437368001268  4.2703113323292063 12.8102535919723746
  6.8197595996395446  0.9021519138246296 16.0861212342768880
  6.9606298295352964  0.9217633927627658 12.7448430256895566
  8.0553409381200236 10.9293047093717259 13.1052093389583284
 15.3057924801735332 48.3414926485677228 17.2567513372015142
  9.4633834730397499 23.9072729076875135 17.2295458533661048
  9.8585548090554109 27.2057501240031598 17.3726167004948380
 12.6419858135391046 50.3213923803149754 17.3314034249500395
 12.4807137846830809 50.2297933261922012 13.9771065601929791
 12.2501638915149300 47.0226086664190035 17.4367973825731788
 12.1073690811315959 46.9461678085946090 14.0804298647039570
 11.8537893432961710 43.7198815871569622 17.5179109718013883
 11.7320733647164133 43.6718735731452341 14.1597261109840478
  9.8727118929798863 27.3361885257048485 14.0168901090736782
 11.4553011585263462 40.4153538343399674 17.5647271430547569
 11.0551811977216214 37.1117273844999858 17.5742679768256025
 10.9823734124028860 37.1342504850573789 14.2140131495791611
 10.6546707966116383 33.8093907510590128 17.5461227162486963
 10.6099660632128625 33.8672058556096829 14.1864051050833204
 10.2557069797759652 30.5071012557930104 17.4789110005163728
 10.2401654522548871 30.6014718478846213 14.1209155726497873
 11.3567915714063297 40.4023448599151607 14.2049853486351179
 15.5069705236354043 51.5337882884778864 13.7806266602386156
 15.6945624139758415 51.6366834035628059 17.1318089220684229
 15.8728720876019000 54.8391715355361029 13.6618600507813781
 16.6689466659574990 11.4297785349956236 16.9150304210890070
 16.8580767376757166 11.5623360865318627 13.5662172709187683
 16.2909438687889185  8.1446510454266523 16.7772154737565273
 16.4952986294086337  8.2555572396632648 13.4302946313686320
 30.1233711268800342 26.5683537120499338 14.2745330790749883
 16.1332219343839860  4.9341065983787118 13.3214382744997835
 17.2218082858683061 14.8538506085218103 13.7120974295332907
 15.5495681326446107  1.5789194093232282 16.5984739239203520
 19.4922792891933696 59.5292543945685395 16.6893019565552017
 19.2638570658440322 59.4815129120545336 13.3440659685219476
 19.1193789342074396 56.2419116749496695 16.7839016847825739
 18.9009077537354280 56.1559486883867933 13.4377362206490716
 18.7411150720105653 52.9534448895558469 16.9094069844414214
 18.5377118889943127 52.8425967581384626 13.5609126899249901
 15.7690907966391940  1.6023286356779878 13.2532702583422868
 18.3561444385941108 49.6622567842420892 17.0498101610569179
 17.0526011827236523 14.7191779012684716 17.0629325747988503
 17.4422479190647088 18.0132327430057231 17.2012700717562339
 20.2271564753816158 41.1020149063504263 17.2651215034410157
 20.1287392963182157 41.0047854872648045 13.9103249481559796
 19.8288109620763855 37.8044265917725753 17.3635398371893075
 19.7655027338920384 37.7359445895427754 14.0064662681448997
 19.4287020439120823 34.5059108525871778 17.4281298877382760
 19.4016005275224757 34.4692926120335414 14.0696778458776421
 17.5855261804701151 18.1328627873069053 13.8482531264479540
 19.0289361491202165 31.2062459243011645 17.4555453504684372
 18.6302025984480366 27.9065313260818577 17.4446496684051979
 18.6737917892961605 27.9388559378521038 14.0863211451246713
 18.2323508937667818 24.6078555339003202 17.3968909118609609
 18.3109933422875635 24.6721966488360138 14.0398571838379773
 17.8360273882332656 21.3101567169095496 17.3149814706339278
 17.9484770632157122 21.4039751444312607 13.9597109383651627
 19.0374457834913464 31.2041391821726748 14.0969310826851526
 20.6227302540081467 44.3987012626878865 17.1368465820186096
 18.1731621668158780 49.5441719898717849 13.6989259087824724
 17.8076101059064626 46.2593062384833473 13.8337140620538346
 14.0061610716817775 13.3946082014126659 16.8551362011041732
 14.1745426431949859 13.5529212174450020 13.5075001587640333
 13.6269001116198361 10.1094397608984519 16.6907921489336459
 13.8133461375490931 10.2523915143853372 13.3448315606766421
 13.2531049999438668  6.8265743567095782 16.5487677410353058
 13.4520101482116416  6.9355733255314522 13.2044593120590434
 14.5356737453598370 16.8383952249808395 13.6723994606985659
 12.8834283487009849  3.5446379204019975 16.4460504021011609
 12.7228863194916055  0.2653692072416794 13.0519142799908501
 16.8245601073718980 61.5016413642125670 16.8464247789014721
 16.6000644619059123 61.4840552827136761 13.4995576096740137
 16.4528158776732134 58.2150372523767103 16.9114647402250071
 16.2364971881749049 58.1576900360769002 13.5639143470565404
 16.0766090571617397 54.9270482026674358 17.0107672983594576
 13.0893374072132218  3.6051021340392562 13.1023829724013670
 17.9648562210334042 46.3669581397031436 17.1869730780392551
 14.3915431885221849 16.6846116951175603 17.0222460880496911
 14.7820808323566641 19.9785792471244115 17.1739720341257396
 17.5693753303670093 43.0690899977231183 17.3046083865788454
 17.4419688481193624 42.9843433807567834 13.9492590965430576
 17.1714244440860213 39.7700550516979092 17.3928043520219262
 17.0767663399232070 39.7145932309671608 14.0357699173401169
 16.7711600186933900 36.4709845013631480 17.4476415648342957
 16.7114854629371479 36.4468283359668916 14.0894892791426454
 14.8965408103635362 20.1135186374735149 13.8213715101476282
 16.3706510995801828 33.1716168032822267 17.4669436811986500
 15.9714401615334367 29.8715466833741630 17.4483051973991614
 15.9820762520199171 29.9158244693226401 14.0897924995764914
 15.5732258089646045 26.5720497890473624 17.3912355011581781
 15.6192088453530253 26.6502812864035121 14.0337662487228947
 15.1764994877559758 23.2746985780139717 17.2986067310962497
 15.2574186020694391 23.3829759072804251 13.9433516671579358
 16.3463467151101547 33.1806593665240044 14.1083889463270857
 30.0688074990771206 26.6275846379722658 17.6342565680428081
 30.4231556699163939  4.8365013378966193 17.4126939182102092
 30.4650518316518344 29.9332238581143919 17.5574564852002126
 46.0925813222547802 14.6733021026259376 17.4831883704126589
 46.3554056027831294 18.0273792780679578 14.1739846322633589
 46.4747957323225762 17.9802317400928047 17.5324642774567572
 46.7535372213850025 21.3077638313792264 14.1975150524207692
 46.8559818495463034 21.2916213971106529 17.5563836905377784
 47.1557562394793592 24.5896444607612459 14.1941536756823901
 47.2342368425125514 24.6054352408497685 17.5532904223745625
 47.5617445915292336 27.8745206133995396 14.1652159534022406
 47.6108097810574407 27.9194411739012054 17.5242748915328903
 47.9695906644826948 31.1606577034921308 14.1123207535130391
 47.9861782004080482 31.2338675998829096 17.4706744349239464
 48.3788236082342351 34.4474961241736466 14.0361671096154552
 48.3606661763071983 34.5486016254814672 17.3931064652636387
 47.4633858141636935  2.8440470030154770 13.8136784610771706
 47.6390956929360598  2.8119970603365796 17.1661557704233019
 47.8341480292185324  6.1633361237730693 13.8408250857279818
 48.0109570296952910  6.0986403419881876 17.1936503320393470
 50.6447998659920415 29.2391694609256341 17.4757617286987923
 50.6155820516972526 29.2111635252022630 14.1172144956325312
 50.2706070287288611 25.9239798469943850 17.4861736670549135
 50.2058546255125435 25.9225716825610739 14.1276850712518218
 49.8960925406357276 22.6097623526361637 17.4743756209661569
 49.7985310228988354 22.6349414784508269 14.1164040748754438
 45.9618687882618744 14.7452484291429045 14.1259788487483462
 49.5197092646418255 19.2970209094342131 17.4406586554837695
 49.1414798115685585 15.9878806997917895 17.3866340751537543
 48.9936348759474427 16.0625543893101792 14.0307507001590874
 48.7627449729049971 12.6845599172556174 17.3181874022150417
 48.5996442121712633 12.7721554938320718 13.9638950116898783
 48.3852672482969624  9.3886448720414872 17.2488404472066712
 48.2124840887273578  9.4732043453052555 13.8950205560657665
 49.3940066235930857 19.3487485411095221 14.0837404684695766
 45.7114285976573171 11.3728006934318753 17.4185623439781061
 45.5740974818365814 11.4555082229164729 14.0621906792563180
 45.3334454486518013  8.0795955318485326 17.3552814674674138
 43.7172589127271749 19.9928852290732664 14.2782673577762598
 43.4217398197992139 16.6648758541427604 17.6114098397053134
 43.3251072879980583 16.7164689904258594 14.2518944567802741
 43.0369310256764379 13.3601785526435233 17.5572352689237938
 42.9375151651802227 13.4350329400099771 14.1987441868913464
 42.6552378621917470 10.0629491090882528 17.4904430495903505
 43.8073080501120558 19.9745007961306769 17.6381431128464854
 42.5548923576201474 10.1422222713349974 14.1325174147581798
 42.1786921741972947  6.8365454932813554 14.0734319602484685
 41.9055350207255799  3.4851733078233353 17.3928349794625241
 41.8080513510599729  3.5214492870261518 14.0359135147924352
 41.5340729859064339  0.2003240731349916 17.3872171327775398
 41.4407902729909523  0.2012100034942537 14.0297583333004674
 43.7931429358961708 45.1381793937763263 16.8267691698396860
 42.2781856838728061  6.7726309241297029 17.4306964217834093
 51.0263973074533226 32.4998568720953003 14.0846020586515444
 44.1129926374190120 23.2685437560062240 14.2721505603765042
 44.5129095073039238 26.5466732170989665 14.2335046976312825
 45.1931333474074179  8.1542132665368801 13.9993293006997899
 44.9592185652907546  4.7909748511317556 17.3089305900500321
 44.8196694804590834  4.8418455003988230 13.9538458733048980
 44.5878085410518921  1.5053955606842209 17.2925159667838848
 44.4513245109496040  1.5216470618985345 13.9372056318755533
 46.0766711485590008 39.8507814783631318 17.1681353553044644
 44.1911072074828013 23.2875913013557501 17.6321091626111439
 46.1378131461118670 39.6838742341567752 13.8155778051386608
 45.7294995885191682 36.3955072314341095 13.9542259627798551
 45.3274627952591160 33.2277599564579447 17.4297341735874056
 45.3224615497214884 33.1106805422132879 14.0724328555707388
 44.9509658586894716 29.9143129803169678 17.5247490691922749
 44.9165150281045911 29.8278287180084973 14.1658800440799943
 44.5724505433552025 26.6012115960684739 17.5929090879210079
 45.7028956609664405 36.5403598434159633 17.3094185475239648
 51.0183549248767463 32.5546931856821260 17.4429256074444048
 50.1114631087582012  0.8439391849197724 13.6596859620425359
 50.3168056874370038  0.8353127370849031 17.0093056277221812
 59.7920685898068598  8.0647958506367097 16.5407989672235409
 59.5994778788913067  8.1832866241296642 13.1965776922363673
 59.4247401684945018  4.7769889983929321 16.4640521555083268
 59.2153564653229267  4.8508201579670338 13.1208517501200213
 59.0581430110289958  1.4903067682427555 16.4386779588800565
 58.8389832421726737  1.5121131090130522 13.0958463423288780
 59.9925070984517390 11.5061746635071618 13.3144369492814967
 58.2458495923840829 19.9423957570950918 17.1443151910149112
 57.8740721969956553 16.6344377329048889 17.0148219973588901
 57.7360943706139693 16.7739457688275913 13.6646914083628364
 57.5027197882573091 13.3323004672441225 16.8852339036382872
 57.3321121100925382 13.4704545782215419 13.5372497202759767
 57.1318883914796416 10.0364720399214029 16.7689752851718126
 56.9343202875259493 10.1590005203430245 13.4221439740840456
 58.1438036955160626 20.0708209641340005 13.7913626473020923
 56.7623107760967756  6.7468958965925214 16.6816311908368569
 60.1616021518658357 11.3554430147832317 16.6602211747020341
 60.5320372477188258 14.6521898771826606 16.8080205509202365
 67.7749121969877706  2.1701500668992120 16.0119867780621732
 67.6769749270145411  2.2162552186056117 12.6707359093683483
 65.4786702578777238  7.4184742221561057 16.2415288784522751
 65.3535191778415481  7.5549546022507128 12.8998409921045454
 65.1139510339119028  4.1322454307975072 16.1458343511954396
 64.9709652675848872  4.2117948386368935 12.8039801559162409
 60.3928260921737703 14.8176825900098166 13.4604924210636909
 64.7486391379451192  0.8470721962300446 16.1131958714987711
 62.8191987451385714  9.3853092432439098 16.4397172855361049
 62.6657607889997905  9.5343167013058014 13.0962437406627075
 62.4528727273480442  6.0971296540507893 16.3278120693438993
 62.2780604359301293  6.2008265918428007 12.9852121175896666
 62.0869739041055837  2.8105209628155752 16.2692556493700877
 61.8976444020817453  2.8593673617266435 12.9275564672861361
 64.5940429137371552  0.8625384523692879 12.7720880873213947
 43.8851580388922216 44.9298181505961480 13.4799029559399255
 56.5459146190835398  6.8374117201048605 13.3359351190408155
 56.1669569419980164  3.5077076689182660 13.2902967912267993
 52.9308672570710925 23.9286291084408766 17.4089784456535881
 52.8500059794781265 23.9718975711898246 14.0517290929080705
 52.5568449173426231 20.6151043676671755 17.3562220854078646
 52.4413893479206621 20.6815894280506427 14.0003299095567844
 52.1820186263814421 17.3044703683472427 17.2860161247858990
 52.0351630365480418 17.3906635879508151 13.9316875153696138
 53.2603627367215964 27.2621207091685349 14.0842598543507016
 51.8067201239806110 13.9989634225238557 17.2045002739632871
 51.4315221716078597 10.7000703685528098 17.1227244707254833
 51.2409950361566402 10.7970099896126719 13.7712384934919481
 51.0579029844908234  7.4085253340879218 17.0543124866790308
 50.8557513994196384  7.4882186011545926 13.7038442256889024
 50.6867172192052635  4.1208254170548750 17.0133217386325235
 50.4803423928619210  4.1691412724286323 13.6636476690313877
 51.6344212778629483 14.0968377446639757 13.8521739069130039
 56.3946198914019163  3.4597211884878347 16.6357377167446607
 53.3038175071810514 27.2434660138633760 17.4425649440727817
 53.3595897359745805  2.1459669584066963 16.8239952243870974
 56.0271919602409696  0.1740118804369059 16.6375859515197249
 55.7953488596840259  0.1731719984833832 13.2925752221524593
 55.5892517248917954 21.9342069519398848 17.2937831808047235
 55.4953858465343970 22.0213295715120836 13.9383192541617635
 55.2157337272207087 18.6224274646705972 17.2007039963301587
 55.0862381035291335 18.7282949085938419 13.8475312434174853
 53.1331090459248045  2.1722457326422804 13.4771003140845931
 54.8426708729156971 15.3156986349913549 17.0974626646735572
 54.4699114208563273 12.0148347342892166 16.9949423072481522
 54.2808623571745912 12.1291825767774224 13.6456914884628855
 54.0982295208338044  8.7209547736377093 16.9062854409337078
 53.8886463960118647  8.8191851712594076 13.5575355607582591
 53.7279816640363919  5.4324430946877076 16.8457727118896301
 53.5064245023302689  5.4996407138292032 13.4981724685462847
 54.6806731065908878 15.4315319279825314 13.7465771787902344
 30.5014886150724287 29.8353341926027085 14.1985262144107445
 43.4194138527770974 41.8359369221738930 17.0149413276303427
 43.0444466772652135 38.5295178881764073 17.1943388221346964
 33.5414558343449372 31.1309746146576209 14.1739926084541707
 33.5234468567577153 31.2587807787599878 17.5323360437631734
 33.9244286030494919 34.3982776815635916 14.0300694441151137
 33.9155351180377451 34.5644434726920480 17.3856422690859560
 34.3066123925814068 37.6681985423900230 13.8507612188173983
 34.3050054193576059 37.8670551895759147 17.2029873756207472
 34.6879727221771930 40.9442065852243005 13.6437499620468223
 34.6914368059872587 41.1657810696584718 16.9930492875374135
 35.0680098991382181 44.2277563308049935 13.4201463539420320
 35.0734444067098892 44.4604845502507047 16.7668553071005206
 35.4470214629760889 47.5241560189345904 13.1946666634319651
 35.4509206876529177 47.7502022530354395 16.5389764561378740
 35.8249586992375129 50.8351644926476496 12.9837086433349462
 35.8247397169754151 51.0382237612257228 16.3263348869967970
 36.2014150704434314 54.1617097263561504 12.8031529418390502
 36.1959952135881338 54.3250494520202878 16.1448477311304721
 36.5768575877243265 57.5029268257369921 12.6705879086283577
 35.4153778607727858 22.6259536218019477 14.3825333087510145
 35.0138645337565180 19.3379649808249710 17.7447534926921193
 35.0279565498794483 19.3576635616375619 14.3832747929654197
 34.6233605007668146 16.0294126567598312 17.7049789589885513
 34.6422154551242301 16.0851343180313080 14.3442363627477825
 34.2380369085537026 12.7267514599187752 17.6357025066761679
 33.1302173702202154 27.9516229150563511 17.6391058115507491
 34.2598924458673295 12.8034932965192567 14.2758695551129335
 33.8824514856832053  9.5081221639399800 14.1977627397284021
 33.4813312873463147  6.1427741977490928 17.4892509875232385
 33.5114555818877022  6.2004878084014896 14.1306647428328009
 33.1074802100708894  2.8560452332172992 17.4445489866484706
 33.1442759684169985  2.8858345175320448 14.0862041480937830
 36.5644111887475276 57.6105910810936308 16.0117891550903870
 33.8577766091430945  9.4318862514332071 17.5569354745376991
 33.1580268109235305 27.8635203442542618 14.2791270587570853
 32.7361046046617759 24.6423005389297956 17.7038217343149000
 32.7739300784064085 24.5961742513870973 14.3432760459880413
 33.1673209165083875 52.9980587063187656 16.2379368440862955
 33.1144964649398474 52.8214169069433339 12.8962736501490038
 32.7938168046432921 49.7113660478809081 16.4358213810256828
 32.7440189226005245 49.5038322036428795 13.0923314536802344
 32.4165285602466469 46.4246621593589168 16.6561954866194810
 32.3726496007251541 46.2022849877087509 13.3105660190107749
 33.4847401964955580 56.1548409664190231 12.7383214088700871
 32.0341801771570118 43.1337793387820980 16.8817736083975518
 31.6467341559413597 39.8382286548296349 17.0951056598815399
 31.6280466356596897 39.6386117627544081 13.7442904868681346
 31.2547098137406181 36.5395816313757109 17.2848271357250702
 31.2534516051058411 36.3680136892485066 13.9305611217612082
 30.8606181909319552 33.2374098187317628 17.4406315241734653
 30.8781822147016172 33.1015659762649221 14.0836695630720268
 32.0012660205171073 42.9156987117044935 13.5338489844454912
 35.4062969230924196 22.6499282614031046 17.7440677511549296
 33.5372550116746169 56.2840424217178139 16.0794472429103905
 33.9049574399051465 59.5685146283764055 15.9761202540924163
 32.3419267606942142 21.3313554226758235 17.7244802197577016
 32.3891051858652830 21.3289421205318881 14.3635178889315220
 31.9493261093169849 18.0213870300722192 17.7016292771431196
 32.0040812459225279 18.0593809430585566 14.3408843240425217
 31.5607065198891341 14.7157967471014182 17.6422280791297439
 31.6207787494689612 14.7834431655213745 14.2822091746649296
 33.8561164137852302 59.5013100285523464 12.6347981870889985
 31.1774570041792352 11.4166034307275090 17.5611395367899235
 30.7987343959996096  8.1243643436439861 17.4789534925201373
 30.8680937779391940  8.1969264781699529 14.1209145447973743
 11.1023629226653924 62.1685972082893912 17.1752112740591052
 30.4999868151053057  4.8862773216519484 14.0554621571667013
 30.0502399180151727  1.5517319741867392 17.3731956468384894
 30.1337300181895422  1.5690993674270306 14.0156405818006462
 31.2415125872620472 11.4969828379223067 14.2021576958153624
 35.8031258906717085 25.8938043131635780 14.3383245280054705
 35.7984305898408621 25.9620059655774362 17.6989605972969848
 36.1914814043505473 29.1624018821867459 14.2514318661071098
 39.5385758306537767  8.8290306420270319 14.1679799418911063
 39.2220221929735544  5.4667322266850258 17.4717876508415699
 39.1661480817151286  5.5190476892513001 14.1136242341099294
 38.8499499928043477  2.1802811614171853 17.4427504951639669
 38.7976111703780262  2.2021481761539259 14.0844875668992007
 41.1377567017266799 47.1098977510118573 16.6374741607319407
 39.5969733420940599  8.7553828519216808 17.5268445948017373
 41.2119269554208714 46.8894948656538304 13.2922090203396941
 40.8168791543149965 43.5893775054140420 13.4991522356171014
 40.3864922420215890 40.5137963351776165 17.0545066598745727
 40.4198495255907133 40.2993627270937722 13.7040388873373065
 40.0082450903248485 37.2088903991240869 17.2482727518126886
 40.0220184475078469 37.0174403631234483 13.8944734083390120
 39.6274498141747600 33.9008605445504330 17.4172198178254405
 40.7626251171874827 43.8142438088915327 16.8466955438783437
 39.6243364013122275 33.7409059761756254 14.0610618979894788
 39.9173495129207794 12.1272687931419281 14.2368319113015591
 40.3008901721943005 15.4114032891000967 14.3000367248419753
 43.0777269581217581 38.3451391897612481 13.8413260565579037
 42.6680742126246813 35.2201050585370723 17.3545283814875688
 42.6740155980392046 35.0622946769129769 13.9986381621364711
 42.2897059119035319 31.9088322926650108 17.4888134340435819
 42.2712491989013301 31.7829274315751711 14.1308554718466670
 41.9090129896563965 28.5968327582881692 17.5938160762107927
 39.9771694172016510 12.0487963233856501 17.5959975424210668
 41.8704800134488124 28.5062197755733919 14.2344630798566989
 41.4730794585969207 25.2312942761519814 14.3063609735702553
 41.1385311368145850 21.9704003271418209 17.7021606616002849
 41.0793722098405638 21.9589625239405741 14.3415724191351863
 40.7504580807535675 18.6583031162214432 17.6988978882570187
 40.6885025438959644 18.6867609348466317 14.3382864835457511
 40.3622436875751305 15.3505035347278707 17.6602202995002742
 41.5249566251314022 25.2840786801061164 17.6663316174501226
 43.4819654426400106 41.6339655095060479 13.6654034458318847
 39.2436282048406184 30.5910907935331160 17.5557407868036428
 38.8572088601058780 27.2798974979697668 17.6586042347901255
 38.9092315551169321 52.1765235671371741 12.9285857333439846
 38.4819618385253435 49.0759009742711214 16.4644923507207892
 38.5250828435433945 48.8579001461587694 13.1212434397979578
 38.1070095626358949 45.7851360989591001 16.6815148256382315
 38.1386461961472705 45.5526906583629128 13.3357500542477165
 37.7296750716632374 42.4906395319819907 16.9055340045854656
 38.8540875412510402 52.3645561138295363 16.2703619646571411
 37.7507773542970568 42.2602198271381084 13.5569423763446224
 37.3614540319268187 38.9779979476169487 13.7703534503676241
 36.9656073528451188 35.8879364412219317 17.3170829384144120
 36.9713851165093104 35.7026167566867798 13.9627875980961260
 36.5786195093667530 32.5811523430847814 17.4821750770985744
 36.5809467916749469 32.4315352789020039 14.1250757606598309
 36.1892042054918477 29.2723621083153809 17.6108365010187171
 37.3492602029188561 39.1914219255434517 17.1216021288526825
 39.2277828638526387 30.4676318428537343 14.1971181784588190
 35.7878439001204995  0.8843200377300582 14.0972586681701646
 36.1546095525794939  4.2018580013186693 14.1187775287193755
 38.8337634086044901 27.1961633056426138 14.2985949991828249
 38.4683234901891709 23.9672110924843693 17.7222846418669810
 38.4419999721958376 23.9257499380815410 14.3613210176905710
 38.0784466387909220 20.6540506355052038 17.7436586975566328
 38.0523781461200272 20.6564224844394779 14.3821091044613709
 37.6878091828848270 17.3435155988343652 17.7235476314964444
 35.7928636350047853  0.8756557730164144 17.4560590715507367
 37.6642913021430061 17.3854893788278773 14.3626127430469470
 37.2794861813866731 14.1082809134791400 14.3090288210687504
 36.9171056580328028 10.7395653285174379 17.5959661682832760
 36.8988260777306252 10.8185982137373635 14.2364481264510356
 36.5392399371077374  7.4489227871557127 17.5268319504302603
 36.5240706165586317  7.5146840843988176 14.1677855652433635
 36.1653231951342846  4.1612934432305044 17.4772284505563142
 37.2999079214401306 14.0378037774795175 17.6690170068856638
 10.9310151363377077 62.1614440981135203 13.8225275758049797
 12.5156325417298717  0.2629230860752106 16.3943817102053941
 10.7303455883957888 58.8827841100226621 17.2218698596759268
 -16.2173117839163545 50.3039347955744276 13.7884396526466073
 -1.1124480973505788 56.8918656300975130 14.1505142308551584
 -1.1211092090003039 56.9462631417450211 17.5095051860255211
 -16.7794352373084976 47.1153275395326290 17.2257572236360303
 -0.7442044148937370 60.2069580574187526 14.1089424777998484
 -0.7462113087993880 60.2324181554715139 17.4676449841771202
 -16.6148909677939081 47.0071541536976625 13.8730874078457003
 68.0553319523245079  5.5679198904661860 12.7415268571699496
 68.1393447884539967  5.4550743993936770 16.0826670059500429
 -17.1577656498086881 43.8110126742473369 17.3054614638534119
 -3.8949757569730341  8.9090504713676300 12.8751547290420394
 -1.5003224847186505 53.6582545143290659 17.5745436797946724
 -17.0188773503723496 43.7139976737788487 13.9512230803364297
 -3.5106240087891836 12.2348094757258874 13.0558560076894725
 -3.4590812451952071 12.0302047138831814 16.3984522844738230
 -17.5344676116314808 40.5011880893502436 17.3711679306708184
 -3.1237896504019846 15.5463909376917826 13.2655074931410528
 -17.4269960455233175 40.4231458292457049 14.0156736660193140
 -3.0871851509904960 15.3211569974016690 16.6104056661044694
 -2.7356607842771106 18.8442252628611975 13.4881612730474671
 -2.7129908108535639 18.6152936578569985 16.8361334384159278
 -17.9092387122227166 37.1886589649890880 17.4193043829947882
 -17.8368528076837904 37.1327093842027764 14.0620530545755305
 -2.3453280776113208 22.1303487291881638 13.7080688413357166
 -3.8269628297910550  8.7411942392676050 16.2162772304291636
 -2.3350633244498540 21.9135819234231626 17.0590230652137542
 -16.3998586766629586 50.4141025734485382 17.1397936915172160
 -1.8863734172647646 50.3652015263273540 17.6500533001390387
 -16.0142952667216854 28.6044213697829832 14.0713932484583282
 -4.6084341744294814 27.3689083834516254 14.0178550979919070
 -4.6139278168799329 27.2073763321218784 17.3740253785680530
 55.9618591558154250 25.2479654774563862 17.3708301490242647
 -4.2105995210522531 30.6442294612694468 14.1655761636756630
 -4.2305329666829481 30.5160378779362382 17.5239044605563485
 55.9061174550133160 25.3132647644868847 14.0133747207710417
 -3.8138524110194685 33.9175620374468068 14.2797430962351264
 -3.8435543046449165 33.8255181522784127 17.6399565984314677
 -15.2724710895864426 60.2776660882291750 16.9636027403452339
 -3.4189956184420711 37.1897118378082752 14.3572972029865404
 -1.4857201051504410 53.5841634688808952 14.2144804608928297
 -3.4535745640509736 37.1358172074440134 17.7185890378601698
 -3.0267152978834146 40.4605421843201469 14.3952455960701329
 -3.0621661816994652 40.4474225005334205 17.7571333292987852
 -15.6443466432662657 56.9930391138631620 16.9952267350130057
 -15.4468304537464363 56.9214166594089335 13.6453445544877763
 -2.6363997071805993 43.7319273133351984 14.3932984372810004
 -2.6697092058213290 43.7576053891783516 17.7552683147978136
 -2.2485828661590932 47.0063328701058154 14.3551806727224278
 -16.0203144894652780 53.7061586348519455 17.0584136842824066
 -2.2770309079562421 47.0642790170973484 17.7164047174689543
 -15.8273526040061618 53.6074436982923359 13.7073921966748902
 -1.8646585724622839 50.2888328611101443 14.2896413195454191
 -15.0750150474635678 60.2445052257620048 13.6139869670321314
 -4.9935469382100539 23.9004501860185705 17.1951098933352284
 -18.2825960824641029 33.8745800029714914 17.4478891913859009
 -1.9536515621503536 25.2157661527714438 17.2649793636278872
  1.5595632231140011 54.9629351750510793 17.5445115294936897
 -18.8657186833331849 52.2745389906785860 13.5693401711805794
  1.8991845841664354 58.2067922886886251 14.1240948606626855
  1.9373020582495448 58.2506540750136992 17.4826315168896151
 -19.4406924554268663 49.0998940493900164 17.0183849316688800
  2.2652429320049916 61.5238040065197254 14.0881376272559979
  2.3115716715737835 61.5367783221567279 17.4465189413490407
 -19.2622616652360712 48.9686914314135251 13.6691384264235349
 70.3938268531313582  0.2160951361950308 12.5989861335374869
 70.4361091039749567  0.2104359648225219 15.9404179001092707
 -19.8175090466987278 45.7991239981202725 17.1244362584755265
 -19.0634101347580973 52.3941921564352597 16.9180248515078127
 -1.5640850030877740  3.5729585953746801 12.6377207939067180
 -1.5318836991990721  3.4940276573261912 15.9789369532338252
 -1.1878944007056838  6.9218950567153250 12.7457398228721210
 -1.1659690188380352  6.7788659237474089 16.0868170628328393
 -20.1934326839988714 42.4926005331454135 17.2265024766925947
 -0.8108248087613377 10.2563861042521740 12.9109866619578018
 -20.0730755644315835 42.3733129013321701 13.8734678047270865
 -0.7987652386616386 10.0648351609478777 16.2526980158997532
 -0.4325173640293107 13.5739377054224004 13.1153469296926968
 -0.4289218763999045 13.3528681554299133 16.4583008272728719
 -20.5679292129624116 39.1818099295227640 17.3158852269516963
 -20.4832849443088350 39.0810230742577431 13.9603670190410121
 -19.6655624704439944 45.6687099665695726 13.7737647868932189
 -1.9544602714217241 25.4085568253931662 13.9114903462935722
  1.5296808561960717 54.8956782211510728 14.1849871183241110
  1.1544045776126952 51.5945020949093731 14.2620627218788947
 -18.2476044091034382 33.8423940596445760 14.0895039840615439
 -1.5628573098162915 28.6819775536610244 14.0873898539765232
 -1.5680977780517480 28.5214152926201479 17.4439398848546610
 53.6764545458536162 30.5592612350299824 17.4558014112660835
 -1.1713788728904995 31.9523896947568780 14.2289669619413441
 -1.1788591863285929 31.8293352127289317 17.5881962464911545
 53.6721721520756816 30.5522665173552639 14.0969927619486697
 -0.7798435340748693 35.2216237653832138 14.3319611893040193
 -0.7866035405891311 35.1385528806500815 17.6929735731627495
 -17.9468134138746969 62.2506231912121208 16.7767665095989891
 -0.3894443872073698 38.4907369064602705 14.3939504619454208
  1.1762601219408793 51.6722719069470742 17.6223719019223566
 -0.3933912335243379 38.4493576854364036 17.7558969765430845
 -0.0000554694700919 41.7599071839872664 14.4137628210300335
  0.0007661918705759 41.7606280865799278 17.7761881542389943
 -18.3162768400108575 58.9676220655220789 16.7857850142187814
 -18.1007772233258351 58.9127758739769405 13.4384492068299810
  0.3880256038927788 45.0307874283826663 14.3933767623464135
  0.3952488148059208 45.0697328283097463 17.7552555384064661
 -9.7819462190888906 56.2538227185658783 13.9551671843702483
  0.7733489594137269 48.3071850160412026 14.3384527172571055
 -18.6878857237339275 55.6824960161527400 16.8361010824201607
  0.7876513838281433 48.3745274062780268 17.6993977366859561
 -18.4783098299648572 55.5890542815092985 13.4880258069225984
 -17.7305797089125150 62.2427501122695190 13.4295244769856978
 -5.0071592705937054 24.0894525656903440 13.8417295400667353
 -15.9979741307839909 28.5629551932977073 17.4299449651172189
 -5.3700147493156107 20.5958803199579634 16.9947704802243464
 -8.7869776966369564 41.1337178949827020 17.6443954707913342
 -12.1397154450275231 36.5187846484019758 14.1882909948310676
 -8.2996540351100130 44.3991320838643233 14.2706824696335470
 -8.3994843221793474 44.4422996694795245 17.6307278839183219
 -12.5908546621677644 33.1966919297278764 17.5117354819982509
 -7.9083333377521239 47.6784215338775610 14.2279266986961499
 -8.0105450705780736 47.7471454092795113 17.5871917050541811
 -12.5475044079108091 33.2326958399378611 14.1526862816322136
 -7.5221883820091762 50.9648336032256779 14.1640132870454600
 -7.6225754646518435 51.0463353607376291 17.5223425255964287
 -12.9673701645536426 29.8818102297638859 17.4510103928070635
 -12.2131629309538567 36.5099014083951516 17.5480174891887728
 -7.1416700642851438 54.2626988948704252 14.0950445089802692
 -7.2384976629826570 54.3387253501988781 17.4530651836266557
 -6.7676316344782288 57.5724889829288031 14.0398345288323849
 -6.8609072109192768 57.6263073098474052 17.3970087770150599
 -13.3415539664603315 26.5671956533607627 17.3670233480784120
 -6.3987988281869770 60.8902048353359291 14.0104871047851685
 -13.3671654339847503 26.6559753103735950 14.0098537539305550
 -6.4875481651529485 60.9106368096766815 17.3676828014900870
 63.0605020712883757 12.8565842273653672 13.2483846568571924
 63.1884975128123116 12.6769613479797219 16.5934835949869921
 58.6181365758565960 23.2540282270417293 17.2634816083919702
 58.5539967659116485 23.3642615353759737 13.9080357301283897
 -12.9568062499752088 29.9452281606550379 14.0927165003836201
 -8.8718343353153593 16.1658970366096391 13.4260551223270408
 -8.6947610438621830 41.1220340195501564 14.2841222165712161
 -9.0937316034068942 37.8437861124467858 14.2657289549848105
 -9.9168208602856200 56.3215267965126074 17.3105393267057899
 -10.1598626551831579 52.9473553511858768 14.0167555633569805
 -9.4110552639507610 59.5704375985866648 13.9162362126942760
 -9.5424601136088523 59.6068972332620888 17.2711523899805997
 -10.6811033189827107 49.7379454976071571 17.4429460708166424
 60.7977445637283367 18.1197932237322519 13.6176672974509785
 60.9027308144133741 17.9549496920914038 16.9674530331656896
 -10.5450189204609845 49.6530176174642293 14.0863290609462108
 -11.1267300078492699 21.4152156975168246 13.7724806473268337
 -11.0577393940485802 21.2627958589345845 17.1247705437636917
 -11.0670570116509932 46.4371289903557454 17.5041682422534777
 -9.1716072285062467 37.8231168681650232 17.6260806415164915
 -10.7179128186827786 24.7069943011095674 13.9155803474597146
 -10.9363918164282357 46.3671148925272050 14.1465191517970208
 -10.3096894452717809 27.9950349331495865 14.0406225610624471
 -10.3103628669183731 27.8859308833310173 17.3976611592194246
 -11.4521028808115002 43.1310768331158627 17.5445073810975671
 -11.3333548341488992 43.0852135348137963 14.1859634787033944
 -9.9025009412944929 31.2797503912829349 14.1419150568258605
 -9.9331077436490087 31.1995931945060434 17.5010632868292184
 -9.4966828928023101 34.5627610307216528 14.2173362153165321
 -11.8342211541653839 39.8214157644447795 17.5590888366551354
 -9.5535066769435222 34.5120441474175550 17.5775407090037099
 -11.7347408786361704 39.8031188427768043 14.1998913342509692
 -10.6849134520307985 24.5735144928057743 17.2705585584220742
 -8.7724042562076185 15.9734469945484996 16.7732041015845539
 -12.2232118602031878 61.5849870665135626 17.1270665845161716
 -8.4693668795135242 19.4647713992545235 13.6119998016416179
 -13.9727471655249378 45.0462512463312024 14.0478521836152002
 -4.5031422191145145 52.2743411786665817 14.2073984603106016
 -4.5613419182638220 52.3531910690400295 17.5671513720374790
 -14.4965611520674678 41.8178387836579546 17.4518339286613262
 -4.1262921626731375 55.5771385829469367 14.1400971656532715
 -4.1795183536876639 55.6429726084799938 17.4991042922809186
 -14.3760980145871216 41.7593249244401221 14.0948922010920512
 -3.7551318730960421 58.8899680087993289 14.0918861536689661
 -3.8039654159122875 58.9294380386873087 17.4500034219597921
 -14.8738320796483041 38.5065403913386035 17.4791939726384911
 -3.3877380993102322 62.2084236108386293 14.0719124139255474
 -4.9494095518444645 49.0566556237222358 17.6379602080273123
 -14.7829796066265864 38.4720101613818670 14.1213662413691683
 65.7417906720379221 10.8866608287437998 13.0480524921854641
 65.8450998416582678 10.7072501630357007 16.3905221915583788
 -15.2494863746227463 35.1933004258869957 17.4850959582355472
 -6.1977809755329796 14.2049335127143550 13.2323177613533041
 -15.1918172303303489 35.1837100050322178 14.1267049774193882
 -6.1164479374371634 13.9990718285304752 16.5772194167133122
 -5.8027333357678508 17.5099737280320973 13.4370561547415708
 -5.7440691578787320 17.2948234240658394 16.7842546235101580
 -15.6243852772957883 31.8784979978615759 17.4686641945945560
 -15.6024912324446188 31.8944229784605753 14.1099690130101862
 -5.4056034676622815 20.8037943431915551 13.6450437937421984
 -3.4309312696980223 62.2133236148525626 17.4304779945769077
 -14.1164208057624752 45.1254873999338812 17.4038635644850785
 -4.8854591540963126 48.9844242204511602 14.2778313222603828
 -5.3403505019929733 45.7531293413160682 17.6919267231209751
 -8.4009369341177944 19.2756833360056881 16.9614107993724801
 -12.0574680069790396 61.5705182327140577 13.7747416101434119
 -8.0652212291397660 22.7568185011632025 13.7917377562565715
 -8.0276960549778753 22.5824816590724318 17.1440703197602105
 -12.5951864114673953 58.3012275720955202 17.1446342309860711
 -7.6605876723512836 26.0436337388889108 13.9557287251282141
 -7.6522055617129725 25.8918519631443047 17.3111211021843587
 -12.4261024908151594 58.2481940802179352 13.7922906004872914
 -7.2566055488224785 29.3254604568040023 14.0964570734461994
 -7.2741146225017479 29.2026726394689362 17.4546256347670514
 -12.9705988763779807 55.0148419204428833 17.1946137380472130
 -6.8541233959172958 32.6043226128670582 14.2095854505082535
 -6.8929173125844159 32.5136582404302743 17.5694096352603211
 -12.8004420290640848 54.9329252826124588 13.8413818037880798
 -6.4536548033334027 35.8816664233214908 14.2925299948478965
 -6.5082642080800248 35.8240575117482720 17.6529683544580855
 -13.3511839478309806 51.7246781200412826 17.2642854928745493
 -13.1839817007754494 51.6292160954262229 13.9105274685215079
 -6.0565007610828721 39.1566374186113606 14.3416887170556020
 -6.1208225143117083 39.1349066620445001 17.7026807277130658
 -5.6630598261383556 42.4300017622741024 14.3540318814854384
 -13.7341877849440763 48.4280202757919014 17.3384251476975990
 -5.7312449727798427 42.4454390171967475 17.7153181791359700
 -13.5750867902817269 48.3351499246590421 13.9838232748782900
 -5.2724716429350984 45.7046481433885319 14.3309672308585547
 -0.0524259683124256 16.8768289997252587 13.3404048482409490
 -0.0553987881958099 16.6422154278928929 16.6862085067327257
 -10.2963705729067634 53.0324791374064759 17.3730337491738922
 51.3910621763807285 35.8693419274785157 17.3887849100411742
  3.3900148129073648 21.4743502246319871 13.6712213064688051
 -30.4490050257035598 53.6901633281437540 16.2747047577880117
  6.8037826189027042 25.8767124630188263 17.3071840147353413
  3.3644012154756795 21.2548270840432920 17.0204817733089406
 -24.7596974142136581 53.0482666232550031 16.5596290690897874
  6.8188266128020363 26.0444118674976259 13.9529239670142804
  3.7648975359820809 24.7477898404102916 13.8746459042262078
  3.7527051847309698 24.5518707730053727 17.2272371345681705
 -24.1934637171156766 56.2302207364746565 13.1146029942878339
 -24.5807566006686677 52.9026378610359274 13.2155216648944656
 -29.9546467268526477 56.8638577254136379 12.8114759363376400
  4.1445587292787849 27.8530564648211438 17.4046439566818520
 -25.1343564754851769 49.7575748469839567 16.6953756177391455
  6.4115928319186963 22.5792104816996151 17.1272990553828492
  6.4496457087600652 22.7749745430002690 13.7764957995229658
  4.5197846508802320 31.2825136888021120 14.1857478230272527
  4.5398966648460624 31.1576085759519010 17.5442362333282915
 -30.0803048776021278 56.9762344532422418 16.1526847846021937
  4.1415909642275262 28.0163400276870362 14.0486769156075013
  2.9811805275764978 17.9622169083100580 16.7941574225166725
  3.0160788797246250 18.1940572329639458 13.4478879259987671
 -24.3876724308331703 56.3355745323743804 16.4574255028722547
  1.4947488028487252  4.8188011740088976 16.0167902834737639
  7.9394053898559518 35.8426136981399281 14.2634277424953879
 48.7339406628161669 37.8614380670545856 17.2943192059012674
 41.6047924657371055 50.2014695178595218 13.0987432287826717
  1.8998820842104902  8.2680031452361735 12.8141802042554822
 41.5117009444455149 50.4014870614569546 16.4415447590410686
 48.7889847780002910 37.7366253439773089 13.9390551319379448
  1.8624529231979896  8.1028376602435568 16.1551855731924228
  7.5973183267650848 32.4817215070709224 17.5580822282805613
  2.2707548420915380 11.5935465993021793 13.0012469347722508
  4.1570835930270960  2.8604337649971439 16.0162384748503186
  7.5630462286068472 32.5758202847229938 14.1988099105567436
 -24.0184285236235091 59.6208521581884057 16.3998614473793616
 -23.8148234089670900 59.5656671277887710 13.0572395049422383
  2.6427947040462758 14.9017774084949295 13.2182072240047432
 -30.3384615085350760 53.5262033106899153 12.9336331447655475
  2.6040891247354105 14.6742119769019901 16.5624781469476794
  7.1994641497349701 29.1780388374164943 17.4522552796125545
  7.1898805603511127 29.3102232103746978 14.0951677926614103
 -24.9773902488895736 49.5848358491589849 13.3500483620612158
  1.5283877422946799  4.9261949845587738 12.6757729741070229
  4.9005719351124402 34.5491075396084071 14.2829645780452026
  4.9373895421158416 34.4640736833992278 17.6432575837050472
 44.2855463055306089 48.2351605058450019 13.2966699201632110
 -27.0507293069905970 58.2997459568841307 16.2522416074855194
 44.1670357292671056 48.4343411073837018 16.6416226834417849
  7.1859942125221785 54.2120293054176940 14.0899720724385080
  4.8929206355375205  9.4265003758728643 16.2796045480853664
  7.2977979567099283 54.2865966415023067 17.4467147042649202
 -26.8777564188019475 58.2170921024179577 12.9105425258723869
  4.9820338900590269  9.6039231736628690 12.9385122422057197
  6.9131179945999532 50.9935677055181387 17.5393665207810834
  7.5541721086557381 57.5227972399861542 14.0112972305613308
 -27.4194749444233992 55.0141034061530405 16.3403794951730958
  7.9197544137938642 60.8409928706960699 13.9571831142289859
  4.5242321342232685  6.1429817754046301 16.1200687865886074
 -27.2598494787206036 54.8794323226485332 12.9984632278905856
  8.0502416024674055 60.8623899981495740 17.3126652460154133
 -27.6500470233633386 51.5516744711615615 13.1313140603686644
  4.6156470775192258  6.2712435247367235 12.7791626401215535
  4.2471592341633366  2.9253322726705964 12.6751786691748194
  7.6764029232372479 57.5757172197535780 17.3668101619568134
  6.8131689016539863 50.9134951180645743 14.1808996681570765
  5.3474663541192449 12.9193124137773623 13.1359265462524437
 -26.5029682392219001 61.5617551710966353 12.8775256412499317
 -25.5086737886230068 46.4612071686390280 16.8511642882060997
 -25.3798864289987698 46.2769048592791350 13.5041522142582213
  5.2833094596478825 37.8164298436026485 14.3396366426044075
  6.0815844899167377 19.5002801001764325 13.5737482331432986
  5.3356237983653436 37.7722956374810579 17.7005883850489347
 -29.5769990498226498 60.2110693541151889 12.7458707493737649
  5.6676749777302353 41.0839128500177537 14.3543702622545482
  5.6415827051637049 15.9953818564734629 16.6996107854554303
 46.4497535537344604 43.1583433804607211 17.0125033580919585
  5.7331149295183614 41.0815750464926666 17.7156239771400301
 46.5460575318451504 42.9773905572891692 13.6629008579973839
  6.0521919909214956 44.3536295418295623 14.3281507535871544
  5.7142826644244886 16.2170472809376314 13.3542623716299964
  6.1291759893870621 44.3899780805405300 17.6891151522749190
 -29.7130876541821358 60.2608071827053919 16.0870665233985974
  5.2650395550167071 12.7104917807879776 16.4789643857068242
  6.4348440860881473 47.6285903389508221 14.2662375060381024
 -26.6829610388401939 61.5837989756446689 16.2186942449301625
  6.5232330232674576 47.6945517981956471 17.6262337274096872
  6.0234199598515978 19.2850527220921393 16.9213435363983535
  7.9968439056192739 35.7866555112719595 17.6238033064163524
  2.2314806150529813 11.3881289200483344 16.3431814129796997
  9.4571508760372023 48.9285345865854779 14.1409222868329820
  9.8309197840350269 52.2190034535135865 14.0420589345463931
  2.2515291411691143 36.5205048461255899 14.3536216568363084
 39.2236621875004090 55.6512494895748731 16.1151004631326948
  2.2737305174604057 36.4541202141729386 17.7149040207173698
 -21.7255180965423023 54.3674821493567322 16.6850730732155199
 -21.5229472525052010 54.2492745583042435 13.3393932148485455
  9.5843040742428958 49.0072340894900336 17.4984586341407784
  2.6386833303438357 39.7882702010596390 14.3941156678524500
  2.6695638233673660 39.7646883955866457 17.7560303753396447
  3.0259785818656018 43.0568797423764167 14.3919636186735467
 -22.1006370023767680 51.0778195693263797 16.7916722245904744
  3.0655414720955929 43.0748694789715429 17.7538973035636261
 -32.6629653061319090 58.8568199872949762 12.6735886114284551
  9.1909245970929891 45.7054896494579168 17.5826221891902819
 -21.9161456598127096 50.9328940219889645 13.4452910134951065
  3.4117565093470943 46.3293900403987422 14.3508502081725986
  3.4600055021490124 46.3820769203994843 17.7121065970535412
 -21.1401302418251937 57.5747222203115996 13.2661099300378620
  1.8780965828661280 33.1449878567758560 17.6307232716767324
  1.8644965407501106 33.2528531052942071 14.2707449971247833
  9.9725901377188126 52.3036911605056360 17.3978483035295568
 36.9506356908313620 60.8558435011304866 12.5996363591485707
  0.3286139227501832 20.1652220165444156 13.5706078375778691
  0.3225686539252005 19.9341183554611696 16.9191727154164191
 51.4377363162390964 35.7895953015624855 14.0313639736439502
  0.7106900394318448 23.4439570114206397 13.7896026249806170
 10.5660766275768516 58.8394692066097136 13.8688523807322550
 36.9307936383007984 60.8948186257696449 15.9409142978963629
  0.7059355885490268 23.2310611212044869 17.1408949201957093
 -32.7405869639803271 58.9366877050314599 16.0147878907909984
 -20.9845975776076656 60.9378179106096098 16.5799061970866255
  1.0930985346270301 26.5325054129603437 17.3392326543242987
 10.3545856035566377 55.5947423228819773 17.2998900773804039
 10.2000792410316468 55.5237172321048646 13.9457292695434329
 -20.7655519194185239 60.9076001957032460 13.2348668368427962
  1.4787959127090553 29.9855207467119591 14.1470724119473754
 39.2905464997082774 55.5104507634473308 12.7742229424224742
  1.4839401569626995 29.8376779974102710 17.5046772596277691
 -21.3538579100886601 57.6536093931606572 16.6110324459481689
  1.0941363529041206 26.7165999554812181 13.9848301530817505
  9.0790736493969018 45.6497863930014915 14.2234302456954254
 -27.7910148580509073 51.7260541937223337 16.4744074976629058
  4.6189620652296961 56.2688993119265675 17.4752988629951034
  4.2378475985984059 52.9790720951701530 17.5547955488597545
  4.9950503381278235 59.5564981036586261 17.4163529881663308
  4.1712719341399334 52.9023811502689654 14.1955277070979182
 -32.3747037634266661 62.2200243547027370 15.9798444234518850
  8.6988153214545161 42.3785671510796362 14.2752023418060876
 -22.8512331018753336 44.4795823068415359 17.0503835229881240
  8.3183973936944433 39.1102026068373618 14.2890843999224106
  8.3964972928060835 39.0926078196040905 17.6494353829211406
  4.5424931842943890 56.2084070772245141 14.1174769785617542
 -32.2891217619011002 62.2117331207278070 12.6387127868190206
  8.7945403285510881 42.3997278798847859 17.6353721191731694
  4.9093390088956959 59.5230713598955958 14.0592207678145833
 -22.3176127180120787 47.6248689757015526 13.5701411770100737
  1.1565257525834545  1.5730105534331451 12.6009546823781857
  3.8512257230712703 49.6840043136318741 17.6401302019801989
 -22.7236577905627435 44.3239971448177670 13.7004164436804086
 -22.4763639230903962 47.7821004362334918 16.9177716705693051
 -23.1324098547298114 41.0285467866469844 13.8258044165285092
  1.1292836176965699  1.5357794466556283 15.9424044657742101
  3.7941088429827783 49.6096490493175182 14.2798976183695618
 -23.2252237093100504 41.1720563860233426 17.1785855681593276
 38.8078976401436151 10.5514681284738234 15.8987616510805374
 -11.0613785493166805 29.7000883776221549 15.7738035262833804
 -10.9867410882471308 54.7487944572158654 15.6181930487025973
 62.3664648651000206 14.5258353282198609 15.0445185917145761
 40.4131549725631842 48.7562825236629607 14.8315191918825811
 42.6945240671763813 43.4915006374240463 15.2181511548529027
 -33.4742920364739902 60.6625142496334675 14.2852330760850368
 -9.8851483777181688 39.5923137935657223 15.9368193480288127
 40.0300576571597446 45.4575019824487043 15.0414871918117470
 60.0965886865709820 19.7963820481545234 15.4016259191202511
 59.7071472867776052 16.4938645097735339 15.2521388644864562
 -11.3689567634505586 51.4534896764833007 15.6872896880986108
 -8.7144326711952349 49.4708123278676979 15.8460988603674444
 -26.2001960753167431 48.1264223061797836 15.0496933466767562
 39.5758561086331326 17.1388575153389304 16.0247657612499985
 -30.4165431322430777 62.0014628069927767 14.3597092564007234
 40.7234542116860254  1.9620739326980958 15.7302368910057986
 39.6451790915859519 42.1620168463910119 15.2577373119785484
 59.3198260331132303 13.1905784965149913 15.1050461770861570
 39.1896399153451540 13.8464219107996982 15.9706946594653196
 43.0814749261497738 46.7905837944258636 15.0213716711323446
 67.3275406778181349  7.2756392302162558 14.4916875564381993
 66.9545997517771525  3.9593596705858634 14.3892974237900120
 39.9648968887359004 20.4307502524860816 16.0457681688211409
 61.6009775537566355  7.9118426503436261 14.7516818365778413
 -11.8447807249972055 23.0983767534117597 15.5424526876768088
 41.1362182444212650 30.3097813961663860 15.8734014443495930
 -28.4829720587073467 53.3981987262365649 14.6783647239277872
 40.7455273047322279 27.0164188022937495 15.9683702521003550
 64.6503297556601808  9.2493399309921749 14.6717874382018838
 -30.7870798722635257 58.6837718843062035 14.3945066659029628
 66.5840891187663004  0.6403032820202281 14.3542415567122053
 61.2255763317460904  4.5992754703497072 14.6684949487264600
 41.5270999710517117 33.6037744798311522 15.7462885262811003
 37.6903219535739069  0.6503459264798696 15.7709745560342682
 63.9015514877684794  2.6208367184314012 14.4875716280806870
 61.9814734479940626 11.2208481561959097 14.8816443232755518
 -10.2404151877408136 61.3498488600504501 15.5441892620752160
 -10.2768197877112897 36.2965989546814427 15.9089381795918996
 -11.4534525102960103 26.3996314139929567 15.6683672720095135
 -9.4938988119968766 42.8862885921782038 15.9350516315965400
 40.3548568712172298 23.7232215643375532 16.0272881394746989
 38.4317510729715011  7.2533534779428210 15.8323665747649844
 41.9171711776210856 36.8984526270366828 15.5907230502516541
 60.8539420604631189  1.2844489383937276 14.6407893698467735
 -31.1611518118526334 55.3695850341026556 14.4925766567300212
 40.7935199699619915 52.0600372668002294 14.6434347828461036
 -10.6111399119233170 58.0478656934143160 15.5660412720226251
 43.4668608512491730 50.0923251083540961 14.8363682602526232
 42.3065012465040056 40.1942576455499747 15.4116564147751198
 38.0600882303331929  3.9523636511175910 15.7869797587111869
 64.2739219592285309  5.9365197023386909 14.5507249879776364
 -27.7329337281508685 60.0217143823150963 14.4982305590623515
 -9.1032628258517416 46.1787291747967856 15.9032313940970234
 -28.1058210254217400 56.7082312886112305 14.5618218855578245
 -10.6689003124572110 32.9991278402165094 15.8542660037238754
 -14.1054232205234360 28.3718052783182770 15.7386658719139838
 -11.7559250517822775 48.1598746391244745 15.7566773739775705
 52.1133364401972585  0.6144387101730845 15.2154300072214426
 -16.3081332183426539 58.7177319490885878 15.2372218852755079
 47.1619342833368265  7.8911503638188929 15.5909600771530368
 52.4827362661140882  3.9215962007075227 15.2162843844610549
 -15.9380982160705571 62.0225324176434754 15.2258328984691964
 46.7883662233124369  4.5894015464497553 15.5468336750291023
 -20.8853780551366093 44.1915129348372773 15.4577469648582362
 46.4184425358807005  1.2856967193027808 15.5343110834594142
 52.8560393490054423  7.2271291582039190 15.2576178478385192
 -16.7568034207777856 30.3441748627715100 15.7741122193979528
 48.0093022588538503 39.5575503417399403 15.5367418979440206
 47.5413310877553741 11.1899763243320027 15.6550207334494509
 -21.2772841420002869 40.8903221106371930 15.5639117919685450
 53.2354072883375338 10.5298451324825884 15.3311390195428956
 47.6178244207045864 36.2569849258958214 15.6554330993372108
 53.6201076892870958 13.8315695343283149 15.4229504480940314
 47.2260897396352277 32.9567294111943667 15.7548025844381634
 -15.9721047728328855 36.9483055510738652 15.7852110230105946
 50.6628711889906285 37.5886846981560083 15.6555682032665153
 46.8343789478402783 29.6568151638591537 15.8302956516866455
 54.0082976055380968 17.1333299126195335 15.5188263105348536
 -15.5801413288052615 40.2485389864956247 15.7591035400215365
 46.4429922596778795 26.3575192799631779 15.8814764062339329
 -22.0111126586318449 59.3757719399149906 14.8479102417123556
 -16.3641975786196880 33.6468093195234985 15.7904493968543136
 54.3991359951717541 20.4353507367832847 15.6076186858220751
 -20.4947908336840108 47.4921394364695431 15.3439844785822963
 47.9260082706223969 14.4872909318563767 15.7234798107176950
 50.1975151425166430  9.2081941285090849 15.4665015990505594
 50.5799720032065210 12.5077681185123062 15.5408418415501917
 49.8213559849053880  5.9061359281289993 15.4107406676030561
 -18.6246395973889065 38.9201410922167668 15.6925787682871309
 -18.9727666400233410 60.7014734047666948 15.0336970135668828
 50.9665567554163488 15.8073449408679139 15.6182430028380494
 49.4501427296927858  2.6016149670801916 15.3860703792075544
 -18.2323256550863597 42.2212819122382328 15.6257555790766123
 50.2711084990378723 34.2871214060398017 15.7308970760277358
 51.3562739168745495 19.1072849949932078 15.6862398194832018
 -19.3445910024358945 57.3954440378556612 15.0647081958702138
 52.9234352652753870 32.3161533567873107 15.7714741638943590
 49.8788789462548792 30.9854039408944608 15.7861657211521962
 51.7473625936021335 22.4085628274963824 15.7375186488305943
 49.4868246122862345 27.6836612908365964 15.8189312807778819
 -17.4508888012050001 48.8191112645115055 15.4530425949005057
 -19.7223919558696039 54.0926722187540889 15.1345404152358984
 49.0952115055229186 24.3825658018582772 15.8290052769861873
 52.1389451315677590 25.7106665710006972 15.7694306646793869
 48.7043911625379522 21.0827026249129439 15.8162718821080635
 -17.0646511890870158 52.1170216231798236 15.3629963801706637
 52.5310811133449747 29.0133609727647759 15.7810135376666185
 48.3142033128918627 17.7842827048492218 15.7803729822934873
 -20.1065756482927327 50.7922051656967781 15.2323223041060505
 -17.8405011622789864 45.5208003379251522 15.5434758194230387
 41.0938463958553939  5.2643860959019326 15.7554906162626018
 46.0518773006521442 23.0592519921735715 15.9070377409652099
 45.6616765802635953 19.7626423637514215 15.9035785304153841
 44.5723967771657641 34.9277620804391375 15.6890077945605846
 57.0518429162066170 18.4638380519482652 15.4431995435301541
 44.1812386496597682 31.6301105102715354 15.8060125411431702
 -13.7127601683066036 31.6738002298998751 15.8005237432455274
 -24.6839283067042352 61.3561634860474712 14.6526676729514733
 57.4429473084543503 21.7663634070533263 15.5567445437189189
 43.7900607367491475 28.3332635146747407 15.8962239129425082
 -13.3199868527027032 34.9746846041703776 15.8389146432986188
 43.3990261976393512 25.0371856933386390 15.9580108500262465
 21.6471647893178378 62.5940467494545629 14.8321180669731039
 43.0085527481515300 21.7423870665934444 15.9866096179095756
 -19.0164543452115744 35.6184122459394530 15.7415555764300894
 -25.0556484532783905 58.0441241548912501 14.6858296414067109
 58.1828341048837387  3.2653364532683358 14.8297766588385276
 42.6189112851261100 18.4488738381580539 15.9791899602809959
 -12.5367199518316532 41.5711110936602353 15.8450353299551896
 -25.4316851561317989 54.7348202033400426 14.7694917677367421
 42.2310517465331259 15.1558967260922888 15.9390823304637586
 58.5565224068992691  6.5766945539607482 14.8795740104399279
 41.8468256991131540 11.8614982383606460 15.8753496695194762
 -12.1457839864428596 44.8663090277273611 15.8120153801230980
 58.9354054427498326  9.8852084661891819 14.9751532043390316
 41.4674534570138036  8.5645334439288270 15.8076698960159234
 -25.8138304885722611 51.4293199943665797 14.8947462168030107
 -12.9280791970830649 38.2737309813963904 15.8536649680392880
 -15.1884257541834042 43.5471785296010836 15.7130379317939504
 -23.9312221196822499 42.8586604284043702 15.4038071108014289
 44.9631871297962107 38.2259032409581749 15.5478533766362848
 54.7910416594652503 23.7380816401976382 15.6810468621482499
 -14.7976670705584716 46.8438055710158139 15.6493625637684222
 -22.3853292987415102 56.0679599423871480 14.9032379016755918
 45.2725221701333069 16.4678029107768218 15.8710460293114988
 55.1829239686480193 27.0410774672685292 15.7369796234502584
 44.8861610216955782 13.1728325645637092 15.8144061900875972
 -14.4094218266400524 50.1394010199632874 15.5741621680894919
 -22.7659141316282643 52.7636369064860631 14.9987718881058889
 44.5040839315467167  9.8762998857212576 15.7476086851290464
 55.1463894986274852  1.9371008842793662 15.0184898809900673
 -14.0250060927537223 53.4351434147477278 15.4977875161160288
 56.6624783069229210 15.1610112110614796 15.3219397973964657
 44.1277267093123555  6.5770884515556922 15.6895532285181147
 43.7559759340911967  3.2749554523640363 15.6545914366385439
 -23.1520671298284952 49.4614157889644304 15.1232488621692180
 -13.6462159781893160 56.7331745538997865 15.4355935691767012
 55.8937236824220349  8.5531270239550423 15.1058287749643849
  7.2207135106265223 62.6133023245567628 15.6533637577965639
 -13.2738539243128635 60.0352781818944123 15.4016176124209867
 45.7433903304171636 44.8252152056419106 15.2190242137734923
 -23.5409073216533216 46.1599010698914114 15.2627376910502370
 56.2760926280460296 11.8577188965592768 15.2049097118334178
 45.3540372260548494 41.5250941719334108 15.3883878084061436
 57.8346348487334510 25.0691401634518130 15.6560999341103511
 55.5174873304306331  5.2460230294201082 15.0406179756980318
 -16.6831228995832745 55.4156133244032958 15.2862392809630592
 31.9978815942128136 26.3755493325023238 15.9883672984497789
 39.2588528667090486 38.8689084081544038 15.4660284677351303
  6.1038147180999704 52.7128074055056430 15.8400984727213334
 17.5617091761721298  1.3674121157631773 15.0492575301909017
 17.9284413010420103  4.6735554929338425 15.1117160821681562
  5.7220055174899862 49.4197792437293586 15.9303109428291076
 18.2958387721998292  7.9757617783528101 15.2127349941153334
  5.3353283710893180 46.1295082899925504 16.0055814175327065
 18.6665765038055333 11.2726954560691972 15.3394224030262620
 19.0408295292659133 14.5643661542287433 15.4744702142502852
  4.9455080642837226 42.8401952416105658 16.0498616296862799
 19.4184666928351106 17.8517209471076441 15.5978893173587831
  4.5542655176556073 39.5512960445463619 16.0542587438076438
 19.7979076316422606 21.1364606791044523 15.6948091786742250
 20.1781991964307039 24.4201516850010094 15.7587425898175031
  4.1631085237610561 36.2627815915572143 16.0155436327452776
 20.5590452780276642 27.7034718045664583 15.7880746692550282
 21.2796542069590764 59.2827611018892497 14.8883965744288531
  3.7724369731017640 32.9753290786127664 15.9344778319870493
  6.4800816842181588 56.0100628164908017 15.7545285220384557
 20.5411123371248188 52.6753187236751046 15.1254057316329718
 17.1242779098283364 23.1094206789434296 15.6600132349626673
 17.5036077270954635 26.3921481892132412 15.7335657586950255
  4.5342477667988330 14.5708597306488894 14.8986955258789404
 17.8841430987734782 29.6746229378267152 15.7720897478651541
  4.1639046097951180 11.2749316106645256 14.6825364261741260
 18.2658741583881259 32.9571801917463603 15.7728846594348937
 18.6482128852854245 36.2396280597104479 15.7358200542476983
  3.7958901744981199  7.9699071312089380 14.4968125765624034
 19.0302671816451223 39.5224104886912002 15.6637105532673022
  3.4277474835482051  4.6581075149817259 14.3599633751194578
 19.4108189810785312 42.8063272269843651 15.5594633232908492
 19.7900174559416229 46.0924439720872527 15.4273179198402133
  3.0597881405443452  1.3409061953797499 14.2861524427609652
 20.1674142535473706 49.3814417008706030 15.2771158766273594
  6.8517483015337275 59.3109117135139954 15.6889994365821561
 20.9116951000019746 55.9758831145745148 14.9906198356690279
  4.9075885783292792 17.8597695403175507 15.1267575320023457
 20.9406459990787965 30.9864845316981992 15.7811326787259727
  3.3836166084365811 29.6888565945565475 15.8123390277486493
  0.3686083736133988  3.3206940322828973 14.2861327274692176
 22.0854713925468502 15.8737398754352981 15.6616524528707313
  0.0001629411550416  0.0006043226973708 14.2463367056484973
 22.4668449669149304 19.1608493233526254 15.7527142310665003
 22.8490963227683253 22.4464503559599322 15.8110738148032404
  4.1882299892828483 61.3011780195409273 15.7395907400406880
 23.2316064311251615 25.7311332532838719 15.8336934675959284
  3.8179773001557002 57.9995851890749989 15.7820597787249852
 23.6142264569882876 29.0149414159521548 15.8204924939412077
 23.9967754216685236 32.2982804840410438 15.7693341608098017
  3.4440423349813880 54.7005116320528799 15.8497465644979414
 24.3790987490504492 35.5813674560346200 15.6795592457697683
  3.0647954619804660 51.4056413892470019 15.9326525707381119
 24.7606661998872788 38.8639440867124506 15.5536933659966703
 25.1397508825676965 42.1471657769219661 15.3968580419452064
 21.7073189264339277 12.5833459273089936 15.5482733428435260
 21.3225924047885478 34.2691843787474539 15.7357190547350090
 21.3336072324792028  9.2888135716425531 15.4304283814996825
 20.9636152694518216  5.9895110756302765 15.3285881406411004
 21.7044909040439506 37.5515527307820136 15.6532380380665739
  2.9971467588617808 26.4035300698116941 15.6503855832295216
 22.0849871525979147 40.8341623259339315 15.5376634295743425
 22.4631440171631738 44.1185973298219238 15.3932880879468161
  2.6132023271336031 23.1181804151167327 15.4545607066052089
 22.8393065112511593 47.4054322755070601 15.2274474871411964
  2.2322430145738479 19.8317868922640379 15.2342717859178371
 23.2123537472281214 50.6966031130529302 15.0546283010661401
 23.5830982045652569 53.9941497551096958 14.8939076614208119
  1.8546640582849663 16.5429773237659319 15.0009274615943102
 23.9515462474315406 57.2993451847987245 14.7618221290588032
  1.4805565096522697 13.2490842942361731 14.7716257539889284
 24.3191720323594787 60.6103763850293760 14.6730048104425332
 20.5957240345172892  2.6862292096846514 15.2572987958509874
  1.1085430952305662  9.9468756354264833 14.5638557899698302
  0.7384002904727591  6.6372094612864565 14.3960050486304638
 16.7461491711383168 19.8260646866293229 15.5540123232465515
  5.2844485580130893 21.1457248540732259 15.3468386065880686
 16.3697122079749597 16.5409742324727489 15.4191244333128026
  9.4844537269806715 32.3077324996274200 15.8525048311552901
 12.9227817029623147 36.9017616282582139 15.8507768340349351
  9.1002831174496013 29.0236579109792636 15.7595007338472737
 13.3088220586786949 40.1863686043252173 15.8287858881182935
 13.6945686436895997 43.4722188657203503 15.7713079655264128
  8.7181111195036998 25.7405030444285359 15.6277760189698043
 14.0792631872273493 46.7599285694899010 15.6806736058046337
  8.3382879784094541 22.4577973670754538 15.4612280451250026
 14.4611802133528702 50.0501755946744424 15.5665450355973487
 14.8380853312146002 53.3445540795224673 15.4454386516883080
  7.9612824867742145 19.1738227339597138 15.2671577260892555
 15.2106661189012780 56.6444831887865092 15.3373120511903416
  7.5879417228269643 15.8876129750044850 15.0548133635426939
 15.5796908158880552 59.9488627645647298 15.2574282961618248
 11.8504767714292427  2.0279293708819224 14.6770222646572694
 12.5374864242699573 33.6179909668042640 15.8369154001979879
  7.2178771519939415 12.5968652416874463 14.8420448579501656
 12.1542476157748798 30.3344461737771240 15.7849301604958594
 11.7729534208785100 27.0514802444853508 15.6941719112229912
 12.9156784296538731 61.9375923920951763 15.4000417652715171
 12.1761873715302205 55.3314511825923177 15.5372781561674564
  8.8027463126305125  0.6964065894967822 14.4955114007450305
  9.1698213732608274  4.0102234823297991 14.5571284436601793
 11.8008223922746289 52.0345269556061467 15.6427091416273143
  9.5353717212992422  7.3187555079109714 14.6766550027337779
 11.4200986202479822 48.7420363455563930 15.7503895716190012
  9.9016632954577197 10.6205087542994114 14.8391380373012076
 10.2697900079996138 13.9140618663853104 15.0284509416124177
 11.0349086430121552 45.4524456177572063 15.8409727687893263
 10.6410633055565818 17.2019078950356779 15.2251332638678853
 10.6475356761796647 42.1644562477437148 15.9003549183367721
 11.0156189082700031 20.4864947763390184 15.4088112222140872
 11.3932343752261094 23.7690057986538577 15.5673631085194408
 10.2594224625708588 38.8778527386046093 15.9222689172493777
  9.8711602615318057 35.5923545150243896 15.9064152703550672
 12.2163593617753676  5.3372455782973320 14.7589259122309375
  6.8504627693894227  9.2979789097318211 14.6496839360686373
 12.5822541380683823  8.6413194554320096 14.8882735805778914
 17.5013659016070271 51.3610807209647717 15.3545610050113304
  7.6009011504271866 40.8578606563041475 15.9957358942806227
 17.8748062595766584 54.6581935072399148 15.2243070669206091
  7.2107160047390559 37.5701849842270121 15.9857360410816369
 18.2446077354937550 57.9613830605849998 15.1164837888145005
 18.6122814163223396 61.2688485968811563 15.0446675275521002
  6.8210195863132084 34.2835390497757970 15.9352537065967397
 14.5248163681140880  0.0442779501260393 14.8411607400797774
  6.4330955142304527 30.9979076584000346 15.8446417510202142
 14.8919033890129313  3.3533749882217658 14.8878465411182699
 15.2578609100232256  6.6590849622584152 14.9830136770222921
  6.0476640488019910 27.7135503652033997 15.7140590923972301
 15.6252532667908177  9.9590589399280116 15.1146967748753678
  5.6646926265014850 24.4299627807040167 15.5455013433622309
 15.9960609833201275 13.2524727943086500 15.2665965663357408
 17.1234767529847041 48.0693614011505375 15.4897707584030027
  7.9904511267507328 44.1461271216701689 15.9652267164547812
 16.7419168805441707 44.7812625910409139 15.6115780824164272
  8.3782771930652746 47.4352781547536679 15.8982009675423122
 12.9496699840125924 11.9381536114715221 15.0501113903234121
  6.4843132504454797  5.9906016129022994 14.4948719226507681
 13.3204139609959924 15.2285067079634207 15.2257886892981134
  6.1174025811296868  2.6776262400047210 14.3941506838167435
 13.6937981321782853 18.5147259382855225 15.3947088897230131
 14.0700330218309748 21.7982276727477604 15.5417105267904336
  9.8841254371250375 60.6231378143024031 15.5601293429907486
  2.6800086780333667 48.1138704870821101 16.0130684353194894
 14.4484024316322497 25.0807387000277870 15.6588389022564911
 14.8283202200740369 28.3630191237008979 15.7428197503940659
 15.2094394448863870 31.6456045207153736 15.7895855761619366
  9.1410176324041945 54.0213790194624437 15.7075028730653958
 15.5922463576373378 34.9285177386519123 15.7977847048666753
  8.7623295360162192 50.7265310889679455 15.8064345694752717
 15.9759365861999285 38.2117866978751977 15.7695559569378130
 16.3592854444896076 41.4957446578166866 15.7069480864136342
  9.5145059208014722 57.3206524435842795 15.6208315083658427
 25.5162896807844994 45.4323556476335852 15.2159132091672777
  2.2911642155046588 44.8237750109470596 16.0708388066693253
 25.8894737142268987 48.7212282975306721 15.0231626018684121
 -5.3651303200273484 29.0452680286217308 15.7775029225271766
 35.0545768548463528 52.6957034775114792 14.5487331768010097
 -5.7550209537295105 25.7517890231287971 15.6188743069774336
 35.4266450989558308 56.0056881930126309 14.3878938632960942
 35.7973706623569683 59.3220229741192853 14.2828265480626051
 -6.1436220118971550 22.4567923180655455 15.4355340805828316
 31.9920672391974783  1.3306153214750573 15.7386213637958239
 -6.5312366956437122 19.1593591093661892 15.2359538280384879
 32.3619536350267794  4.6319592458945422 15.7724058652998185
 32.7338044770095706  7.9318609140157292 15.8327571845628903
 -6.9167355340708996 15.8600925529078562 15.0311890087640680
 33.1095950063939881 11.2291053189151970 15.9110863514959497
 -7.3008229080975156 12.5572108413973069 14.8373379727678874
 33.4906238065477027 14.5232470374707923 15.9901913222123344
 33.8766189726172442 17.8149989153801087 16.0480245226684559
 34.6802926898230623 49.3932513770503689 14.7492246463582468
 -4.5432013563830989 60.6707212698327965 15.7386731176016141
 34.3040036550841805 46.0979803509357566 14.9724434985479000
 33.9251786511520805 42.8082151256276759 15.2023855220803981
 30.4497972753032222 13.2151362043487062 15.9083968876360409
 -2.6330382419573546 52.0859709568747604 15.9233643040626607
 30.8333246577936322 16.5072011785043884 15.9827894747737123
 31.2203515598626389 19.7975920353389476 16.0268344533431737
 -3.0183461850462296 48.7936660624005754 15.9970185880610742
 31.6089956961201999 23.0869557658403721 16.0297732464840301
 -3.4074163011403136 45.5028470256405626 16.0514730362564109
 12.5473229387061753 58.6331601969691008 15.4526073148907006
 32.3858990252370091 29.6629344459631064 15.9042381189891202
 -3.7980926772434764 42.2122753008370992 16.0730936686317918
 32.7731222158342703 32.9493569173192853 15.7800569035423468
 -4.1895022564038538 38.9210344577638025 16.0563754930479377
 33.1589674745351175 36.2349167640554128 15.6170767171495761
 33.5435701660547352 39.5209441318320245 15.4210409677825151
 -4.5816101148750761 35.6295367893940025 15.9994874846160862
 -4.9739526705271757 32.3378379220773340 15.9055061460360818
 34.2656518972679649 21.1054152012130771 16.0691913201314769
 -4.9146937141116478 57.3702482934131197 15.7725152098784420
 34.6554701163780976 24.3952448461711029 16.0465203436739010
 35.7702825415068091  9.2416265825247752 15.8846178240750628
 -8.4090908955524597 27.7260288925016347 15.7126098788614232
 36.1489015117296404 12.5377604797086875 15.9612877300388725
 -8.7998541224286448 24.4280347222423266 15.5659618889061679
 36.5327253220419692 15.8310433839722577 16.0296099428135292
 36.9207642090993460 19.1224371477564041 16.0687009952705893
 -9.1896281182084198 21.1285270688922751 15.3999987083924896
 37.3106182364041103 22.4132103503572182 16.0680520734444272
 -9.5785299100441801 17.8276165871210388 15.2225252509933355
 37.7007996460302053 25.7045725234746349 16.0238498197854966
 38.0907830366801576 28.9955812923547498 15.9377795445163422
 -7.5770242035992306 59.3601173560153441 15.6685081587191455
 38.4809567682789790 32.2862184132297685 15.8130662853059558
 -7.9502786152958222 56.0603714873515386 15.7115718129443369
 38.8707406691582094 35.5773613893083223 15.6540134045947852
 35.3966720854429084  5.9424729417550113 15.8213513218976125
 -8.0176878370289337 31.0224620946342959 15.8336296129871901
 35.0260657336443089  2.6411690897622160 15.7822871165859677
 -7.6257195376722695 34.3175902076338133 15.9261623167038824
 35.0449325855619946 27.6847639812882100 15.9794149776357717
 -5.2910484097476074 54.0729810189672833 15.8316960978165664
 35.4339973737240186 30.9735100362437485 15.8705553292786625
 -5.6734028726834200 50.7791457965894821 15.9035505106013044
 35.8227984020707595 34.2617954784259879 15.7224614075019389
 36.2099691218157957 37.5499349966918246 15.5395603890062439
 -6.0608565870371214 47.4871240337666407 15.9685728876488877
 -2.2534974843151323 55.3809745051915172 15.8518207395405941
 36.5951771036592106 40.8388772920956598 15.3298956605026877
 36.9780418757096143 44.1297602324913711 15.1049243483702345
 37.3585384086777594 47.4242545892390908 14.8791037832786088
 -6.8419320596315218 40.9042560889465463 16.0168163383393001
 37.7368661155382199 50.7244055451433411 14.6684785051026996
 -7.2335681576482642 37.6115278774826933 15.9884977614168804
 38.1126628900787665 54.0309780127682515 14.4882187484890324
 38.4865035996223099 57.3445637645230590 14.3560035995297763
 -6.4509195793915559 44.1958969394134300 16.0091291130007924
 -8.3295227771312526 52.7642594883346021 15.7760454719420355
 30.0716011695703571  9.9201887135353228 15.8214464207406120
 -1.8795637326481103 58.6798890612443245 15.7991018303203266
 25.8994895248825507 23.7563188669883374 15.9003097563590057
 26.2840603244470863 27.0420662287448046 15.8842487687333751
 -1.1971701038517659 15.2207453865296873 14.9036401859941243
 26.6683812475757378 30.3265015673671599 15.8302381169479354
 -1.5736606896815639 11.9205613174147675 14.6858118428156637
 27.0522122448965732 33.6103537689596337 15.7373655710983495
 27.4351921872891467 36.8933983795708826 15.6058408874188430
 -1.9476640279157247  8.6134769189477360 14.4974812063865652
 27.8163075771080450 40.1766881981551691 15.4398773483280216
 -2.3200733663701958  5.2993925324841546 14.3583056878482491
 28.1946831849070776 43.4612220017138711 15.2472436910763722
 28.5694396739526404 46.7484190207146924 15.0383130627610555
  1.1548013846601601 59.9897933379625599 15.7888293302661307
 28.9419131807540815 50.0403275942386969 14.8305281229493833
  0.7828999563057168 56.6895679294658379 15.8361276761085001
 -0.8182346020714838 18.5142826948852850 15.1352394849271885
 29.3121205125767332 53.3407218875972688 14.6431842107993404
 25.5147499867597674 20.4694760972510679 15.8787181006390767
 25.1306995578029415 17.1814818403049010 15.8194801103327869
 26.2605521257459387 52.0158680983622332 14.8377328436367559
  1.8999333313850035 41.5342363485314934 16.0928806291420550
 26.6294506290445909 55.3187999411838760 14.6771127905690406
  1.5082769836492473 38.2446482092926203 16.0728361289932948
 26.9973289873061333 58.6288766334034008 14.5554984232476006
 27.3656768776723922 61.9445212652007058 14.4889259583224046
  1.1167021365267071 34.9555784485712451 16.0093862284015351
 23.2610563255644713  0.6977138321383460 15.4051766858731494
  0.7254475107826364 31.6673164767095692 15.9037026939547275
 23.6293220475584853  4.0008525519777143 15.4484300342148000
 23.9988015238834436  7.3016808076177044 15.5253372500294056
  0.3360140896441922 28.3796916964899708 15.7575187595490256
 24.3715951855966466 10.5986484073813880 15.6250025808013824
 -0.0513891093298823 25.0919754731789411 15.5750314122114748
 24.7488215485483565 13.8917904702870274 15.7297974911025786
 -0.4361939447404787 21.8037815232644014 15.3640091825100153
 29.6806703577525894 56.6489545130218417 14.4909707699777446
  0.4063464190810693 53.3927451122292709 15.9054674473724393
 30.0487026104854067 59.9633093509428861 14.3897885051688448
 -3.0980175781068477 23.7771476692093628 15.4984397335717148
 30.8714383677725230 41.4909806613136070 15.3186865762897781
 31.2491672109112848 44.7776758473012180 15.1006499251631681
 -3.4838562227233476 20.4852208280283143 15.2864514235397593
 31.6242841923026532 48.0678517698152348 14.8769210527426434
 -3.8674738356774605 17.1905776507498338 15.0640366482153905
 31.9972360998563232 51.3650557247442237 14.6672284283723293
 32.3680446300062030 54.6706531563133851 14.4874396167517681
 -4.2492551060516366 13.8915135497314424 14.8463339223279451
 32.7370513117890809 57.9834305019860494 14.3542834659520722
 -4.6280278318581631 10.5867133708867271 14.6501294848646584
 33.1064019722139236 61.3008773213108640 14.2825911786694419
 -7.2075115724369443 62.6614997322842200 15.6579178579532918
 -1.5093291530532755 61.9808903987818027 15.7740599233888457
 29.3275583982112025  3.3215128175257660 15.6844933982855412
 30.4899491279509647 38.2061751171132045 15.5169751651730348
 -2.7101142255066208 27.0682155080854194 15.6882702307516837
 30.1064368434536789 34.9222675267638536 15.6857086284390732
 29.7215973383516996 31.6379479398318786 15.8168956189141490
  0.0239097768926663 50.0994870318228109 15.9850968583457682
 26.2939130069056439  2.0107913772078128 15.5603850283283869
 26.6631055113016586  5.3123530816037805 15.6126913504419580
 -0.3634492932133493 46.8084192386295896 16.0538065052870316
 27.0346382311323765  8.6113140774285473 15.6921963506339193
 -0.7536908346982975 43.5183523978861473 16.0930889804252111
 27.4102555328456781 11.9069716568077535 15.7863224047631530
 29.6980848390338750  6.6221460309904447 15.7421918965061849
 27.7907619981981249 15.1993519298774267 15.8761259946025444
 28.1755584684626399 18.4893700848698188 15.9425293561963990
 -1.5368316030107152 36.9377143860503594 16.0528142422291182
 28.5621160552478024 21.7782779921619536 15.9723538378010410
 28.9491203413732343 25.0661560588796775 15.9611096413521043
 -1.9289495593640631 33.6478742860611035 15.9699599815837363
 29.3357030258891456 28.3527218034793229 15.9088792823219318
 -2.3203351764518856 30.3582168086246718 15.8473405817239037
 -1.1450637846755995 40.2281755924969460 16.0939013316441830
 69.6413201804871989  1.9800271070823872 14.2837147667863729
