Se W 
 1.0000000000000000
    21.7641819016995939    0.0000000000000000    0.0000000000000000
   -10.8820909508497916   18.8483344194573625    0.0000000000000000
     0.0000000000000000    0.0000000000000000   24.7171056087856371
 Se  W  
 172  86
Cartesian
  9.2290563695532750 18.0468506748421902 17.4337770607285698
  8.2256091425372251 14.5310780077646307  7.2949503480697704
  8.2349631703359645 14.5369388695071802 10.6553523386763622
  6.1946037656059696 17.1634122989733733  7.2968600429945711
  6.2065776089411173 17.1635574063079339 10.6569581122762429
 15.0587892385496769  0.9479128961013563  7.3017596792965200
 15.0586813811621365  0.9506572244097576 10.6666799951040847
 13.0441632998626460  3.5770355379553505  7.2913959458679942
 13.0376256827604973  3.5901877181997719 10.6457485663259330
 11.0086268921387624  6.2097225800537732  7.2804156527176822
 11.0086268921387411  6.2097225800537865 10.6270607194011806
 10.2462880172238417 11.9021076511263573 10.6597719937249682
  8.9742484346610567  8.8417685274166100  7.2903446102526326
  6.9591139107246471 11.4703104179471715  7.2976526263264283
  6.9558763254919462 11.4696894383123293 10.6632649383331604
  4.9375042352904073 14.1039992288135476  7.2951082102303513
  4.9325280264903411 14.1084285497993758 10.6554265255252485
  2.9088665495956745 16.7380304320654396  7.2982923707134724
  2.9039145184738997 16.7302316312047807 10.6580535684057178
 11.7717884258886389  0.5117265229778658  7.2990090229698774
 11.7711362100972448  0.5108166569964785 10.6609782527341341
  9.7463974668002660  3.1318761811602998  7.2903446102526326
  9.7571006043443749  3.1405178532407514 10.6448220509782967
  8.9763807728808533  8.8281785023015207 10.6448220510822704
  7.7108848290941197  5.7632398614304883  7.2913959458679942
 10.2475653674085265 11.9104308168554311  7.2976634033908452
 12.2708325466548658  9.2888923407902038  7.2913959458679942
 -5.9535057265133471 17.1635574057544034 14.0601474965849107
 -5.9415318828676025 17.1634122992580771 17.4202455657914967
 18.8624038191976204  2.2705574632250340 14.0686652257060736
 18.8522378805895805  2.2751234049520392 17.4244508480968214
 17.5881383347420623  5.3318051836308102 14.0504256136752126
 17.5905689215056356  5.3330839405988826 17.4153459292594803
 16.3252788542804410  8.3988231018987332 14.0561273559796636
 16.3248169950990913  8.3978033332899500 17.4180965860378514
 15.0613774587163576 11.4696894383408097 14.0538406700769425
 15.0581398735483418 11.4703104178904134 17.4194529824592692
 12.2627112329476926  9.2766545076488338 10.6457485662148787
 -7.9818912879242845 14.5369388696374795 14.0617532702500494
 -9.2465604101160661 17.6019415396085712 14.0840926185519901
 -9.2349324356554536 17.5983396722152463 17.4337770607107565
  9.2379896666370946 18.0551198628617016 14.0840926190847000
  9.4880043181523259 17.5983396721703507  7.2833285480570593
 18.3378952263139432  1.3842557945722171  7.2926547607898033
 18.3469324166182837  1.3777348044232909 10.6484403831895698
 16.3261158072595478  4.0184670758445380  7.2976634033908452
 16.3195464093354587  4.0237348764405150 10.6597719932956299
 14.3052347753364764  6.6555230316615459  7.2903446102526326
 14.2923992989981556  6.6604713849224479 10.6448220506679192
 -7.9725372599386830 14.5310780077600814 17.4221552607158614
 -4.6844323526817631 14.1039992289801379 17.4219973985664431
  7.7255437605227950  5.7623255143826144 10.6457485662804032
  5.6919749300899447  8.3988231018938695 10.6609782524254335
 -0.8833495588620657  7.5203307057906192  7.2951082102303513
 -0.8770255507172878  7.5224255689577317 10.6554265256095135
 -2.9135605268493379 10.1451441196348036  7.2919808566590261
 -2.8978981548472862 10.1506079952945854 10.6480061882885408
 -4.9413659465913913 12.7793048519786581  7.2982923707132645
 -4.9321359705924195 12.7789156680994918 10.6580535683850233
 -6.9526260573927736 15.4121458180240047  7.2968600429945711
 -6.9587386452070819 15.4224429170456752 10.6569581123626147
 -8.9759844871543635 18.0468506748270734  7.2833285480570593
 -8.9849177835124490 18.0551198623993940 10.6330129900946702
  1.1317688599438191  4.8915018364455536 10.6569581123423607
 -0.1324120069581518  1.8323118127494464  7.2833285480748664
 -2.1575409406882367  4.4592089368749290  7.2949503480725308
 -2.1571422986383886  4.4481776798114749 10.6553523386763622
 17.5891860892949374  7.0864097760190266  7.2976526263264283
 17.5902670977599058  7.0895240968015178 10.6632649375381945
 15.5616554613591127  9.7196378839116999  7.2990090228939808
 15.5627695364792178  9.7195279815159097 10.6609782527341341
 13.5404065751623950 12.3481709034585823  7.3017596793502575
 13.5380838457620758 12.3467053321115472 10.6666799948449196
 11.5229695469108595 14.9697885413342373  7.2926547607898033
 11.5240982945795309 14.9808754728467264 10.6484403832615353
 -0.1351066848193993  1.8204407575073676 10.6330129897194077
  5.6924367892538932  8.3978033332331190  7.2990090228939808
  1.1376301156122537  4.9019440422799541  7.2968600429945711
  3.1650159036661485  2.2751234044226036  7.2926547607898033
  3.6794546228017881 11.0333782487390089  7.2919808566590261
  3.6668915824736161 11.0442103226065811 10.6480061882174439
  1.6464545881267976 13.6697898443126267  7.2834302149418368
  1.6370153897401098 13.6664024147315484 10.6330534792370326
 -0.3862862719217803 16.2989797910270084  7.2919808566590261
 -0.3893856037488924 16.2826838418195905 10.6480061887419080
  8.4775806764587305  0.0724475462571706  7.2976526263264283
  8.4797372530987101  0.0699542050138912 10.6632649384083482
  6.4521995018124878  2.7002698474625793  7.2976634033908452
  6.4600462499145754  2.7033252124731435 10.6597719932238633
  3.1548499654111231  2.2705574629162566 10.6484403834473049
  4.4266848627507649  5.3330839405928572  7.3017596795575530
  2.4121072207444016  7.9601668751175882  7.2982923709425487
  2.4078292761410238  7.9683548607266426 10.6580535687945375
  0.3861389073030363 10.5875679976232906  7.2834302147628458
  0.3879249062481755 10.5974362982168202 10.6330534800309522
 -1.6529856719200786 13.2201443173869020  7.2834302147628458
 -1.6453324722016849 13.2136634470214318 10.6330534790718190
 -3.6745468526806695 15.8531722249516616  7.2951082102303513
 -3.6758946519493114 15.8466480413756035 10.6554265252914337
 -5.6884603782008236 18.4872152153378586  7.2949503480725308
 -5.6982130475052823 18.4923856103203264 10.6553523388154616
  4.4291154494397054  5.3318051837045166 10.6666799947939008
 -4.6794561439288032 14.1084285497152866 14.0616790832733525
  9.4996322927417047 17.6019415399326853 10.6330129912814826
 -3.4263827402444686 11.0333782487706422 17.4251247521265640
  1.8984043547710123 13.2136634469058141 14.0840521296127559
  1.9060575541434317 13.2201443174321209 17.4336753938438243
  6.4555983229025617  9.7196378839590789 17.4180965860378514
 10.2461175743827511  0.5108166569888514 14.0561273555945032
  0.6424574855486810 16.2826838419899431 14.0690994203847506
 10.4942842376397660 14.9697885410863485 17.4244508480968214
 13.5375165311788415  0.0699542051015922 14.0538406712376087
  0.6393581545445305 16.2989797910389704 17.4251247521265640
  3.6703213674599433  1.3777348041815038 14.0686652248777069
  3.6793585577897088  1.3842557944564249 17.4244508481109257
  6.4544842478587938  9.7195279814629227 14.0561273563339082
  8.4791699385175878 12.3467053320623972 14.0504256137121040
  2.4102141816432399  4.4481776796634849 14.0617532701759256
 11.7696884168947786 11.9104308169496278 17.4194422051728850
 10.4931554897155177 14.9808754728260975 14.0686652256381350
  3.9276187353954661 15.8531722248821278 17.4219973985664431
 13.5396731078417414  0.0724475462757112 17.4194529824592692
  3.1509700375383596 10.1506079952349229 14.0690994201724831
  9.7545425513082016  9.2766545072524664 14.0713570426022088
 11.0086268921387447  6.2097225800537847 17.4366899558588067
  6.9585724030828713  0.9506572243839683 14.0504256132490823
  6.9584645457428351  0.9479128960279793 17.4153459294040225
 11.0086268921387465  6.2097225800537830 14.0900448904033571
  5.6977073748691032  4.0237348767027932 14.0573336154810953
  3.1666324090252211 10.1451441196230014 17.4251247521265640
  5.1944378291210089 12.7793048520775372 17.4188132377562184
 12.2708563175202610  3.1318761812145870 17.4267609985330196
  5.1852078532213506 12.7789156675714519 14.0590520401946844
  4.4269866865013450  7.0895240968329665 14.0538406703934911
  4.4280676950060736  7.0864097760117035 17.4194529824592692
 12.2601531801324164  3.1405178532113820 14.0722835581210273
  9.7464212376835970  9.2888923410379416 17.4257096629176615
  5.6911379769982418  4.0184670758502810 17.4194422051728814
 11.7709657668888408 11.9021076512789339 14.0573336150914177
  2.4106128233915398  4.4592089366676690 17.4221552607158614
  1.1300974328939080  7.5224255688231647 14.0616790833706684
  0.3881785673751952  1.8204407573483992 14.0840926186608471
  0.3854838896251081  1.8323118125988247 17.4337770609724458
 15.5650542824157423  2.7002698474060676 17.4194422051728814
  8.9796281015655453  3.5901877181023170 14.0713570426022088
 -0.8786969775325788  4.8915018367031973 14.0601474963279127
 15.5572075344169765  2.7033252123339100 14.0573336152382176
  8.4768472091630045 12.3481709034639717 17.4153459292594803
 -0.8845582330089633  4.9019440426334038 17.4202455657914967
 -2.1547573936510345  7.9683548606920942 14.0590520400896200
 -2.1590353381370608  7.9601668750750676 17.4188132377560834
  5.9415322609294652 18.4872152153558247 17.4221552607144545
  5.9512849300429300 18.4923856099544111 14.0617532701759256
 -3.4138196998630841 11.0442103231069737 14.0690994201574409
 10.2454653583979081  0.5117265229708935 17.4180965860378514
  7.2056979398014560 15.4121458180695843 17.4202455657914967
  8.9730904840990799  3.5770355381645365 17.4257096629176615
  7.2118105278344862 15.4224429169713790 14.0601474965406847
 14.2917100235982542  5.7623255148362764 14.0713570426032426
  1.1364214413910250  7.5203307058090934 17.4219973985664431
  7.7120190090783618  6.6555230317861920 17.4267609985330196
 13.0430053499662009  8.8417685274471456 17.4267609985330196
 -0.1348530235949872 10.5974362983080432 14.0840521292939087
  7.7248544852822461  6.6604713848684955 14.0722835581210273
 -0.1330670249532493 10.5875679977587431 17.4336753938438243
 13.0408730113829829  8.8281785021808492 14.0722835580605423
 -2.6557946669864032 16.7380304325880189 17.4188132379856064
  3.9289665345089184 15.8466480414145252 14.0616790831929954
 -1.3839435070857948 13.6664024143008103 14.0840521295080130
 -1.3933827053820229 13.6697898441241374 17.4336753940228064
 14.3063689549231459  5.7632398608547657 17.4257096629176615
 -2.6508426355816646 16.7302316308172188 14.0590520403241133
 -0.1330249015434537 14.3925465517362365  8.9583924769306034
  6.7098318673357857  0.8044567052932676  8.9810725395140256
  8.9781530201357711 16.1481884670478522 15.7491467896685915
 10.2485658574460352 13.0738287477197765 15.7355140380663165
 -2.1582752342110365 17.0214930491873346  8.9773176044023888
  1.9018043213312066 11.7672640878809514  8.9583924769306034
 15.3074219168436887  0.8044567052987590 15.7360330692716222
  4.6841060591156021  3.4359016606146340  8.9815915706262643
 -10.7555550095608154 18.7752788596920368  8.9526953194937988
 -8.7250811375148736 16.1481884669871789  8.9679588196249966
 17.3331477249671799  3.4359016605910528 15.7355140381866327
 -6.7067887797767973 13.5151950432556571  8.9847016356243987
 16.0717184522511225  6.4986981587702113 15.7360538405238355
 -4.6801170910647185 10.8811207534527608  8.9787884787289602
 -2.6532808818008538  8.2493000344487992  8.9773176044023888
 14.8113057924326039  9.5706363804735464 15.7388514577374146
 -0.6365396236259399  5.6225313275082129  8.9779518363244613
 11.5233910692640347 10.0084803042451504 15.7453667022992523
 13.5403269415326140 12.6352212145037086 15.7360330692716222
  3.4192482151804278  0.3735914364705699  8.9666426859480666
 12.2681753833543112 15.7003828845005433 15.7504629222147301
 -5.4414942931320063 16.5883282402126753  8.9779518358982244
 -3.4218097162134868 13.9504047988814790  8.9707587177671595
 -1.3891715958603912 11.3176915205302446  8.9583924768654590
 14.0410654957703205  3.8645448639785118 15.7453667022196004
  0.6381268012844380  8.6905911995283205  8.9707587176926396
 12.7841859746226874  6.9361877961455320 15.7575875381797701
  2.6575190374831164  6.0633207575250490  8.9847016351967390
  1.3864260232819903  2.9989315913349923  8.9679588203531111
 12.0179241732054827  1.2360491499610124 15.7388514575474296
  7.2059479925572711  9.5706363803447019  8.9782541512111944
  5.9455353316331179  6.4986981588229238  8.9810517676157211
  7.7182629379998193 18.3303821013005290  8.9679588196249966
  9.7490784008719018 15.7003828847777331  8.9666426861216237
  4.1781318181138705  5.1894898204871138 15.7360330692716222
 11.7686879267384459 13.0738287478456812  8.9815915710720873
  2.9063527642982310  8.2493000346110037 15.7397880043832590
 13.7904328646814331 10.4500007038032976  8.9810517678651625
 15.8206030734610383  7.8224822097736313  8.9782541512111944
  1.6422434785122086 11.3176915204591140 15.7587131309740496
 17.8391219661368687  5.1894898204728062  8.9810725395143880
  0.3860967846347992 14.3925465516667863 15.7587131309498147
 19.8575540610203518  2.5551934183951417  8.9666426860278712
  5.4441670941894102  2.1194373316723851 15.7355140380706295
 -10.7555550095607728 18.7752788596920652 15.7644102892017255
 -7.4651910555398988 18.3303821011761592 15.7491467892027952
  2.1596997239541715  2.5551934183857754 15.7504629222147301
 -6.2045698582761046 15.2666425917127153 15.7391537722850696
 -4.9380920572854610 12.2067090759733325 15.7397880045950718
  0.8896115062304114  5.6225313276239381 15.7391537724611865
 -3.6722865611762709  9.1355070700336114 15.7383171300566875
 -0.3850549191247835  8.6905911995365397 15.7463468914601865
 -2.4044471548388766  6.0633207575365224 15.7324039731612491
 -1.1333541407704122  2.9989315916184212 15.7491467896685915
 -1.6487324388451954 11.7672640878869768 15.7587131310481166
 -4.1758056835448576 17.8989863590139002 15.7324039735757211
 -0.8812945886516348 17.4608743363943262 15.7383171300983999
  3.9253584436460360  9.1355070700237082  8.9787884786872478
 16.5730866904447858  2.1194373316746731  8.9815915710764038
 14.5558296725761736  4.7561425721313464  8.9717389063463280
 10.7499846827605161  4.3088107006700502 15.7575875383449091
  7.9761882884929367  3.8645448638551958  8.9717389065355029
  9.4917100187215304  7.3841692437953821 15.7575875382524320
  9.9993296111238461  1.2360491501292199  8.9782541512111944
  1.1343664713070998 17.4608743364465546  8.9787884787289602
  8.2268209196090556 10.4500007036645215 15.7360538407244448
  3.1632907388170208 14.8365061611999920  8.9707587173812122
  6.9598606624051520 13.5151950432002383 15.7324039735650345
  5.1911639399666649 12.2067090759434453  8.9773176044023888
 -2.9102188560991489 14.8365061619112097 15.7463468911025419
  5.6945661757484443 16.5883282402248042 15.7391537724611865
  2.4113471163797486 17.0214930491091856 15.7397880043749439
  9.2330678096642256  6.9361877960883875  8.9595180704407387
 11.2672691012798172  4.3088107007321970  8.9595180705040462
 13.2899124798260360  1.6804688777260863  8.9810517682187054
  7.4614241115199569  4.7561425720786588 15.7453667022992523
  4.4288775661075492 17.8989863588620821  8.9847016351860525
  6.1966507111474822  7.8224822099927138 15.7388514575465628
  6.4576417407565145 15.2666425916734685  8.9779518368923803
  8.4769268426193065 12.6352212142953793  8.9810725395140256
  4.9331889737183330 10.8811207533953542 15.7383171300983999
 10.4938627148961032 10.0084803041610542  8.9717389063638144
  3.6748815989549293 13.9504047988279432 15.7463468910184883
 12.5255437654659030  7.3841692436904349  8.9595180705332158
  8.7273413042868579  1.6804688775266983 15.7360538405238355
 18.5980055694216020  0.3735914370795753 15.7504629220310868
