Se W 
 1.0000000000000000
    31.6613052884249626    0.0000000000000000    0.0000000000000000
   -15.8306526442124884   27.4194946967506041    0.0000000000000000
     0.0000000000000000    0.0000000000000000   24.7171056087856371
 Se  W  
 364 182
Cartesian
 30.2666807290208411  1.0166192978764539 17.4613794870961279
  8.3593223036045394  1.6124281478879841  7.3149596042216816
 18.6014235643957591 16.9771444151525159 10.6707162002292346
 18.6122118238771996 16.9814922023518733  7.3104187553407778
 17.1984893733948567 13.9546214360595062 10.6413450072567723
 17.2120199637056999 13.9783354854341795  7.2847600743829632
 15.8202512369763806 10.9387082156051871 10.6092774585073748
 15.8211356695264449 10.9561734546002825  7.2557592780387141
 14.4519436857381987  7.9300722288454768 10.6092774590478029
 14.4363761298077780  7.9221055500931046  7.2557592775252573
 13.0696028537116931  4.9220331695697439 10.6430965272166009
 13.0504979657883293  4.8991925246543708  7.2863528381404148
 11.6657149116414267  1.9101706107065410 10.6773128492100700
 11.6582096552330903  1.8966981857473599  7.3168475226409804
 20.5050877517786745 14.2621693274478112 10.6607534033936346
 20.5270487125861898 14.2778386579475107  7.3021104890117021
 19.1125303704853664 11.2554675222928164 10.6273613317648152
 19.1409327990118108 11.2686375850047753  7.2721849866974866
 17.7416526569659787  8.2494011239265319 10.6092774600444741
 17.7563357811538260  8.2399025633157752  7.2557592783194043
 16.3698346969038617  5.2398241035052795 10.6273613319265881
 16.3670390907403807  5.2086418482129480  7.2721849866174431
 14.9763646707436653  2.2204530454737914 10.6623083823870086
 14.9676082514240907  2.1946036569604379  7.3035091157876462
  8.3421739745433943  1.6145564914355985 10.6752952934563972
 22.4241174237299532 11.5583726093614594 10.6623083823857030
  9.7429097234780926  4.6087008150018294  7.3076374739789589
 11.1236648895485146  7.6155656681668082  7.2847600746414258
 13.4057390262725402 19.3876818660218646 10.6752952933885261
 13.3953216620499092 19.3738951495223439  7.3149596039759039
 11.9999778941833490 16.3616039249096374 10.6773128503920649
 11.9920630613607671 16.3748398795700965  7.3168475226930694
 10.6133654857241844 13.3393559129911630 10.6623083828941656
 10.5953574682567595 13.3598638888605876  7.3035091157756478
  9.2313236777255128 10.3255291087968626 10.6607534033696165
  9.2067731590820507 10.3367131923672346  7.3021104884435966
  7.8319183746468441  7.3194200172750445 10.6707161997726914
  7.8227589509247739  7.3265890301971490  7.3104187542492536
  6.4203035919569595  4.3200295505462547 10.6657011125080317
  6.4397553582340930  4.3291566612336831  7.3061907340714329
  5.0246995921758950  1.3190051994890344 10.6425542420146559
  5.0574580779527958  1.3235960780286913  7.2858865478245773
 16.7096826165639456 19.6993339105175380 10.6657011127883798
 16.7078610424285756 19.6779246321599253  7.3061907340714329
 15.2993012432344724 16.6682237916794982 10.6671275545248072
 15.2983761982040676 16.6775369619355303  7.3076374734167899
 13.9063834118684202 13.6398700227066456 10.6430965272911155
 13.8961552777032491 13.6678356639953016  7.2863528375400115
 12.5314825128472958 10.6228899404797144 10.6273613321730398
 12.5058756914668585 10.6409021354948976  7.2721849870213502
 11.1509671536532498  7.6157048588856373 10.6413450071498126
  9.7505126431757798  4.6141585127968643 10.6671275561822156
 22.4508818602919327 11.5637140229452182  7.3035091157876462
 21.0378613143398496  8.5562783744823232 10.6430965276959579
 21.0671943363046843  8.5511533794936323  7.2863528383732374
 -11.1360552702460254 22.0787802967011650 17.4115784379734571
 -11.1501147810421095 22.0952836484033845 14.0528818023146247
 -4.0024200678123583 27.2207445020879497 17.4014418507043587
 -3.9981389303814101 27.2229571154809555 14.0384563899454449
 -5.9126804828944337 24.5121786219380162 17.4050861093073692
 -5.9041290978211256 24.5028791452834511 14.0442037644461273
 -7.8335401066920198 21.7966360651481779 17.4041433718350618
 -7.8222749451108804 21.7965956828644174 14.0439720656375080
 -9.7458765850395022 19.0827100591257910 17.3949157908975423
 -9.7419265238782771 19.0861698630252263 14.0320050704066492
 -0.6940111351982916 26.9190137921149457 17.4058294988635467
 -0.6904710822680401 26.9224384299165109 14.0456913161277264
 -2.6041735419944039 24.2215547123463502 17.4166151941057876
 -2.5867807236877862 24.2040873427909844 14.0583121387567260
 -4.5283233605176445 21.5125054177728536 17.4247331079863343
 -4.4984816380519694 21.4989971519994327 14.0674573662808733
 -6.4504225600459799 18.7953606123511534 17.4132939009870924
 -6.4227810234025231 18.7954320107134123 14.0548666987690503
 -8.3533078084381440 16.0779278084379236 17.4005682019335985
 -8.3475559502476582 16.0733337894854849 14.0397394010793342
  2.6178216139869024 26.6147075601024810 17.4005682014493530
  2.6109671477220293 26.6120233144017213 14.0397394021093813
  0.7117222856654192 23.9161714697895249 17.4238967627842598
 -9.2313349778394205 24.7946529334526460 14.0564438144422557
 -9.2142980073332996 24.7943927114394960 17.4151163402132667
  8.5166609252834284  0.0884331358087331 14.0454595562854152
  8.5313483773432246  0.0935778963161154 17.4059782512077561
 19.6643910519008109  5.5478552750422025 10.6413450071594635
 19.6781627272864910  5.5242804147933740  7.2847600745340229
 18.2774361503863716  2.5304831328549566 10.6607534033985374
 18.2800257084055957  2.5036297179959424  7.3021104884406709
 24.3481547742261881  8.8464070321716690 10.6773128498508374
 24.3635748639134526  8.8466435024015730  7.3168475205287029
 22.9640336936277194  5.8357992638286333 10.6671275556924012
 22.9725616590333530  5.8319437913644645  7.3076374739325001
 21.5805056411216789  2.8216171356867270 10.6707161997989211
 21.5788768054801601  2.8101003356705809  7.3104187545036403
 26.2659345791133063  6.1159432108723388 10.6752952933529279
 14.7961178656726560 22.3778094832388952  7.2858865478245773
 26.2592036143875909  6.1318582708992801  7.3149596039759039
 24.8662311796189250  3.1111002750164030  7.3061907340714329
 28.1806266975440636  3.3907017657288012 10.6425542423630048
 28.1602716364025447  3.4167760059617160  7.2858865475878485
 30.0835748709733934  0.6994706481177676  7.2557261209505040
 30.2834497006840735  1.0084789931544689 14.1078606843539092
  1.9256568495111539  0.6994706480418844 17.4613794876630344
  1.9102226534817328  0.6890184450481502 14.1078606845259991
  5.2353716054364856  0.3893645487642227 17.4325739480951754
  5.2056341538502302  0.3785263055178290 14.0759061857075061
 -12.5215417573993175 25.0891042449805504 17.4445959507058639
 -12.5458412150766367 25.1014676592144390 14.0894284018151961
 24.8838613717690045  3.0988181059523652 10.6657011146457368
 14.8085212887844762 22.4084746036121700 10.6425542417747661
  1.7425509912278800  1.0166192980464581  7.2557261198844500
  1.7257820188788129  1.0084789936563843 10.6092449236288964
 -7.8300985088573078 14.5562409795277006 10.6714142939881587
 -7.8289027121962445 14.5610190742672341  7.3112761103802129
  1.0383975140463813 26.9224384295940418 10.6714142931350224
  1.0419375669477620 26.9190137921995110  7.3112761099220451
 -0.3647107466031821 23.8923023818369877 10.6504679095221046
 -0.3637958542994986 23.9161714699394956  7.2932088460013853
 -1.7451457669296717 20.8709585272005427 10.6225574612096683
 -1.7586946874177889 20.8956109477199341  7.2677997439130468
 -3.1169611426428889 17.8606642667722504 10.6220221452203578
 -3.1438807047815862 17.8641628055807153  7.2672965738156456
 -4.5043695848907062 14.8561816058469915 10.6504679088876326
 -4.5254982666572001 14.8450393818217474  7.2932088460013853
 -5.9105520182745233 11.8523191612125185 10.6773662067919304
 -5.9094494100033410 11.8450408964025176  7.3165374083590340
  4.3460653620452945 27.2229571154818899 10.6786492188056883
  4.3503464994976495 27.2207445021053651  7.3156637586597597
  2.9347071544046957 24.2040873415760593 10.6587934699632552
  2.9520999734291054 24.2215547114423053  7.3004904146466840
  1.5435433438694970 21.1885300950715418 10.6220221441237808
  1.5600329468797016 21.2100938508856842  7.2672965745223452
  0.1739632158704615 18.1792254216551079 10.6026216982678338
  0.1739632158705021 18.1792254216551683  7.2495398192995335
 -1.1975915441073399 15.1713617370461158 10.6225574609108548
 -6.4479158261919380 17.5639977836483041  7.3004904146408620
 -6.4240922307657664 17.5576688462042370 10.6587934698440847
 -5.0638852266517507 20.5848850547202424  7.2923725007993081
 -5.0372658640026566 20.5657954983953566 10.6496482427607138
 16.1890564935261771 25.4206841297384258 10.6092449246799543
 16.1877217180787056 25.4020916219628852  7.2557261215597384
 -12.1807766283620982 25.7337780717948696 10.6276772093740117
 -12.1579198672882942 25.7189158315909729  7.2725096586751681
 18.1056563258148984 22.7220201244509603 10.6411994229313489
 18.1111388563812916 22.6908476141521547  7.2845316611500017
 -8.8794816904144049 26.0281355285859526 10.6642238067645483
 -8.8581596122672206 26.0242113105262156  7.3055271697708584
 -10.2578141632522080 23.0167388306874088 10.6606617941746986
 -10.2490703186740895 23.0021144936046404  7.3019892685885015
 20.0123977644242252 19.9996334121590884 10.6716460515336689
 -1.2121667050379372 15.1473018175460439  7.2677997435498840
 20.0152859977618043 19.9843413251768958  7.3111273592393058
 -5.5683973325682707 26.3183163721116848  7.3221898191962005
 -6.9568904058088163 23.2954856733956142 10.6731335438117991
 -6.9625579586891364 23.3052213981020664  7.3129622364534761
 -8.3415277100620937 20.2811809100829734 10.6729018440014354
 -8.3538569860703795 20.2839368882318212  7.3120195000313419
 -9.7441892490026039 17.2705060205283694 10.6786492190279514
 -9.7444136383582229 17.2753199011143650  7.3156637580812678
 -2.2630407161340815 26.6120233141987832 10.6773662077212421
 -2.2698951820851652 26.6147075601711585  7.3165374072205589
 -3.6580594634408983 23.5840702199878862 10.6622389099582389
 -3.6718184001098861 23.6080441921506718  7.3038117070728665
 -5.5694185799704048 26.3131656166644277 10.6851005373569343
  0.7126371776557028 23.8923023820929394 14.0666376995337696
 -2.5907583433734946 12.1581740332260289 10.6622389102088100
 -3.9985447279583277  9.1383407852684257 10.6851005370644678
  4.0177055004357465 12.7521237690767801  7.3004904146466840
  2.6113618281272615  9.7536162096055943 10.6729018441998278
  2.6151397186206555  9.7415607544702620  7.3120194992731937
  1.2004424012898982  6.7262844994868392 10.6606617945916398
  1.2087355269665510  6.7411690597475813  7.3019892686117416
 -0.1911013706217332  3.7024305352574793 10.6276772064805485
 -0.1896586730025738  3.7296561899085319  7.2725096581265962
 12.8937676461736643 25.1014676594305861 10.6276772075100450
 12.8694681891593312 25.0891042442077001  7.2725096579709598
 11.4980412139769861 22.0952836488729893 10.6642238061255448
 11.4839817020649608 22.0787802964740862  7.3055271700164877
 10.0898529554933063 19.0861698629545060 10.6851005376821924
 10.0938030167680921 19.0827100591187140  7.3221898188809300
  8.6954823820121891 16.0733337893792516 10.6773662064168846
  8.7012342400241245 16.0779278085238424  7.3165374073913281
  7.3135906423876076 13.0589968556210483 10.6714142935166922
  7.3088547928748806 13.0576433985613480  7.3112761101036936
  5.9200135345575191 10.0442131289167627 10.6786492188161422
  5.9159567864395362 10.0416118618296402  7.3156637580755364
  4.5088790206290366  7.0301150208014969 10.6716460529157349
  4.5206782399973617  7.0402623464228338  7.3111273593659831
  3.1045936885808305  4.0176351394003014 10.6411994223933526
  3.1288486089315559  4.0379694048358052  7.2845316611500017
  4.0112747241301774 12.7759200774151207 10.6587934699861346
  5.4111837692867253 15.7764654139792597  7.2932088460013853
  5.3909699785096041 15.7891922754964167 10.6504679096149850
  6.7983489910315589 18.7953606122484835  7.3038117071042157
 -4.0035160366359870  9.1366498337729176  7.3221898193843611
 23.4925707946593008  0.0884331358997570 10.6716460525803747
 23.4778833428152964  0.0935778960945012  7.3111273588674948
  6.2520555295853688 24.5028791453796444 10.6729018441451462
  6.2606069146871874 24.5121786218557354  7.3120194994563050
  4.8464080701358760 21.4989971514136116 10.6496482427332602
  4.8762497919248924 21.5125054173823678  7.2923725007993081
  3.4646269573192030 18.4953559994677441 10.6225574612153029
  3.4927510399774886 18.4947634984900837  7.2677997436527884
  2.0953074471541808 15.4884819019285178 10.6220221432454043
  2.1057374059261362 15.4634196088200042  7.2672965738963926
 -2.6046409446843324 12.1342714600807895  7.3038117070976867
  0.7127474410848581 12.4728836152366860 10.6496482427106525
 -0.6914213237294838  9.4455949090443720 10.6731335429721170
 -0.6970189322844442  9.4358188013840039  7.3129622365651370
 -2.0966698754198037  6.4142570878967025 10.6642238062013774
 -2.1039324423150840  6.4346846579456241  7.3055271711170899
 26.8035975663202706  0.3785263027399209 10.6411994228886506
 26.7738601148317059  0.3893645483894059  7.2845316612348956
  9.5792614096260404 24.7946529337776731 10.6606617941474546
  9.5622244393435221 24.7943927107481770  7.3019892685491525
  8.1702013770062134 21.7965956825753189 10.6731335436471149
  8.1814665384223275 21.7966360652108975  7.3129622364534761
  6.7707074553001734 18.7954320120746026 10.6622389102191697
  0.7095250815185015 12.4402857927200827  7.2923725008066285
 -1.2121065148083805 21.2100938508198809 17.4498090342880907
 30.0990090670971924  0.6890184447796251 10.6092449245326570
 14.7972117564025112 13.9783354858524689 17.4323455343672116
  7.1430005409164092  3.1111002748564482 17.4109148750062630
 17.5572880343276267  7.9300722299129660 14.1078281487925548
  4.8734246984365290 14.8450393814242343 17.4238967625056596
 17.5728555906278352  7.9221055503601203 17.4613463303062808
  4.8522960170113452 14.8561816069421280 14.0666376994817846
 13.4078081554058048 16.9771444159162250 14.0463894085939582
  2.9525673764752556 12.1342714607599333 17.4132939009870924
  2.9386847749334435 12.1581740335456399 14.0548666983655917
 19.4777492086296036 10.6228899405523372 14.0897442726463655
  7.1253703479855908  3.0988181073073049 14.0514044962336921
  1.0449453640166886  9.4358188014905213 17.4041433729424284
 19.5033560282279019 10.6409021355310411 17.4449206221088744
  1.0393477556341950  9.4455949089538382 14.0439720654855424
 13.3970198963010265 16.9814922022490578 17.4066868539873987
 -0.8608090955270572  6.7411690594039202 17.4151163402134017
  6.7720186623092200 17.5576688462312056 14.0583121389905727
 -0.8525159697775343  6.7262844996341142 14.0564438147363848
  6.7958422578925601 17.5639977840597972 17.4166151941057876
 15.6421926299764387  5.2086418485182975 17.4449206217611739
 22.8024585611503845 10.3367131920865685 17.4149951205905253
  2.4445963074473362  6.4142570878115173 14.0528818021378079
 27.5003526992289871  7.0301150203270062 14.0454595564742810
  9.0451980262765321  5.8357992640630405 14.0499780527704150
  9.5583498595454923 11.5637140229614364 17.4135964929980602
 12.5058462998381934 25.7189158313360409 17.4445959506371793
 13.7317955697009459  2.5304831331391768 14.0563522050038880
 12.5287030599070004 25.7337780715267392 14.0894283993007949
 13.7292060119228676  2.5036297180596789 17.4149951205905253
 10.5969967504938865 23.0021144937533109 17.4151163407936878
 10.6057405945464165 23.0167388317678387 14.0564438147320523
 15.6393970236434203  5.2398241032916237 14.0897442769578820
  8.7017834177293718 20.2839368884750861 17.4050861087543538
 11.5041439692843408 14.2621693279552932 14.0563522049493592
  8.6894541421130178 20.2811809096273201 14.0442037649354070
 11.4821830072396285 14.2778386582468642 17.4149951205905253
  9.5851142961649476 11.5583726100343629 14.0547972257008933
 21.3958662347153457 13.3393559130600821 14.0547972262855811
 28.8803831114182508  4.0379694055586945 17.4325739481799289
 17.2131138545491460 22.3778094838140653 17.4312190611352946
  8.1768291440012444 14.5610190742556362 17.4058294986819142
  8.1780249407216168 14.5562409795063736 14.0456913144098010
 14.2528959383754525  8.2399025631127074 17.4613463307927681
 -1.1956169114304946 21.1885300947387769 14.0950834669053524
  6.2573758420176393 11.8450408964944938 17.4005682014493530
  6.2584784499208128 11.8523191608280438 14.0397394012214143
 16.1889804832308108 10.9387082157959217 14.1078281499737699
 16.1880960507549005 10.9561734542812914 17.4613463304662702
  4.3514424682748976  9.1366498337890967 17.3949157894198940
  4.3464711597300827  9.1383407851807963 14.0320050715160161
  0.5390278020979289  3.7024305352635265 14.0894284012452431
  0.5375851051397682  3.7296561896956630 17.4445959513830928
  2.4518588736803482  6.4346846578678099 17.4115784376684886
 18.1028483083969149 13.6398700238013042 14.0740090812733598
 14.2675790634638222  8.2494011235975275 14.1078281488114463
 21.4138742526861883 13.3598638889891372 17.4135964930100435
 10.0921156809612853 17.2705060206863621 14.0384563888066349
 17.2007104302235660 22.4084746040917828 14.0745513660900254
 28.9046380314438842  4.0176351395186938 14.0759061860059447
 15.2995491032297739 19.6993339107524115 14.0514044947320205
 10.4287260792426846  2.8216171352768753 14.0463894091790653
 15.8215100013853984 25.4020916219259512 17.4613794870259760
 15.8201752263299333 25.4206841299128925 14.1078606857340123
 15.3013706777891034 19.6779246321345482 17.4109148749517288
 10.4303549148595067  2.8101003357012453 17.4066868529873418
 13.8980928632243295 22.6908476141495115 17.4325739480951754
 20.0171686591391946 16.3748398794184915 17.4002580869844365
 13.9035753941714884 22.7220201243307329 14.0759061856115864
 20.0092538251936212 16.3616039248275058 14.0397927586886695
 12.3448406677042506  5.5478552750298880 14.0757606016358281
 11.9939457223807597 19.9843413255818909 17.4059782502583857
 11.9968339553426677 19.9996334118738979 14.0454595560103694
 12.3310689932022175  5.5242804146184978 17.4323455341651368
 10.0923400700716890 17.2753199011496470 17.4014418510360258
 -2.2634353969688226  9.7536162096592971 14.0442037648326838
 27.4885534802841640  7.0402623468458891 17.4059782507146323
 -2.2672132868914874  9.7415607546335305 17.4050861093132951
  4.0059858953649838 23.5840702199655041 14.0548666985167365
 12.8682989206793810 11.2686375841769113 17.4449206220602875
 18.6139100581007391 19.3738951490293267 17.4021460045639280
  2.1066211192326230 20.8956109482269454 17.4493058661256875
  2.0930721989349257 20.8709585273825624 14.0945481496267035
 20.3435168086632032  1.9101706106680116 14.0397927571664027
 12.8967013498459480 11.2554675218596909 14.0897442732311209
  0.1739632158704457 18.1792254216551754 17.4675657895927721
 20.3510220651509499  1.8966981866083268 17.4002580866216832
  0.1739632158704145 18.1792254216551790 14.1144839125399013
  3.8286050219412524  3.3907017639296946 14.0745513678471230
 -1.7578109738232934 15.4634196090618943 17.4498090350512456
 -1.7473810157745384 15.4884819019351863 14.0950834647488215
 22.2587190768418424  4.6141585118885908 14.0499780527329889
 22.7779080429663878 10.3255291070195874 14.0563522049983209
 25.5694763623874728  4.3291566614501926 17.4109148749442575
 -3.6697790684399716 12.7521237692042213 17.4166151941057876
  4.0197448312293451 23.6080441925759317 17.4132939015690091
 18.6034926938486542 19.3876818659943915 14.0418103161606886
 14.8107423469352479 13.9546214360878835 14.0757606014360146
 -3.1448246077937481 18.4947634987078082 17.4493058654229891
 26.9845321281284427  1.3190051995350485 14.0745513677657641
 -3.1167005254973170 18.4953560000211041 14.0945481477858028
 26.9517736422834524  1.3235960792219892 17.4312190613782079
 16.7099304767366696 16.6682237916022302 14.0499780538516301
 -5.0632573368251226 15.7764654140321170 17.4238967627842598
 -5.0430435467816714 15.7891922773029929 14.0666376995337696
 16.7108555219921726 16.6775369623346279 17.4094681348066409
 23.6670577455797719  1.6145564916843338 14.0418103157847636
 -6.9609283611989818 13.0576433985421776 17.4058294994316469
 -6.9656642109633911 13.0589968555789007 14.0456913162151125
 23.6499094166053858  1.6124281480078251 17.4021460045639280
  5.9163237643506559 26.3183163720428475 17.3949157900928633
  5.9173450117336346 26.3131656166661472 14.0320050710794657
 25.5889281279851240  4.3200295513607907 14.0514044949607069
  3.8489600833792443  3.4167760060437775 17.4312190611355291
 22.2663219967955435  4.6087008146761761 17.4094681348066409
 18.9396288665085279  4.9220331704007725 14.0740090814486791
 10.9713704056880754  8.5562783758775520 14.0740090814486933
  5.3851922961816250 20.5657954972473576 14.0674573663189975
 -3.6633482926078873 12.7759200775381423 14.0583121388658796
  3.4918071369527315 17.8641628053146313 17.4498090349699808
  3.4648875745731744 17.8606642673361122 14.0950834667969094
 18.9587337541002547  4.8991925243837757 17.4307527710193177
  7.6610769460291426  8.8464070327941631 14.0397927576516626
  1.5600931368863646 15.1473018180007628 17.4493058651139528
  7.6456568561402101  8.8466435017459002 17.4002580869875345
  1.5455179745077887 15.1713617375791809 14.0945481493989035
 20.8582645663127515  7.6157048567559809 14.0757606019059018
 20.8855668307117988  7.6155656679765542 17.4323455343483609
 -0.3615986497587400 12.4402857927896147 17.4247331078111216
 -0.3648210098569429 12.4728836150615265 14.0674573662031186
  9.0366700615776612  5.8319437912685963 17.4094681348066409
  5.4118116577529314 20.5848850548742242 17.4247331078184757
  5.7500281055667939  6.1318582707875144 17.4021460045639280
 18.1130764420842567 13.6678356634393747 17.4307527712631760
  7.3048168374135267 23.2954856733736939 14.0439720658043310
  7.3104843903907533 23.3052213982042637 17.4041433723321290
 17.0328670493127348  2.2204530451102560 14.0547972263345891
 24.1773133456586038  7.3194200167807777 14.0463894090072916
  9.2274081224133297 26.0281355284921361 14.0528818018523651
 -5.5680303546676475 10.0416118618143262 17.4014418501204844
 -5.5720871028746997 10.0442131288955601 14.0384563888585703
 10.9420373834340268  8.5511533791786505 17.4307527712575165
  5.7432971412021034  6.1159432103521363 14.0418103154228344
 17.0416234690052271  2.1946036567868652 17.4135964932526761
 24.1864727692562163  7.3265890304312311 17.4066868539478889
  9.2060860437438823 26.0242113109695268 17.4115784387309454
 14.4442071384622786 10.1518510191945026 15.7863384836765430
  2.4488774696852924 11.6557440029524138  8.9833079775629194
  6.6049451242004347 20.7013207654378348  8.9850322823194659
  3.8393783982907652 14.6731900302075893  8.9640511762210018
 -0.3606096557523734  5.6251069750917413  8.9725346543797500
 16.3664399749924350 12.8558854782694070 15.7677454763774154
  5.2201849744518753 17.6911332226608735  8.9656463115266209
 12.6995268625280904 27.0035447799404942  8.9432619849312740
 10.6023400051713015  4.7263306629513195 15.7345064019188570
  7.9982811227631663 23.7014269787220044  8.9931403487073389
 12.5185251047351738  7.4444969194682198 15.7677454765713936
  1.0441710956314854  8.6420665685956113  8.9931403497454383
 21.5765293148023893 15.2619587457048951 15.7195255314836562
  8.6966681793021383  2.0013742327954303 15.7235703462667260
  2.2743738513947740 22.7934277571337454 15.7514592977146286
 19.6681458787740802 12.5429391574762459 15.7525640468860963
 -1.9264474198075343 22.7934277571818278  8.9656463114033826
 22.4409760810580217  6.5174173241164883 15.7345064019285950
 -0.5278031429025197 25.8137278471036815  8.9905436949913859
 20.5200163547223653  3.8099912346380500 15.7309828938649012
 -8.0057933457303179 16.4648180600769720  8.9937981658528230
 -6.6129945401102681 19.4708325963529667  8.9833079775896696
 18.6075584037314847  1.1026928121027564 15.7195255314264539
 -5.2257263767577529 22.4875714534317979  8.9850322832740179
 25.7536934866211595  6.2295353263962738 15.7235703464960359
 -3.8328427007126229 25.5075882560250413  9.0004975467941453
 -9.9131422383951975 19.1810642812135477  8.9988793177840662
 23.8359928871517113  3.5187507943448137 15.7230784350924324
 -8.5205625703937731 22.1941827176904312  8.9931403500145350
 21.9185271354141662  0.8046955780909035 15.7112880917621176
 -7.1328622718280350 25.2121464923109073  8.9997358950806543
 -11.8164006472467769 21.9012026395668080  8.9803036415261648
 27.1482891400490693  3.2267997395334391 15.7461851555162919
 -10.4309358452240897 24.9192383320204023  8.9725346544554245
 25.2265101444606650  0.5145230469270214 15.7331200894352481
 -13.7309033421940807 24.6145220566621035  8.9432619843627901
 -15.6566894283419682 27.3190569872387456  8.9237387028949140
 -3.3115758251948235 19.7720816239069492  8.9494016387725743
 24.3563090766694685  9.2313587018990226 15.7228687231872843
 -4.6950600905763453 16.7579004533851617  8.9640511760913100
 15.2987230168632706  1.4093930131625569 15.7285706300938273
 -2.2633123503159727  8.3348683930299856  8.9997358947219812
 -0.8573290988942174 11.3487840451285606  8.9850322831347302
 17.7482363835476740  9.8345188681803073 15.7863384821030888
  0.5372788007557421 14.3642319648651124  8.9494016385880428
 15.8214040573527974  7.1318116815123522 15.7863384804250533
  1.9176511531586973 17.3835428705447939  8.9310226790657161
  3.2961866724648989 20.4013626765957206  8.9494016405908816
 13.9011899189143691  4.4253648829255825 15.7538181201609255
  4.6860067190327630 23.4110996661109532  8.9833079775112470
 11.9950156846611193  1.7106329431460072 15.7228687233136348
  9.3924719701018589 26.7021965186930892  8.9803036417311919
  6.0851338455128134 26.4139955660685715  8.9988793177744189
 22.9653368425362281 12.2430731436051605 15.7285706302167689
 -2.7718479070145321 14.0531152858312396  8.9656463111931313
 21.0521951355296650  9.5247880423801536 15.7538181197124736
 11.3134351484424318 23.9933309574049680  8.9725346543014677
 -0.0087994503941341 20.0871447481484182  8.9310226790571026
 19.1288825013239467  6.8177991699884117 15.7677454763522977
  1.3775713395843769 23.1065857814558093  8.9640511765280060
 17.2070100852777941  4.1149111424546696 15.7525640475310169
  2.7791211691252142 26.1203060824461488  8.9937981658481743
 -6.0868266503234105 13.7542267151526083  8.9905436949913859
 -4.1691822086894730 11.0450482927243474  9.0004975462847376
 -1.3869620556693791 17.0669886469655836  8.9310226786138571
  2.0983778947205529  2.6035925211458202 15.7733137874702916
  9.9180642694846117 20.9906613795285324  8.9997358946465464
 29.9108538246544811  2.6035925208092738  8.9437918213227174
  8.8684890024159397 22.1941827176621764 15.7239652588185095
 26.6103066666056698  2.2949867624298483  8.9709204541628704
  6.9609209720242360 19.4708325959902240 15.7337976311601278
 27.9983176873734223  5.3154345396034177  8.9839855185220845
 23.3125635410252201  2.0013742328224993  8.9935352625160778
  5.0429865228774462 16.7579004538910361 15.7530544321470956
 24.7013215103337274  5.0175439350098090  8.9940271737295880
  3.1197743390042776 14.0531152859807964 15.7514592965984068
 26.0930293991071949  8.0351455948787507  9.0058175179425035
 20.0142160362480297  1.7106329434110299  8.9942368860743507
  1.2052555305379844 11.3487840460686602 15.7320733261550583
 21.4068917145585438  4.7263306630351511  8.9825992073424388
 -0.6962446639072569  8.6420665687267118 15.7239652588648671
 22.7911116242126681  7.7436436299767770  8.9861227127099639
 24.1794718581010244 10.7535300104442850  8.9975800779409649
 -2.5978918926240517  5.9342771064972668 15.7368019684942730
 16.7105087023855461  1.4093930128518799  8.9885349782000876
 14.0788297746230455 24.6145220565728451 15.7738436232246464
 18.1080418005815815  4.4253648830021559  8.9632874889361620
 19.4907066149465500  7.4444969189513888  8.9493601329287777
 12.1643270781559174 21.9012026394469927 15.7368019683592220
 20.8705401035259612 10.4603312685722383  8.9645415614866426
 10.2610686702335041 19.1810642811797258 15.7182262915713942
 22.2594439996586502 13.4657154115328410  8.9885349780985955
 -15.6566894283420037 27.3190569872387030 15.7933669068843869
 13.4016733161633290  1.1026928120981740  8.9975800774416772
 10.7788622768365201 24.9192383319117461 15.7445709561669176
 -4.0019716085184447  8.9426164177761454 15.7182262910112289
  0.3567258819474831 20.0871447476490275 15.7860829297199317
  4.1807691329550698 25.5075882564792842 15.7166080617419333
 -1.5697247222798256 17.3835428704859964 15.7860829302491457
 -6.7885930089397490 14.9697217031410652 15.7265619138426835
 -4.8722585424531246 17.6911332224763100 15.7514592972590268
 -3.4914519665725305 14.6731900300495539 15.7530544327830011
 -2.9482602407312011 20.4013626765540543 15.7677039700646784
 -5.4006353924260582 11.9525521229012011 15.7233074430393227
 -1.0296449089268456 23.1065857807358377 15.7530544327588338
  0.8757295745111101 25.8137278467828892 15.7265619127882257
  7.4807887035482752 25.2121464922093956 15.7173697146951366
 -8.1759881255297522 17.9850397162567077 15.7166080613526731
  5.5736528092353623 22.4875714532383384 15.7320733257730776
 -6.2570186924359756 20.7013207663456242 15.7320733260326246
 -4.3380802871887498 23.4110996659141186 15.7337976300550508
  3.6595022574340779 19.7720816239792505 15.7677039705700732
 -2.4311947375357925 26.1203060824792388 15.7233074421584078
  1.7348884874220811 17.0669886468028587 15.7860829300265983
 -9.5701378380295825 20.9906613797779826 15.7173697129296421
 -7.6503546910854032 23.7014269787781231 15.7239652598152606
 -0.1893523687940092 14.3642319645270362 15.7677039705700732
 -5.7372074141235787 26.4139955660565029 15.7182262910112289
 -2.1009510373584113 11.6557440029647221 15.7337976300559426
 -10.9655087166142593 23.9933309578634564 15.7445709556742663
 -9.0445455384814615 26.7021965179013279 15.7368019673998418
 -12.3516004306746225 27.0035447803167479 15.7738436232281920
  8.3537197777107544 16.4648180597187768 15.7233074423575747
 14.8022216353241038  4.1149111421736420  8.9645415620281010
  6.4347530821879717 13.7542267150142887 15.7265619126564093
 16.5425983330791091 21.5963950659537751  8.9709204530138873
  3.4779294270858387  0.2141391750529748  8.9437918220141341
  4.8609425799722707  3.2267997398694912  8.9709204527812449
 18.7764234028328794 21.2882239822414192 15.7331200906452491
  6.2555382336158747  6.2295353265281781  8.9935352635374226
  7.6529226435809461  9.2313587016083360  8.9942368861807100
 16.8699444833938621 18.5818868390668541 15.7230784349578236
  9.0438948779024297 12.2430731435142697  8.9885349783237665
 14.9705314937883927 15.8744335811245989 15.7345064007336717
 10.4327024054121686 15.2619587456570134  8.9975800777454396
 11.8301135964237201 18.2783403953324743  9.0058175184388087
 13.0604625261899123 13.1680286431871227 15.7538181202846843
 13.2328083168931006 21.2882239826751061  8.9839855184328723
 11.1386916166375567 10.4603312686868151 15.7525640457086524
 14.6250643275702537 24.3004498720965820  8.9437918214633143
  1.5532661280679696  2.9196094285364977  8.9432619855273465
  9.2181200959366656  7.7436436300084868 15.7309828959642193
  2.9458183245994851  5.9342771071185219  8.9803036415240864
  7.3079102097882895  5.0175439350369491 15.7230784340809482
  4.3498980402116354  8.9426164180048637  8.9988793177744189
  5.7485618245070462 11.9525521231999150  8.9937981668464477
  5.3989250529912924  2.2949867627969307 15.7461851560091510
  7.1365194406686223 14.9697217031539758  8.9905436949913859
 20.1791181236138897 18.2783403953145260 15.7112880913138362
  8.5239145573026196 17.9850397162605553  9.0004975469772752
  4.0109140328827211  5.3154345398016822 15.7331200904425454
 15.1392872368898406 18.5818868389196865  8.9940271737295880
  5.9162023211637305  8.0351455948682489 15.7112880915047040
 13.7335205908951856 15.5645467038439165  8.9861227127101451
 16.1878276619034338  7.1318116815509525  8.9307671249955956
 17.5650245817765800 10.1518510190425992  8.9307671265644863
  4.5171086403621876 11.0450482924480777 15.7166080614727726
 18.9487691939599152 13.1680286434278599  8.9632874884903941
  2.6112387819852345  8.3348683931419973 15.7173697128627960
 20.3467089012574434 16.1761899232969490  8.9942368851027581
 10.0907045847520074  0.8046955781235455  9.0058175168531207
  0.7085360864744444  5.6251069755735044 15.7445709542779717
 11.4892153650946724  3.8099912342754814  8.9861227136227626
 -1.2053396966703585  2.9196094290235672 15.7738436236256252
 12.8803492188239570  6.8177991703767686  8.9493601329264099
 14.2609953360342843  9.8345188680663682  8.9307671275683678
 18.2757111290355674 15.5645467038163225 15.7309828942956447
 17.3841673924418103 24.3004498720676025 15.7733137881126115
 15.4666333874047481 21.5963950665267994 15.7461851557699735
 17.0387002263195662 15.8744335808800461  8.9825992083977138
 18.4457458056783814 18.8872720090762520  8.9935352627365415
 13.5634859143060460 18.8872720088817729 15.7235703462654026
  6.7827215754175540  0.5145230468927330  8.9839855184634363
 11.6625228190027261 16.1761899233204360 15.7228687231850230
  8.1732388329594023  3.5187507942438665  8.9940271736896999
  9.5682556395738700  6.5174173237227198  8.9825992070983229
  9.7497877204058128 13.4657154114855668 15.7285706303107276
 10.9570365850139098  9.5247880421517390  8.9632874898261932
  7.8297598617558268 10.7535300105837166 15.7195255317524136
 12.3410858419254055 12.5429391573090481  8.9645415619093320
 15.6427917453133354 12.8558854780415501  8.9493601331227666
 28.5313022933753793  0.2141391750486001 15.7733137886373793
