Se W 
 1.0000000000000000
    33.6842383355478532    0.0000000000000000    0.0000000000000000
   -16.8421191677739301   29.1714061057140839    0.0000000000000000
     0.0000000000000000    0.0000000000000000   24.7171056087856371
 Se  W  
 412 206
Cartesian
 32.2925591448814870  1.1850399316338751 17.4249811924707600
 13.6505823339939951  9.1075191520344152  7.2917221980188787
 12.5072405702242584  5.9980330846615040 10.6559433810245299
 12.5116254538323730  5.9967092498489603  7.2931164656064595
 11.3688420448012089  2.8845629873874077 10.6513963903043916
 11.3675851835111317  2.8795926325377685  7.2926025430238655
 20.3577518214527124 19.0284265488786772 10.6521986196895728
 20.3620908651460972 19.0258373041231934  7.2935949282941852
 19.2175450051308054 15.9107441515995109 10.6550687844640937
 19.2154355316300745 15.9060233686006942  7.2915552335076850
 18.0611165388926089 12.7945976907469046 10.6505572826033514
 18.0676866719080067 12.7958954521816892  7.2917221980188787
 16.9238770278116668  9.6765991127368967 10.6332243759879024
 16.9238770278116526  9.6765991127368700  7.2905479370834110
 15.7851148872312823  6.5600656249369393 10.6511463785740617
 15.7802737863070117  6.5559893228952504  7.2929832954499014
 14.6317513660626464  3.4434148633395947 10.6561435759314982
 14.6313963710875434  3.4473175293134091  7.2935796750493926
 22.4816609195612287 16.4679541458117029 10.6515974020840929
 22.4786661440359374 16.4748128818883188  7.2930431094188366
 21.3389750693781828 13.3530867529925032 10.6552304831309623
 21.3374615503913283 13.3570328566727454  7.2917782596427996
 20.1922552703615388 10.2486689140025451 10.6511463785740617
 20.1982060018980611 10.2465145488200005  7.2929832955083436
 19.0555232498343834  7.1327215172966172 10.6505572825874584
 19.0533620774459322  7.1263827342134700  7.2917221980188787
 17.9002597001255275  4.0147682284294302 10.6552304832539200
 17.9044338857497038  4.0141059224663120  7.2917782596427996
 13.6549912950220289  9.1024781298827424 10.6505572826033514
 16.7560646218119729  0.8958257130353202 10.6353437638107717
 14.7931512952638826 12.2272934666397504  7.2929832955083436
 15.9431247104420546 15.3376659950864411  7.2931164656064595
  7.1080194989555157  7.9745081992113569 10.6521986198135874
  7.1080923292549123  7.9795605438383701  7.2935949282955965
  5.9695166097691832  4.8531403311080359 10.6460032855960254
  5.9635848462475609  4.8590671071161209  7.2924592282483367
  4.8240251522336086  1.7455408629099942 10.6590943194177505
  4.8250570342909578  1.7460080009547132  7.2938915493961094
 16.1053050424278190 24.1209073440495629 10.6590943201744377
 16.1051936547886037 24.1197801388646873  7.2938915493961094
 14.9581875599228891 20.9985854814460282 10.6459139249608050
 14.9557143161848014 21.0062913220627010  7.2930385895386074
 13.8193186915313877 17.8834185894543864 10.6513963901893600
 13.8156426684529805 17.8869922408518640  7.2926025430238655
 12.6718439521670998 14.7782302890136119 10.6561435759314982
 12.6754012575119770 14.7765863908956661  7.2935796750479804
 11.5323963138191772 11.6619423567959615 10.6552304831309623
 11.5297356473359791 11.6586585590319256  7.2917782596427996
 10.3781150643348958  8.5459013296647743 10.6550687842950715
 10.3832581193006366  8.5464348635225242  7.2915552335076850
  9.2353194312024112  5.4315157878745106 10.6353629628969326
  9.2394585987680244  5.4309849722601102  7.2908830823447932
  8.1015939451146135  2.3132689131427147 10.6459139249003929
  8.0961571133368242  2.3072741009526672  7.2930385895386074
 18.2238193973534877 21.5750829078843758 10.6460032855960254
 18.2319180181364189 21.5772565776559162  7.2924592282483367
 17.0918058257258920 18.4576269722415702 10.6353629634403060
 17.0892765420439758 18.4543077559008850  7.2908830823447932
 15.9464636268895799 15.3408014980460070 10.6559433809038833
 14.7942609257283468 12.2210627993142431 10.6511463785161258
  8.2590566452858099 11.0880807154977958  7.2930431094188366
 16.7582094673222670  0.8988165762145381  7.2908430771138075
 23.4648334547862021 10.8058934179971189  7.2935796750383224
 -12.6728457492338471 23.5573531611053752 14.0592831289427753
 -5.1500339790207059 28.0869949557312069 17.4228733487237513
 -5.1501416184363675 28.0852645958530687 14.0563686516555268
 -7.2716121536235914 25.5383733871706937 17.4251274952376036
 -7.2719157497967180 25.5317277328535859 14.0775409434707246
 -9.4065696007668915 22.9864366531536177 17.4252791865835732
 -9.4074858918056403 22.9930546551180761 14.0775583249144329
 -11.5278340114344466 20.4382851638226590 17.4251107902261317
 -11.5302649465846017 20.4391044622163882 14.0575808535277496
 17.0895445883104529  0.8988165762542616 17.4262625316718065
 17.0916894338073568  0.8958257130227715 14.0817618452027631
 -1.8854395095624672 27.5186906446128958 17.4245638091877169
 -1.8857676826407335 27.5259795485497811 14.0713661103484320
 -4.0036479794955699 24.9696980565626028 17.4246938035162806
 -4.0074782209223132 24.9659406240482404 14.0603873994302155
 -6.1310268797569147 22.4160474420239488 17.4240768443865335
 -6.1365660193319016 22.4158993709029417 14.0688718008832190
 -8.2580898672536431 19.8699668579412894 17.4235584748904557
 -8.2601303535410029 19.8741414758672512 14.0603219092606100
 23.3006619372905170 17.3280434040949380 17.4249015079182605
 23.3079564311797647 17.3261795796398665 14.0656212178742752
 20.3618297049513011  0.3284192410059810 17.4249015079182605
 20.3565683387384091  0.3230339362227692 14.0656212178616240
  1.3892806441701884 26.9465765967226396 17.4239267698798592
  1.3832522044353144 26.9499609537775449 14.0708384170031824
 -0.7363068741991802 24.4031019001128833 17.4243865113817513
 -0.7363872109898062 24.4067233205196032 14.0587027896600176
 -12.6745590917154338 23.5560647569411437 17.4227468317647727
 23.4680357651133633 10.8081521858010028 10.6561435756741112
 -10.5401079284318531 26.1076317836841554 14.0690259569846354
 -8.4179611878190084 28.6538423859081099 14.0603700549997637
 22.3179268862683031  7.6909627551281670 10.6559433808267858
 22.3168809192348796  7.6954220932125192  7.2931164656064595
 21.1759710136415400  4.5731518568486704 10.6550687842950715
 21.1729374324094373  4.5773391061414310  7.2915552334630211
 20.0264710666065859  1.4677395569446827 10.6515974020337953
 20.0339082941631403  1.4669037408922587  7.2930431093021779
 25.5834703472989524  8.2618157610287888 10.6513963902500635
 25.5884032315433529  8.2632124648808958  7.2926025430238655
 24.4445058266412971  5.1406545780979185 10.6353629628567532
 24.4428959426346282  5.1445046101166128  7.2908830823447932
 23.3058597628812301  2.0268625897746291 10.6521986196888676
 23.3014478890050150  2.0243994899852806  7.2935949282955965
 27.7118495784013987  5.7179429437034184 10.6459139249003929
 27.7197596540167268  5.7162319152104804  7.2930385895386074
 26.5782950760676542  2.6015740995442478 10.6460032855478648
 26.5761282190461401  2.5934736534576719  7.2924592282483367
 29.8423008889060952  3.1633491312986259 10.6590943196789940
 29.8413803944116935  3.1640091983707492  7.2938915493961094
 31.9621240549688999  0.6127095672320407  7.2921244163198962
 32.3004960595129802  1.1850971241163235 14.0758038934276382
  1.8856300007108318  0.6127095672604728 17.4249811924707600
  1.8817110733063371  0.6058074014421427 14.0758038934276382
  5.1518263071135006  0.0470996413418414 17.4248021771177868
  5.1501520221114330  0.0455467453315264 14.0568592811532476
 -13.8173629735258494 26.6662819759297030 17.4233402104036763
 -13.8200151244839322 26.6656014672679014 14.0630328102720021
 -8.4201297371576143 28.6525196569765725 17.4236893946434570
 -10.5486167293682396 26.1085475190939533 17.4243697815805945
 -2.8632542572605177 21.8584930307623644 17.4241248505161295
  8.2634990968941153 11.0941036352099793 10.6515974020337953
  9.4034104018994960 14.2123156195537899 10.6353437637911892
 24.6084934736151517 13.9220180651192145  7.2908430771138075
 -1.2197364842476852 26.9499609537477554 10.6462671917806748
 -1.2257649240820250 26.9465765967476756  7.2931788388482213
 -2.3716884614845850 23.8369123928133320 10.6616437502260819
 -2.3719308185811410 23.8379977926754592  7.2949392286916419
 -3.5149172200867085 20.7160776040475909 10.6535783746670631
 -3.5195182138704095 20.7218105147417191  7.2929807582695014
 -4.6629168564509458 17.6057744771748048 10.6584028186280815
 -4.6597404459893736 17.6075156136982649  7.2927190974038787
 -5.8056055471720072 14.4984940795371351 10.6462671922839114
 -5.7996603879590465 14.4949654765164979  7.2931788388482213
 26.7406477419147635 11.3805838224594407 10.6514843909096406
 26.7386146145017278 11.3733346932464237  7.2922041008673961
  2.0492834026721556 27.5259795482767622 10.6457394982779885
  2.0489552297662481 27.5186906445956936  7.2925417996569735
  0.8999029310384367 24.4067233205175036 10.6584028191256230
  0.8998225942528333 24.4031019001433762  7.2927190974038787
 -0.2524809069385541 21.2867374146503963 10.6412847654603677
 -0.2491794154298851 21.2924261522618998  7.2921016012827424
 -1.3847378834323036 18.1677737512807340 10.6412847654603677
 -1.3913152205659862 18.1677885582159249  7.2921016012827424
 -2.5336504213521898 15.0573986842595797 10.6616437502571166
 -2.5344692266993110 15.0566460969684588  7.2949392286952364
 -3.6789150880007009 11.9392438755119006 10.6567837000198331
 -3.6815101700879507 11.9430982974856832  7.2935471340561309
 -4.8247100861329484  8.8247427509486318 10.6595247554009394
 -4.8242041518017924  8.8272576518235581  7.2919948185595045
 24.6121560599490117 13.9216560056955156 10.6353437638265156
  5.3136573385038490 28.0852645958556515 10.6607369571119932
 -7.9324857642247073 17.0448992959745560  7.2925417996569735
 -6.7840976637458423 20.1538179354415696  7.2924118052679301
 17.2583301050843616 27.2388928129763777 10.6413017152887761
 17.2543121177457230 27.2320478393853378  7.2921244163198962
 -13.1609766721528789 27.8070895505897902 10.6540727985648971
 -13.1602399345612344 27.8044524661238484  7.2937653983819493
 19.3777505402485666 24.6884702485136422 10.6602463275098120
 19.3772428354438233 24.6862438271816984  7.2923034316678370
 -9.8955699903329943 28.3677358821222221 10.6578224796392274
 -9.8953108707913788 28.3698638824197857  7.2943587769696512
 -11.0378071536472540 25.2455914387985025 10.6480796517498444
 -11.0428546041992099 25.2525024086069934  7.2927358272002101
 -12.1818168483890101 22.1346531495929710 10.6567355535343609
 -12.1817556061776049 22.1371925327546819  7.2934162141421917
 -6.6237970004106597 28.9373562307649621 10.6595247554735728
 -6.6218719995932345 28.9356606283228110  7.2919948185595045
 -7.7741932203148405 25.8220005462785274 10.6395472846771142
 -7.7680037168050138 25.8245160158132379  7.2918264222020843
 -8.9049635263866538 22.7032060130724886 10.6395646653359890
 -8.9105670336700147 22.6996202637066311  7.2919781135480637
 -10.0555042535111578 19.5889272824289158 10.6607369563722525
 -10.0569489693379488 19.5879688840518682  7.2942322600694744
 13.4911857169507687  0.3230339361110921 10.6514843909233896
 13.4859243507136455  0.3284192409920866  7.2922041008673961
 -4.4994574055102152 26.3878180925158929 10.6567836995250307
 -4.4948218371348254 26.3881382885335647  7.2935471340561309
 -5.6389021458659094 23.2778784848145968 10.6482338077076921
 -5.6362608094193654 23.2730074138263952  7.2930287643991081
 -6.7827587523719179 20.1590137382361192 10.6567182090519399
 -7.9389622262561748 17.0415390503081277 10.6457394982779885
  9.4049281425410793 14.2089626969558598  7.2908430771138075
  5.3135496990582158 28.0869949557036129  7.2942322599484628
  4.1671636995706214 24.9696980565600981  7.2924118052693414
 28.6959277484543591  0.0470996413469532  7.2923034316678370
 10.7036236486444096 26.1076317834730212 10.6480796517646343
 10.7121324494394337 26.1085475189784830  7.2927358272002101
  9.5710016123169854 22.9930546553442774 10.6395472847939967
  9.5700853209520496 22.9864366532480098  7.2918264222020843
  8.4236460736124776 19.8741414759125767 10.6567837001570265
  8.4216055873332252 19.8699668579081923  7.2935471340561309
  7.2706156116106833 16.7527484100328579 10.6462671917293772
  7.2706988922400066 16.7596613706452189  7.2931788388482213
  6.1349524040091792 13.6336848451587738 10.6457394984372087
  6.1288041144020440 13.6376135032326182  7.2925417996569735
  4.9871204950504948 10.5270115655947034 10.6607369566195587
  4.9886728503616542 10.5262396041624093  7.2942322598294087
  3.8456135205248194  7.4127079083915044 10.6567355537907495
  3.8433837290629898  7.4114912541934705  7.2934162141421917
  2.6962785096285087  4.2957803443172606 10.6602463275784096
  2.6984604995164689  4.2964538697010743  7.2923034316678370
  1.5472579960489035  1.1850971241100388 10.6413017162705099
  1.5551949107370857  1.1850399316212616  7.2921244163198962
 13.9835308445478077 26.6656014670380621 10.6540727985763635
 13.9808786936047333 26.6662819759922911  7.2937653983819493
 12.8363614692874695 23.5573531611396803 10.6578224799652759
 12.8380748117353711 23.5560647569441386  7.2943587770205900
 11.6937806666632724 20.4391044622202216 10.6595247554215309
 11.6913497315122150 20.4382851638026892  7.2919948185595045
 10.5397976243821034 17.3261795796308995 10.6514843909728523
 10.5470921183227517 17.3280434040391746  7.2922041008673961
 28.6976020335043707  0.0455467453376371 10.6602463275541570
  4.1709939410243271 24.9659406238599288 10.6567182093547199
 -0.5753651789114288  3.7304690018131801  7.2937653983819493
  0.5759957349424475  6.8401535163235270  7.2927358271467355
  3.0195046342681002 21.8573749083866211 10.6535783747916302
  3.0267699774953334 21.8584930306123546  7.2929807582691257
  1.8824923704726297 18.7466922783533931 10.6412847654603677
  1.8857682161562372 18.7409887333724008  7.2921016012827424
  0.7406861659724966 15.6277509314529066 10.6535783748394621
  0.7380218166239074 15.6208998986185321  7.2929807582695014
 -0.4159060130347119 12.5074255879668073 10.6482338079006329
 -0.4130082104986584 12.5121485880298557  7.2930287643991081
 -1.5515348116266807  9.3861482424423794 10.6395472838009066
 -1.5568080238910647  9.3902507749209558  7.2918264222020843
 -2.6955178986676009  6.2761144005187939 10.6578224799652777
 -2.6974903608629193  6.2752748045246651  7.2943587770208831
  8.5814769080161035 28.6538423858800009 10.6567355537907495
  8.5836454572361944 28.6525196569772298  7.2934162141421917
  7.4354314700829285 25.5317277326904666 10.6395646652247837
  7.4351278735203348 25.5383733871859455  7.2919781135484794
  6.3000817394254662 22.4158993711199379 10.6482338077049050
  6.2945425998321092 22.4160474419917293  7.2930287643991081
  5.1506124630080379 19.3068923669205255 10.6616437502334716
  5.1516736253884776 19.3065595542913258  7.2949392286952364
  4.0082875054346063 16.1887056461675272 10.6584028191402140
  4.0051914318450867 16.1905859300990400  7.2927190974038787
  2.8570383913740147 13.0762490818465391 10.6567182091056818
  2.8622075443543076 13.0776874518739685  7.2924118052693414
  1.7148056364533950  9.9662696982466876 10.6395646648280966
  1.7207127401381996  9.9632097932604644  7.2919781135480637
  0.5794570852098085  6.8479802216903654 10.6480796518005896
 -0.5772805923012223  3.7285124262324856 10.6540727984432930
 -2.8559889142451187 21.8573749084140623 14.0635272341185775
 31.9660429821137342  0.6058074013338702 10.6413017152953095
 -4.9881579053296621 19.3065595542837301 17.4221663799718591
  8.0960014842149519 17.0448992960887260 17.4245638091877169
  8.1024779466746164 17.0415390502133022 14.0713661105076522
 12.6717830419427795  4.5731518567690186 14.0620368241723401
  5.9631761080059906 14.4949654764838058 17.4239267698798592
  5.9691212671823477 14.4984940800801407 14.0708384170558034
 12.6748166232918535  4.5773391061612543 17.4255503752779184
  3.8450258901456560 11.9430982974856779 17.4235584748903811
  3.8424308080973502 11.9392438755066781 14.0603219092692715
 14.7922308054787059  7.1327215172146525 14.0665483261822892
 10.5463061666420383  2.0243994901872240 17.4235106804914501
  1.7203237440029140  9.3902507747922499 17.4252791865833636
 14.7943919780197799  7.1263827341688257 17.4253834107667664
 -0.4124800149660370  6.8401535162607656 17.4243697815854404
 -0.4159413651456323  6.8479802216284886 14.0690259569846354
 16.9238770278116810  9.6765991127368505 14.0838812311077319
 31.1492935561068549  4.2964538697010717 17.4248021771177868
 31.1514755460415387  4.2957803443153573 14.0568592807845469
 16.9238770278116846  9.6765991127368718 17.4265576717022022
 17.7425604008237343 24.1197801388695012 17.4232140593895224
 17.7424490132584403 24.1209073439948796 14.0580112890871884
  1.7150505317310225  9.3861482425089591 14.0775583250149907
 19.0534931292815450 12.2210627993621888 14.0659592302694119
 10.5418942927414623  2.0268625897415844 14.0649069889719023
 10.2204646894459543 19.5879688840235424 17.4228733488447745
 18.0626391685053100  6.5600656248174900 14.0659592302115790
  2.6971661414360044 15.0573986842596295 14.0554618596448950
 18.0674802693191303  6.5559893227793742 17.4241223132773051
  0.5765239304405274 12.5121485880119341 17.4240768443865335
  0.5794217333588865 12.5074255879562841 14.0688718008249705
 20.1927627606053512  9.1024781300961362 14.0665483263050319
 -1.5571970198396687  9.9632097932070351 17.4251274952371880
 -1.5512899163696190  9.9662696982466965 14.0775409434456602
 20.1971717215707827  9.1075191519641283 17.4253834107667664
 10.2190199735735163 19.5889272824289193 14.0563686516004989
 -3.6798680089875453  7.4114912541871840 17.4236893946434570
 22.3153577418501072 11.6619423567104530 14.0618751254998919
 16.5934419378054159 27.2320478394319281 17.4249811924707600
 16.5894239502791301 27.2388928130317254 14.0758038933968628
 14.4705112201716233 24.6862438271440361 17.4248021771177868
 14.4700035152996147 24.6884702485150918 14.0568592812314836
 24.4443436537238021 14.2123156195525766 14.0817618449944515
 12.3452713262414200 22.1371925327745771 17.4236893946434570
 24.4428259130822667 14.2089626970175136 17.4262625316718065
 12.3453325684854196 22.1346531495115251 14.0603700552561524
 -3.6820978004256273  7.4127079084203791 14.0603700549997637
 19.0546027603713526 12.2272934666590434 17.4241223133357472
 15.6158360375083873 21.5772565775386624 17.4246463805373040
 15.6239346582053997 21.5750829079317796 14.0711023232935375
 16.7584775136047561 18.4543077558480917 17.4262225264408244
 13.6495480537758702 10.2465145486548082 17.4241223133357472
 16.7559482299066751 18.4576269722494715 14.0817426461121542
 14.6323185238071574 15.9060233685624510 17.4255503752779184
 14.6302090502447317 15.9107441517209622 14.0620368243695903
 15.7866375169593649 12.7945976906377439 14.0665483261981823
 15.7800673837073244 12.7958954521191721 17.4253834107667664
 12.5102925052233402 13.3570328567161862 17.4253273491428473
 12.5087789862395553 13.3530867531262079 14.0618751252419596
 13.6554987851843705 10.2486689140025486 14.0659592302694119
 17.9012904287320431 15.3408014981959973 14.0611622277089960
 10.3797182907581700 10.8081521858288259 14.0609620326825979
 17.9046293451802399 15.3376659952297487 17.4239891431791776
  8.2593508240864661  8.2632124647820966 17.4245030657617797
  8.2642837081496996  8.2618157610946241 14.0657092185958650
 20.0284353642594510 17.8834185897845508 14.0657092185351615
  6.1279944015762338  5.7162319150703764 17.4240670192470333
  6.1359044773420033  5.7179429436921589 14.0711916837671662
 20.0321113871703140 17.8869922409194011 17.4245030657617797
  4.0063736612143659  3.1640091983943819 17.4232140593895224
 10.3829206008514827 10.8058934179383961 17.4235259337473209
 18.8895664960203824 20.9985854813350237 14.0711916837701825
 18.8920397394286965 21.0062913220616707 17.4240670192470333
  0.7407963122497302  3.7285124262031966 14.0630328102207436
 13.4856631904191708 19.0258373043227884 17.4235106804914501
 21.1759101034558732 14.7782302890002608 14.0609620329749490
 13.4900022341564707 19.0284265490411642 14.0649069890960678
 21.1723527979707136 14.7765863908919020 17.4235259337473209
 11.3690879116214649 16.4748128819030519 17.4240624993142852
 11.3660931357720649 16.4679541458345930 14.0655082067518453
  9.2392605820434177 13.9220180650146794 17.4262625316718065
  7.2694589792925308  2.6015740995461654 14.0711023232377759
  9.2355979957406245 13.9216560059206262 14.0817618448575619
  7.2716258365517952  2.5934736534031129 17.4246463805373040
  7.1091394411247011 11.3733346930453383 17.4249015079182605
  7.1071063136931878 11.3805838225545592 14.0656212178616240
  9.4032482291475912  5.1406545780989346 14.0817426460010395
  4.9877198719141234  8.8272576517830998 17.4251107902261317
  4.9882258062084039  8.8247427510642531 14.0575808535665754
  9.4048581129900839  5.1445046100938550 17.4262225264408244
  2.8610060809401023  6.2752748044738738 17.4227468318160099
  2.8590336187393537  6.2761144005366960 14.0592831288955011
 11.5298271693490282  7.6909627551917428 14.0611622278895698
  0.7388808990369246  3.7304690018753046 17.4233402104036763
 11.5308731365994390  7.6954220932125965 17.4239891431791776
  2.6979849467779142 15.0566460969684552 17.4221663799718591
  4.8264325764819871 17.6057744771998266 14.0587027896552641
 22.3180184082781672 11.6586585590685523 17.4253273491428473
  4.0054531667079836  3.1633491312986295 14.0580112890651368
  3.6830339341124549 20.7218105147434777 17.4241248505165025
  0.4126951355329334 21.2924261521912719 17.4250040075028991
  3.6784329401532125 20.7160776040259833 14.0635272341786415
 27.8841692094901035  4.8590671070521338 17.4246463805373040
 21.3405134853671186  5.9980330849650034 14.0611622280105095
  1.5548309406661427 18.1677885582318943 17.4250040075028991
  1.5482536035063021 18.1677737512738844 14.0758208433252729
  2.5352041816129387 23.8369123927979061 14.0554618596448950
 27.8782374458511413  4.8531403304782961 14.0711023229218526
 21.3361286017310974  5.9967092498580019 17.4239891431791776
  2.5354465386337961 23.8379977926642894 17.4221663799718591
 -0.5745060965308909 15.6208998984558711 17.4241248505161295
 -3.8416757117234890 16.1905859301080142 17.4243865113817513
 -0.5771704457481880 15.6277509314344698 14.0635272341185775
 23.4696389912908714  8.5459013296747219 14.0620368242457641
 19.2163576846253115  3.4473175293874836 17.4235259337487385
 19.2160026894051477  3.4434148633299895 14.0609620330625589
  5.8024178659348644 23.2778784848120424 14.0688718007242102
  0.4159966272795661 21.2867374146464634 14.0758208428366824
 24.6124346244019456  5.4315157882601488 14.0817426461121542
 -5.9652883944425268 13.6376135032438857 17.4245638091877169
 24.6082954568677295  5.4309849723208234 17.4262225264408244
 -5.9714366839356288 13.6336848451591273 14.0713661104068137
 22.4801688721706583  2.8795926325377685 17.4245030657617797
 -1.7189766503665882 18.7466922776012268 14.0758208428366824
 10.0588265908292538 28.3698638824236724 17.4227468318160099
 -2.6986918242669775 13.0776874519508119 17.4246938035162806
 10.0590857104148448 28.3677358821512087 14.0592831289390805
  7.9315194368495483 25.8245160156767497 17.4252791865833636
 -1.7222524961642407 18.7409887334414904 17.4250040075028991
 22.4789120108939535  2.8845629873022034 14.0657092185415546
 26.7396617263593335  7.9795605438062891 17.4235106804914501
  7.9377089401553880 25.8220005462203552 14.0775583241359303
  4.8232561660584103 17.6075156136710440 17.4243865113817513
  5.7997765294906793 23.2730074139062779 17.4240768443865335
 26.7397345563920830  7.9745081990857400 14.0649069890967731
  4.6629731256534823 26.3878180925321715 14.0603219095167695
 -3.8447717854005341 16.1887056461453618 14.0587027891488923
 23.4644959362940106  8.5464348634330669 17.4255503752779184
  9.0740827537706448 22.6996202636895852 17.4251274952371880
 13.8138457614286541  1.4669037409242505 17.4240624993142852
 -7.1070998915513703 16.7527484100032602 14.0708384170049658
 13.8212829887866917  1.4677395571306213 14.0655082067518453
 11.2013228738450206 25.2455914386146461 14.0690259569858842
 29.0226970213549080  1.7460080009549244 17.4232140593895224
 -2.6935226713211322 13.0762490817879815 14.0603873997054052
 11.2063703245193835 25.2525024086553636 17.4243697815854404
 29.0237289034575667  1.7455408629099975 14.0580112895968821
  6.9476133838050833 20.1538179354053817 17.4246938035176910
 -4.9870967429373465 19.3068923668589960 14.0554618585224933
  6.7853877196562538 28.9356606283280406 17.4251107902261317
 -7.1071831720643264 16.7596613707603090 17.4239267698798592
 15.9474943554823341  4.0147682282704507 14.0618751252436400
 25.7461601104973603  2.3132689132516742 14.0711916838852478
 13.3244923922132816 27.8070895506516607 14.0630328101580329
  4.6583375571540886 26.3881382885335682 17.4235584748904557
 -4.8251571302968497 10.5262396041679764 17.4228733487237513
 25.7515969422983595  2.3072741009238018 17.4240670192470333
 15.9433201698867446  4.0141059224761229 17.4253273491428473
 25.5886974102812346 11.0880807155474681 17.4240624993142852
  6.9462744723140792 20.1590137381704793 14.0603873997054052
  9.0684792464622621 22.7032060130003224 14.0775409450418536
 25.5842549588518047 11.0941036351184099 14.0655082066005530
  6.7873127204784751 28.9373562307718508 14.0575808535851134
 13.3237556546743718 27.8044524661888666 17.4233402104036763
 -4.8236047749598834 10.5270115655789152 14.0563686518575786
 -9.2410681705239810 24.5910617276163279  8.9655265120160408
 26.0811981801011328  4.1981741181842853 15.7514911914262381
  1.3876781003875807 11.8543104686098690  8.9700249665274221
  0.2479269509488554  8.7312666805826940  8.9655265118992222
 12.9976464502473164  6.4637912070508472 15.7423968859650820
 -16.7603613077361828 29.1242031832129875  8.9645914722148206
  4.6565010157945679 12.4113430428410023  8.9757732635646121
 -0.8984715076031392  5.6173690191218650  8.9758858503840298
 23.9489591009231901  1.6507874589701630 15.7436820469653416
 21.5048757218953135 16.6631373553014548 15.7422732147591287
 -14.6278595411849448 26.5735820839938448  8.9729602458137734
 27.2260728146757849  1.0843308312243805 15.7401052376927506
 15.1205283733636193  9.0168957256883306 15.7492681026446206
  6.9481636613182358 18.6477027978799299  8.9775523618432906
 -8.0960633422103641 27.7142760916713016  8.9736567171483426
 10.3816406474227119 27.9965016742209762  8.9755240853612168
 19.3766946448353892 14.1144894146311923 15.7396291893718718
 -11.3645834208795353 27.1408207463328708  8.9758858503840298
 17.2542314628792646 11.5681965527371826 15.7492681026446206
  8.0973544833712694 21.7577397403018757  8.9708681588535466
 -12.5126249630758775 24.0223110345592126  8.9755240853612168
 29.3553795519797980  3.6308693560017598 15.7414666187728294
  5.8006220791895853 15.5258872260334311  8.9720468687276593
  9.2384147996523911 24.8788750355756711  8.9655265120160408
 19.5407939599445726  5.3334515945711676 15.7396291893718718
 -10.3843787621358672 21.4735447730326712  8.9747876537288871
 -3.8398035379259192 22.6094278090482597  8.9768527747718636
 27.0628013368384899  9.8663603616334008 15.7393922356037983
  2.6965443545295473 23.7448950257122107  8.9761263805733709
 12.0187529354983944  0.8011524697018518 15.7393922358472906
 -4.9880774519415292 19.4926257388490818  8.9761263805733709
  3.8470881496378855 26.8567739893209279  8.9757732634405585
 25.9155213506385280 12.9775531085045071 15.7498399358851859
 -5.1482705207849628 10.7125524617259131  8.9760121953404255
 15.2867648834594316  0.2391297095297737 15.7498399360064418
  1.5525188769954004 20.6327070081222779  8.9679708062966537
  5.4723702117887489  1.9334669980062804 15.7414666187728294
 -4.0033009330943985 13.8302684663157862  8.9775523620263353
 23.7876443544963614 10.4329835891438840 15.7424737162269750
 -2.8647593205423889 16.9419869043514097  8.9757585517683403
 -7.2712169293314677 13.2637603631862966  8.9670484691327399
 21.6693655803883338  7.8827876442900973 15.7423968861094643
 17.4174036540731514  2.7895035939738477 15.7458582076074673
 -1.7208308284958767 20.0579646215232579  8.9679708065007588
  0.5777532343445919 26.2903398035238816  8.9720468687671833
 -0.5740327376097745 23.1813670007691748  8.9757585517683403
 -6.1331017333734525 16.3849764141986185  8.9720468687276593
 14.1470415361290005  3.3542100039853335 15.7424737162271526
 -2.6995891481814231 25.7232321795622205  8.9775523620711191
  0.4135855313896940 17.5105318144074147  8.9679708062966537
  2.5368066775362741 14.9636826793908622  8.9761263806929996
 -4.8271256160632197 28.2736629314834573  8.9760121953404255
  3.6840656381854426 18.0778495386731812  8.9757585519007979
  8.7447837391874490  1.3680916043651168 15.7432546755743399
 28.2088022419292095  6.7475502990403280 15.7432546755743399
  4.8216371688937816 21.1920596106993280  8.9768527747718636
 -5.9675555578641690 25.1634421540267468  8.9708681588535466
 22.6415133922394176 13.5475534677372842 15.7458582076074673
  5.9639039675119792 24.3044065911016212  8.9700249661188014
 -7.1063084878806126 22.0424863842581793  8.9700249661188014
  7.1102212158815234 27.4277695299628768  8.9747876537150049
 20.5227806538654072 10.9944846188638063 15.7434330281673827
 -3.0293584438551155  8.1612627673725466  8.9736567171928527
 -8.2583155854627535 18.9330864117435738  8.9757732634405585
 18.3968712473133458  8.4447050594405173 15.7492681026446206
 22.8070170012022047  4.7699014161349895 15.7466563458410089
 -1.8845253453394553 11.2800215495429033  8.9708681590838388
 -1.5562415587662484 28.8365845011372102  8.9670484687939087
 -0.7365600508843678 14.3997160242598774  8.9768527747718636
 16.2657475422871336  5.9009143937979731 15.7434330281673827
 24.9390267569715647  7.3222372086232133 15.7475334280831980
 10.8773649445156213  3.9124567843513516 15.7475334280831980
 20.6838972833203378  2.2160687476918790 15.7422732147591287
 11.2062406635752492 13.5475534677275267  8.9712474011781804
  7.6007612336058994  4.4853388615099048 15.7514911914262381
 31.6371673050315927  2.5018687043809251  8.9741268152357065
  3.0282750405026095 16.9419869046030556 15.7413470568848499
 28.3753838437731538  1.9334669980039465  8.9756389900128184
  0.9000757709582529 14.3997160242606626 15.7402528337172622
 29.5160975292406533  5.0507699873029201  8.9770003710928972
 25.1029703165166858  1.3680916043363875  8.9738509332113079
 -1.2241623802674737 11.8543104682605964 15.7470806426668464
 26.2469928219495898  4.4853388615174863  8.9656144173594097
 -3.3559154065007202  9.2998891412550382 15.7423179550567607
 27.3869748423495025  7.6056054006881384  8.9734235618203062
 21.8290011201258878  0.8011524696701490  8.9777133731888643
 14.7913752609133375 26.5735820840092920 15.7441453632442752
 22.9703891110047920  3.9124567841150122  8.9695721803311805
 12.6761406831318375 24.0223110345551163 15.7415815233044203
 24.1147718686095871  7.0349992898633031  8.9704492629446388
 25.2648959774231479 10.1505912351990908  8.9748323942766852
 10.5478944822400429 21.4735447728532662 15.7423179550567607
 18.5609891721593350  0.2391297095310715  8.9672656731142428
  8.4218313055389391 18.9330864115865189 15.7413323453450893
 19.7007125194665882  3.3542100040604717  8.9746318925584951
 20.8501076053429983  6.4637912070729575  8.9747087226761835
  6.2966174533753003 16.3849764143653296 15.7450587401173188
 21.9936115770016087  9.5818563289760217  8.9774764196587160
  4.1668166529958865 13.8302684662851831 15.7395532469425969
 23.1350400183899296 12.6927402764799329  8.9712474010712633
 24.2784092063550965 15.8131145202094778  8.9672656731780993
  2.0480410654912311 11.2800215495429086 15.7462374499321012
 16.4303504016568773  2.7895035942244348  8.9712474011781804
 -0.0844112309088919  8.7312666806382033 15.7515790968864255
 -16.7603613077361864 29.1242031832129697 15.7525141374917386
 17.5820065133414474  5.9009143938385265  8.9736725804904083
  5.1515931719623183 19.4926257388419621 15.7409792280926482
  7.2698242081846036 22.0424863840939125 15.7470806426668464
  0.7375484577049285 23.1813670010189483 15.7413470568848499
 -3.5205499180569406 18.0778495386731812 15.7413470568848499
  2.8631048683932505 25.7232321796096564 15.7395532469873789
  4.9906413360688120 28.2736629314737513 15.7410934135736813
 -5.6371063591805397 15.5258872260215632 15.7450587401173188
 -8.9092163481146933 16.1008585794766930 15.7500571398543805
  8.2595790622304399 27.7142760915550959 15.7434488915927950
 -6.7846479412641889 18.6477027981337464 15.7395532469871391
 -4.6581214488221176 21.1920596105809302 15.7402528337172622
  6.1310712779571235 25.1634421543232385 15.7462374499640916
 -2.5330286344531401 23.7448950256777032 15.7409792280926482
  4.0033192578942263 22.6094278090605911 15.7402528337172622
 -0.4142375142175648 26.2903398033620270 15.7450587403553559
  1.7197572789046045 28.8365845013694724 15.7500571398543805
  1.8843465486498219 20.0579646215122693 15.7491348024889941
 -10.0571539968997357 19.2149880505884205 15.7410934134452223
 -0.2500698114294419 17.5105318143927313 15.7491348022848889
 -7.9338387631908684 21.7577397403196358 15.7462374499640916
 -5.8003882474489181 24.3044065912260621 15.7470806426668464
 -2.3732909575387930 14.9636826793929743 15.7409792280926482
 -3.6835724294861860 26.8567739892549113 15.7413323453450893
 -4.4929852958673031 12.4113430429222174 15.7413323452210356
 -11.2071796461532962 22.3256645849410731 15.7434488915927950
 -9.0748990796161308 24.8788750356101147 15.7515790968864255
 11.5280991409692710 27.1408207463272717 15.7412197584036040
 -6.9467054959505781 27.4277695297217576 15.7423179552058556
  9.4045838906450889 24.5910617276188042 15.7515790968864255
 -12.3448127884957497 25.4430136784614795 15.7412197586559159
 -10.2181249273654071 27.9965016744791946 15.7415815233044203
 -13.4852077568518602 28.5527130290763047 15.7441453632442752
 18.7272256824420325  9.0168957256358997  8.9678375061086886
 -2.2127421756741223  6.1823907348673410 15.7415815234244310
 19.8646511683425508 12.1343983255521355  8.9736725804904083
 10.0601097012487379 10.4329835891312790  8.9746318925584951
 10.7127140373333898 12.6927402763449777 15.7458582076075206
 -1.3890031569316137 20.6327070081144690 15.7491348023386131
 12.3428783338406518 16.6631373553111004  8.9748323941618633
  8.5828580782300214 10.1505912352981937 15.7422732147591287
 13.4858612860718594 19.7734044784599803  8.9734235618203062
  6.4607792132241739  7.6056054006102958 15.7436820468606324
 14.6338523132766998 22.8946965196629861  8.9770003712107140
 15.7807306880040912 26.0060474702592650  8.9741268152357065
  4.3316565264585707  5.0507699873302254 15.7401052374589963
  3.3537330901562448  0.5218811633676597  8.9741268152357065
  2.2105867503697501  2.5018687045449846 15.7429787936906020
  4.4923745036987199  3.6308693558403422  8.9756389900128184
  5.6389518135783154  6.7475502990546010  8.9738509332113079
 20.3618927695678131 19.7734044784050944 15.7436820469762466
  6.7849527188628302  9.8663603615708144  8.9777133730804444
 18.2316318949499170 17.2248966320409913 15.7466563458410089
  7.9322327049543873 12.9775531082144351  8.9672656731780993
  9.0727320682465038 16.1008585795380625  8.9670484691327399
 16.1046190528712643 14.6832184868723346 15.7423968861094643
 10.2206697169728553 19.2149880505987163  8.9760121949696536
 13.9831028872767469 12.1343983255850674 15.7434330281673827
 11.3706953664631207 22.3256645849364581  8.9736567170160253
 12.5083285085773923 25.4430136784761949  8.9758858503840298
 11.8541424786326157  9.5818563289757321 15.7396291893718718
 13.6487234770271293 28.5527130291307607  8.9729602457815574
  9.7329821869361606  7.0349992898912275 15.7466563460999076
  1.2244096440103958  3.0749083308406391  8.9729602455735922
  2.3762578957495686  6.1823907348664582  8.9755240853612168
 12.8369451929290292 15.2426037448936427 15.7424737163421895
  8.9087272985103354  7.3222372087372438  8.9695721803311805
  7.7665558754760102  4.1981741182094456  8.9656144173594097
 14.9552393817564404 17.7951033455333629 15.7475334280831980
 18.0670233676487086 26.0060474703238818 15.7429787936906020
 21.0108088627109737 15.2426037450112908  8.9746318925584951
 22.1576772444564654 18.3622845069229932  8.9777133730734366
 15.9438813196034257 23.4654609843311484 15.7414666186568315
 13.1638567723029585  2.2160687476395244  8.9748323941618633
 13.8180451022764998 20.9141554348834084 15.7432546755743399
 14.3069600956760219  5.3334515945294054  8.9774764194137759
 15.4508828084177257  8.4447050596447557  8.9678375058598245
 11.6900768112333555 18.3622845069068390 15.7393922358472906
 16.5935225927330663 11.5681965530391135  8.9678375058598245
  9.5693448491650610 15.8131145202343255 15.7498399357024734
 17.7431350027734780 14.6832184868951181  8.9747087226761835
 18.8925146741073924 17.7951033455346916  8.9695721805304913
  7.4347326493331050 13.2637603630952139 15.7500571398543805
  3.5194311260791489  9.2998891412595235  8.9747876533013855
 20.0297089533352022 20.9141554349481780  8.9738509332113079
  9.8987949545484160  1.6507874591371967  8.9734235619141121
 11.0407370541948779  4.7699014160888025  8.9704492629446388
  3.1928741640351310  8.1612627674464377 15.7434488915927950
 12.1783884753025227  7.8827876442633213  8.9747087226761835
  1.0619872276802649  5.6173690191347871 15.7412197586559159
 13.3249734017396815 10.9944846187337912  8.9736725804904083
 14.4710594107729342 14.1144894146261191  8.9774764196587160
 -1.0608939239349473  3.0749083308205414 15.7441453630040904
 15.6161221606777847 17.2248966322363870  8.9704492629446388
 19.2139017422859553 22.8946965197825527 15.7401052374589963
 16.7580823860162269 20.3462843586248567  8.9656144173594097
 17.9038727360025227 23.4654609841643591  8.9756389900128184
 17.0896716696449396 20.3462843585569004 15.7514911914262381
  6.6216812409806209  1.0843308311794591  8.9770003712107140
  5.3117862409227925 10.7125524617903682 15.7410934134452223
 30.4940209654433154  0.5218811634133651 15.7429787934865484
