Mo S  Se W 
 1.0000000000000000
    71.8432952942982865    0.0000000000000000    0.0000000000000000
   -30.4108358711631936   65.6283595000618760    0.0000000000000000
     0.0000000000000000    0.0000000000000000   24.4856654507443388
 Mo  S   Se  W  
 536 1072 990 495
Cartesian
 31.1858583673622185 52.3434187668029622  8.1998625030473775
 19.8756350602236154 58.1869333510370979  8.8448919478006705
 17.0384324346265181 59.6574581116345684  9.0005199793920383
 14.1971775112719616 61.1311315500537944  9.1288640434887238
 11.3538422635119982 62.6072751566016876  9.2288369442820883
  8.5095798459057601 64.0838391422713016  9.2990555174025875
  5.6652700391659723 65.5610870285662486  9.3384369165102541
 33.2316971959629441  1.4103975032306424  9.3454938457941665
 30.3891408492363411  2.8882784340061889  9.3192346448298160
 27.5480963302447748  4.3655826047340414  9.2599514695839868
 24.7109956972798486  5.8427239453621214  9.1682995696718130
 21.8790198640007461  7.3162326576370953  9.0449784797382566
 19.0521573147879977  8.7864988931274652  8.8963821800098106
 16.2275156244232228 10.2512256199673413  8.7432960206266213
 13.4043365346792065 11.7101693560565820  8.6135151201852285
 10.5813524789910911 13.1651624521127051  8.5305418131339259
 28.5023372480764401 50.6286624678896970  8.4595041803767117
 25.6768598314218721 52.0855028682532009  8.5852613504057587
 22.8496719800150672 53.5463291240655934  8.7409752095810269
 20.0202944938834229 55.0121492865752799  8.9009504137341509
 17.1856325629995439 56.4819380171594005  9.0431359609062927
 14.3462617557812298 57.9551613771507164  9.1575292209027985
 22.7077416284090781 56.7197969043684154  8.6671325385672464
 11.5042294471146889 59.4308267087010620  9.2423510414218288
 25.5358229534873011 55.2574374747627317  8.4829534659340098
 10.4493108906486647 16.3394871623177735  8.7114895004549311
 15.9715014128655870 16.6054614792792563  8.9617459804187263
 13.1461059769160986 18.0615784654899727  8.8990617965226129
 33.8649009967127270 54.0586260659289621  7.9484839683755482
 31.0405199825268490 55.5133126621130444  8.0489260439004049
 28.2157878728795630 56.9699713701992749  8.2137221972513004
 25.3899178808637132 58.4292547305953960  8.4161479367973850
 22.5611507620080651 59.8930930386301057  8.6277513434963513
 19.7268876479261763 61.3608857097509315  8.8252730427744837
 16.8879020975364007 62.8323012817043107  8.9978029723213435
 14.0466497032263469 64.3069676276318916  9.1426795613756475
 41.6146206453640062  0.1552958922406867  9.2583545565929661
 38.7712436415305746  1.6322860487629589  9.3436762050091247
 35.9278155052412558  3.1097063533405853  9.3964100982066832
 33.0861444999803922  4.5886286991586145  9.4144814007059363
 30.2456136326695280  6.0673607105199370  9.3961425366044917
 27.4086918256064926  7.5462998682226123  9.3412471039653955
 24.5753331177750134  9.0233685676196487  9.2499431132899961
 21.7470847971280712 10.4971866797317510  9.1258670749777924
 18.9219527502138014 11.9658563756216303  8.9846625782087504
 16.0975146110823779 13.4283279027309810  8.8532757281713881
 13.2732612179061018 14.8856762329642649  8.7566178439537605
 28.3615820058368868 53.7994713669808533  8.3182604880695123
 18.7965656971848247 15.1454494336788894  9.0671616094499718
  8.6604147470065413 60.9075532393570072  9.2964689055718086
  2.9708820391751565 63.8620248751882755  9.3108304778816500
 13.6812777817752185  5.3620769640813597  8.3609479826865130
 10.8588376312828530  6.8202083241016327  8.1994359586971193
  8.0367089693766314  8.2747814461898592  8.0930238705666415
 25.9424924325537276 45.7388194139691748  8.8357831804082441
 23.1161912470667339 47.1968390151661836  8.9299260082354408
 20.2893479421404273 48.6591098528159947  9.0531267019190516
 17.4611586353310777 50.1270147624222062  9.1814702928873224
 14.6298846981537203 51.5992953820966491  9.2900678500727540
 11.7943916636188568 53.0747991280138791  9.3642285545281929
  8.9550469003127660 54.5526744428355173  9.4008792126177347
  6.1134442639730544 56.0305965379560362  9.4005873437079099
  3.2702202316902924 57.5079639519701402  9.3649019801656515
  0.4268458940714832 58.9853118601129651  9.2959840133922018
 -2.4160102463734643 60.4614982906864000  9.1948514386956681
 -5.2572586550588110 61.9375843036219820  9.0630338669963937
 -8.0961973781690091 63.4120433182249243  8.9020356371420917
 -10.9313481542885320 64.8836389992328719  8.7133379016705437
 16.6502041010016946  0.7233447382170878  8.5015351522584712
 13.8261467125416377  2.1883689785109510  8.2825170017660010
 11.0039567713841322  3.6481965558190907  8.0826600546510434
  8.1818754496705015  5.1035309448007675  7.9302496687458968
 16.5046371907825709  3.8989433790581804  8.5511724062836425
  5.8159541565482042 62.3845997302256450  9.3193628266585282
 19.3313907219198100  2.4311086281089986  8.7424575639301221
 -5.4079111172314978 65.1142543043182371  9.0590336383210968
  0.1262395351407691 65.3386135570738844  9.2707418622682933
 27.6942583575698400  1.1874118257043849  9.1992408720648076
 24.8547427748603162  2.6637947980131211  9.0978842528424124
 22.0185619467931097  4.1374189609925596  8.9671211663988384
 19.1884348276703918  5.6082469870131595  8.8096677272870352
 16.3634127828794398  7.0749415493586012  8.6379421606551592
 13.5402116955808207  8.5356472432338144  8.4771685690635632
 10.7176870356265095  9.9922630487367528  8.3549438771004070
  7.8951970801320179 11.4461183022317741  8.2919964622264093
 28.6382071030841523 47.4570425036639989  8.6207597290483520
 25.8121957854621868 48.9127645399354378  8.7069061958528575
 22.9857539817535290 50.3723299863406737  8.8329127071386253
 20.1581463105618823 51.8362400845312337  8.9758854184259889
 17.3273582691102455 53.3055373806102679  9.1102793464067009
 14.4913544235685130 54.7781111191562928  9.2178331316798854
 11.6516925930339728 56.2534860693714052  9.2924802301632106
  8.8099966753811199 57.7308892742868309  9.3340244675112238
  5.9660178851102934 59.2080171992829492  9.3421242696310518
  3.1215713977602295 60.6853982982830971  9.3179530950455671
  0.2766298046424420 62.1617672863929940  9.2620967751770742
 -2.5665558762641405 63.6384510321170751  9.1754925976022292
 22.1649578897185933  0.9603366022523057  8.9143007288371940
 21.6212441195895515 13.6793208705260518  9.1959898009173973
 24.4471450867767714 12.2065734678402933  9.3217923258371620
 27.2768376601918092 10.7299248419116786  9.4206536478436096
 21.1409376451614683 26.4049826080797168  9.3303754916500914
 18.3131147125137730 27.8624761506663923  9.2996633001526767
 38.9135519718721881 63.8428990738515054  7.4386901805229879
 36.0881336764959570 65.2930425254006934  7.5729119257789712
 63.6767975864539721  1.1153846274572981  7.7952778339964848
 60.8570436691706504  2.5691025399503586  8.0719425568213499
 58.0362532991880613  4.0273434847112082  8.3700182541444850
 55.2122282535706219  5.4904308861879807  8.6616303334414475
 52.3845786944400800  6.9600384490041334  8.9270232111303383
 49.5545581770769346  8.4354413761758167  9.1581444626136914
 46.7230668730958811  9.9142787643577677  9.3524873953527852
 43.8903768071864917 11.3959620158866120  9.5070298758526341
 41.0574888858623197 12.8790570780609599  9.6189590409488037
 38.2251621265654862 14.3635585817931872  9.6857548944857168
 35.3936023331397820 15.8482410036082566  9.7069136274243260
 32.5643342077004121 17.3329527125103589  9.6839374089857575
 29.7372362641206003 18.8143068364744828  9.6201024940017312
 26.9120186999093711 20.2908204772385474  9.5234160955022134
 24.0864918030578714 21.7609301134462179  9.4140353015413805
 21.2602975100773541 23.2244606602943051  9.3191105486344803
 18.4328466243257765 24.6831163174349122  9.2596420425724997
 23.9683022463160782 24.9442572623464613  9.4034356581233443
 36.2386729439823583 62.1196253367014180  7.5390857030638596
 26.7941243869939250 23.4778713460278325  9.5037318125021724
 32.4451007264749052 20.5255015560577156  9.6851382485305848
 40.8073314864034558 19.2629355675373510  9.7056455439058862
 37.9793434302366748 20.7496818281538644  9.7287193356177966
 35.1529201417289059 22.2358641067386706  9.7095178659160233
 32.3271392196341409 23.7182527569621087  9.6506189713512569
 29.5018636341058382 25.1948387517205354  9.5603216321895257
 26.6760771841043791 26.6639564074327353  9.4592402544305116
 23.8489694739261147 28.1263401711298826  9.3749982295106875
 21.0212223998342402 29.5851577907792773  9.3273263852456640
 69.1741385921319107  1.3887377585522218  7.5102298318756402
 66.3508686269114776  2.8377400215226842  7.6894397779941137
 63.5312898449446948  4.2883891390673829  7.9405875850272771
 60.7133822054497116  5.7428722850270306  8.2302230140664481
 57.8941346399384855  7.2021872015320740  8.5293370327801803
 55.0721813519189567  8.6680417530888896  8.8140948489832756
 52.2471121119629345 10.1403867210830274  9.0673676925955711
 49.4198240765204488 11.6187784349417722  9.2824368477342887
 46.5912545937985385 13.1004490658494941  9.4572309106715267
 43.7615105159939546 14.5842640729194954  9.5902528388928179
 40.9310609703653299 16.0693457816545333  9.6801111949543426
 38.1009972455733532 17.5555961078585092  9.7255107129902250
 35.2723058526464754 19.0412054233986332  9.7265982971698932
 29.6193479465443481 22.0049944338041783  9.6062489982937738
 33.4149347467784992 63.5713673554068990  7.7168242120567152
 30.5926735731144817 65.0253702412929471  7.9632092283602613
 58.1815253345356354  0.8547947102272377  8.2441925496608164
 35.6482883630385743  9.4715637739199927  9.5748867582065937
 32.8128711110997244 10.9529199034864657  9.5862784613647758
 29.9808073832214923 12.4353928604108699  9.5541884633702807
 27.1511758083428063 13.9157481693826668  9.4811290736187264
 24.3248959995467260 15.3915936624879190  9.3740467649353079
 21.4992577974237342 16.8610729290584658  9.2518357666566100
 18.6737193886325414 18.3247115372453280  9.1416871152639612
 15.8478960051186828 19.7830750923633971  9.0655231766855966
 33.7162540216988518 57.2283781644352416  7.7988801597336588
 30.8918445311253151 58.6834937657416376  7.9517133856007991
 28.0672617870255579 60.1403604403233274  8.1613826500859421
 25.2415940612550536 61.6012661028209436  8.3986297785771296
 22.4117630319709242 63.0658772388633579  8.6353516112104973
 19.5762236690990221 64.5344521078871480  8.8517010192303278
 47.1488070843145195  0.3791882642659906  9.0405490158286490
 44.3088263037975594  1.8550129159163022  9.1996029906559400
 41.4675761490448878  3.3324570351208922  9.3276255724032389
 38.6256737398337364  4.8102749754972818  9.4224560207578296
 35.7848559555571484  6.2890548370452120  9.4816925389745297
 32.9456824851696481  7.7689608030501072  9.5019998787287481
 30.1096050503414041  9.2495792321551136  9.4816840257704484
 38.4858952166521817  7.9905431733783727  9.5199654806910559
 41.3249722272499866  6.5113009450139208  9.4241922008785899
 44.1638502586530279  5.0325793517103694  9.2911133258097767
 47.0020427980912885  3.5550399212429613  9.1236332458180378
 55.3560596382275278  2.3164934586416703  8.5295879409934141
 52.5267264046007156  3.7839026482128784  8.7956668191304477
 49.6941768578113710  5.2566344163167313  9.0314836308233666
 46.8598580956384936  6.7329264552331241  9.2339436623065261
 44.0243623720489339  8.2123251600074205  9.4007845021928524
 41.1882682607618733  9.6928618686698940  9.5286638894988336
 38.3528560290300859 11.1747057993618348  9.6141263956875438
 35.5184162091034992 12.6579875388593912  9.6543661586672815
 32.6864649313570013 14.1414250639891179  9.6496353941278716
 29.8571443634485902 15.6239643739445526  9.6019628710158695
  5.3594790618606316  6.5563950193410001  7.8520498096828586
 27.0303737166889704 17.1031255324289901  9.5161517374731854
 21.3792904993757702 20.0429724539275718  9.2930182226924867
 18.5527717307663096 21.5039311793660204  9.2064936859854694
 15.7260796408120047 22.9612021491615934  9.1613075592246851
 36.3902149624409006 58.9463512952988538  7.5935670838511653
 33.5654677047729066 60.3993260716235909  7.7182429047375800
 30.7420465511712848 61.8543237232495500  7.9212309472973796
 27.9183356453513483 63.3112109399823595  8.1711312156388836
 25.0926746238485805 64.7729769301073901  8.4373701105540384
 52.6729937853581234  0.6100599125452818  8.6935250553931240
 49.8389312582730568  2.0806294658385043  8.9238474677343742
 24.2050296031707894 18.5767669693862310  9.4046933061775171
 43.6350792683216042 17.7765460246236806  9.6401986596313396
 26.0694432257721331 42.5636840466632336  8.9652325244390223
 20.4154684170965446 45.4808037441134658  9.1244779029799190
 -4.1615650210246784 36.4468213748340801  9.5289401342689946
 -6.9817781632244014 37.9295560104638341  9.4692442108803050
 -9.8003758610208997 39.4116323303542799  9.3744767480059128
 -12.6173161131453782 40.8915591696655625  9.2480134435110859
 -15.4331044585699679 42.3690592809489885  9.0945280200341827
 -18.2476526112023905 43.8433927768004068  8.9178243947472158
 12.8989754390467191 24.4166800828275612  9.1641795014851315
 10.0722746696141154 25.8745745844321000  9.2102932994397584
  7.2474563241817194 27.3375467271463357  9.2839768875255295
  4.4252885131374819 28.8072507729128624  9.3616022927539433
  1.6046615954800418 30.2842171199690249  9.4225795136072481
 -1.2148160020369103 31.7651619203791249  9.4570703562856977
 -4.0332713488615379 33.2475281820902708  9.4614033439924299
 -6.8508341161296817 34.7296259904043154  9.4346985792382103
 -9.6675947247461416 36.2110594113945439  9.3777230714873259
 -12.4831079648299426 37.6911609667803944  9.2919180484686343
 -15.2972836095700959 39.1699152440493634  9.1807108371611559
 -18.1106434324663041 40.6464169660373216  9.0483199539012791
 13.0215525544880268 21.2384448566067903  9.0362896747294101
 10.1955820193179001 22.6940102792102607  9.0564137763555603
  7.3710964197129041 24.1530300481112867  9.1163586178136331
 -1.3403741330409471 34.9632838040970242  9.5518747181433810
  4.5490830584114716 25.6176213412180012  9.1956048329441789
  1.4809998523052308 33.4795683111312314  9.5391828100776159
  7.1259374817033967 30.5245227898469231  9.4248241251450633
 -15.7091435104124155 48.7549084674600408  8.8385440167931364
 -18.5270978528746291 50.2221735851360904  8.5835381184303721
 -21.3440958102546716 51.6836553600269895  8.3151690487747434
 -24.1606148447535283 53.1407194200740562  8.0523713862135349
 15.4847954852023157 29.3189374088236576  9.3165260391902045
 12.6574272134066614 30.7784339609244277  9.3739724100015867
  9.8309018385492077 32.2427479026544646  9.4549504981888841
  7.0060995422731276 33.7144751638839963  9.5345379237102197
  4.1816894124664845 35.1928880683453613  9.5920840802920520
  1.3580838481039845 36.6759922973581638  9.6174192172813751
 -1.4659492795277451 38.1607172098789604  9.6066703222147627
 -4.2900300678861010 39.6448651328465829  9.5563943111008900
 -7.1127164913535754 41.1280222741132846  9.4658465312779185
 -9.9337038266201745 42.6097135016162625  9.3369649794265825
 -12.7527591476777413 44.0890879224773471  9.1735687185014783
 -15.5702145733247939 45.5646488915209531  8.9799907631057092
 -18.3862659551274561 47.0355986739439018  8.7612327696290357
 -21.2018352810070176 48.5018142413038831  8.5244394618451711
 15.6051751744788660 26.1396863657310980  9.2460435336819131
 12.7776493417713581 27.5964952980294207  9.2782169002357655
  9.9510786104116313 29.0574806730472162  9.3448203163730383
  4.3030962217415114 31.9994197363951827  9.4946235858997863
 -12.8894918375668599 47.2818854725032125  9.0680821526348545
  1.7295268020834014 27.0903900043299046  9.2697883256030380
 -3.9044913776506962 30.0480030655254211  9.3571723488966771
 -15.0290853166370599 32.7657234850275572  9.2703753005985590
 -9.0032066335414616 20.2070893628427797  8.9294397559908578
  7.6257205592153907 17.7931469007907843  8.7221818241706472
 -6.1908166161882141 18.7368490665726632  8.7800263462994010
 -3.3779770611515674 17.2700467983067263  8.6275386156778779
  4.8043521062042558 19.2498881707599452  8.7800940301708224
 -0.5636636611142425 15.8084409647872501  8.4837901007210768
  1.9853944122577301 20.7114749267556171  8.8666310788740841
  2.2534268383661611 14.3516278116092035  8.3665714180584523
  5.0734749278081921 12.8980707775682504  8.2973479706899340
 -0.8304068331653029 22.1800736262679017  8.9610920512186887
 -9.1373460760330829 23.4053437382569811  9.0759138759507660
 -3.6447554857075573 23.6528849097075238  9.0510224990523156
 -6.3252894369698618 21.9311129298321426  8.9690624301799726
 -3.5122819098081051 20.4593886067130413  8.8532410794258158
 -6.4580057611800452 25.1284403644299665  9.1303998668681352
 -0.6982346648671048 18.9917676109028939  8.7346395696724990
 -9.2705825838893539 26.6057472323039406  9.1953824484256579
  2.1177610159040614 17.5292516177216804  8.6248201333537473
  4.9366343593914959 16.0719653974289933  8.5423116447202272
 -12.0831347705429444 28.0837985748483447  9.2431900894049353
  5.2142705734032688  9.7266918853018165  8.0604888835073201
 -1.0881455932362651 28.5677724921111675  9.3250675254684872
  2.3933062169727637 11.1779709994263001  8.1062322781675498
 -0.4260395961241921 12.6303839069875750  8.2190530738978911
 -6.7204132935457013 31.5289327750575872  9.3649778936944497
 -9.5353077090983778 33.0093845201288616  9.3479400577047684
 -12.3495863628778366 34.4894648733488012  9.3057635020458260
 -15.1627580445149093 35.9685500329840053  9.2393739162228279
 10.3208994356831969 19.5156015878693125  8.8885191049666012
  7.4971656570078498 20.9714411406659167  8.9272622022836750
  0.0073250835026153  3.1123149002408161  7.5393792610721366
  4.6750209417182358 22.4317178471378185  9.0001855257887957
 -2.9615766000748391  7.7339910708930670  7.8744968652951917
 -0.1400540090798452  6.2844250030917888  7.7227599266514853
  1.8562691968151941 23.8990904914428199  9.0833726228718188
  2.6834214328610408  4.8352341001740440  7.6590497939816187
 -0.9603330889134366 25.3723308244932220  9.1588704756713035
 -3.1030815270802270 10.9080939900619907  8.1214623183314316
 -0.2848301877033733  9.4564563197263052  7.9579276826090926
 -3.7752500602078536 26.8494106406227502  9.2196406109636833
  2.5365541898470489  8.0064395258363472  7.8626082789523792
 -6.5891978275591425 28.3282286807049601  9.2629173859275529
 -6.0549971713052209 15.5474143164721745  8.5648820530026324
 -3.2416302681538416 14.0863273715645470  8.3793157636357591
 -9.4030795179474769 29.8070440584719663  9.2865648155508396
 -12.2161828775229466 31.2868264578557884  9.2891390575236130
 -10.0679057053710554 45.8042297619063348  9.2646039060274461
 -7.2443090340829785 44.3238253470798469  9.4236421893631785
 -4.4189239269817646 42.8405943579168778  9.5424468153853681
 -2.1225285584426987 54.1059695281674067  9.3428107334968367
 -4.9605125301586890 55.5833950987930123  9.1946721021767814
 -7.7970424333888246 57.0595717599229957  9.0130450295525026
 -10.6315916661786662 58.5331017032648475  8.7999923623623282
 -13.4627904101470914 60.0033629005853513  8.5574593560957943
 -16.2887094452177195 61.4681964295666248  8.2926739637850098
 -19.1104523882413240 62.9294551842283454  8.0264376674905797
 -21.9306776529102905 64.3867553545416484  7.7881833090805266
  5.6577043511203042  0.2114557448123288  7.6097660478422133
  2.8331385024789384  1.6624890084685229  7.5209510209857422
 23.4877079232155133 37.6659117249451327  9.1990658886795309
 20.6602225913455975 39.1229732486935973  9.2400332045318496
 17.8328626077743735 40.5835152550246292  9.3206121559232251
 15.0066608062064812 42.0496828007803671  9.4219876364401181
 12.1803229058745242 43.5221231348454793  9.5199512841402765
  9.3519447225227417 44.9991609099460774  9.5904399417163813
  6.5212000051457801 46.4805312295561919  9.6207206119668580
  3.6875952342430427 47.9624547260530534  9.6060071989488005
  0.8524874817352163 49.4440444929281000  9.5454643227081224
 -1.9832098967152907 50.9247265778750133  9.4420333672174674
 -4.8184736085902529 52.4037472271189486  9.2992973025047547
  0.7159178347622552 52.6273212101915817  9.4551213487141101
 -7.6524202405909971 53.8813580397598386  9.1198003868562143
  3.5543391560687470 51.1475797734079549  9.5288214851730864
  9.2265244178841339 48.1872274640914355  9.5466767111535074
 17.5885966656009565 46.9463153076969633  9.2424830170826393
 14.7607753995604227 48.4175185274521809  9.3539495030579580
 11.9296667572526331 49.8932557567491770  9.4361522449567836
  9.0946192691083017 51.3719578238650314  9.4788155655653128
  6.2557029121052263 52.8505479760557719  9.4801250608717389
  3.4148185994279090 54.3291457618831757  9.4412081265833336
  0.5738198005005104 55.8075769800856776  9.3651605513978176
 -2.2671598345678192 57.2845122420283843  9.2544900295380046
 -5.1072507719159308 58.7609741080059038  9.1108929971875696
 -7.9456976062128408 60.2359586390275865  8.9363391953799525
 -10.7809646607905538 61.7084525027162485  8.7326084024399151
 -13.6121007790388227 63.1772243567975593  8.5023555054101685
 -16.4374712872254989 64.6424843785851948  8.2571243943809858
 11.1517354074291291  0.4750985111019165  8.0211132152130862
  8.3304234658803562  1.9316343683617128  7.8237507934650736
  5.5076509303541297  3.3846963441665232  7.6949743792013097
 23.3658535762076447 40.8433312111550819  9.1160926896959555
 20.5384204803076997 42.3020866327930705  9.1872136978775032
 17.7117181753635897 43.7649020832677706  9.2889266868963425
 14.8854667086566295 45.2339702011097344  9.3986578666629690
 12.0574833315038159 46.7086847904207332  9.4906410085729167
  6.3917460769227148 49.6674522122366469  9.5599959816923814
 -10.4853086601462149 55.3567253489646802  8.9059110183495349
 -13.3148056717376431 56.8283943473361788  8.6595072411499334
 -16.1406740236814876 58.2939334462725114  8.3853873049169358
  9.5933547398250916 38.6196810167316187  9.5869586082327771
  6.7667750710610912 40.0978683079152134  9.6488934886238233
  3.9394245454166370 41.5809930611588427  9.6726101991644953
  1.1101260011845542 43.0654750685854282  9.6545479797429863
 -1.7193001394461231 44.5498855906212583  9.5934211549855934
 -4.5484564177892697 46.0328724369403801  9.4897819387334934
 -7.3770361424247932 47.5147179528043324  9.3448805658556573
 -10.2039692702726352 48.9934987623344966  9.1597784303314089
 -13.0282362342727467 50.4689368244367387  8.9361780267105075
 -15.8502670368771330 51.9392894405043251  8.6793027038495918
 -18.6702466494266872 53.4031894237610913  8.3997565659385973
 -21.4880798734061500 54.8616846025462053  8.1147280729460558
 -24.3055307788187491 56.3161630781736093  7.8470501631588601
 18.1930481589274002 31.0421704945587038  9.3263330963028093
 15.3651331736325627 32.4999220947861360  9.3708253622607849
 12.5378798975100683 33.9620912611880570  9.4483739582313877
  9.7122848562568631 35.4305439220408331  9.5365953641409806
  6.8866834951796365 36.9057533626556804  9.6100020776679020
  4.0607965443553207 38.3869705240002901  9.6516670339577235
  1.2348860923575204 39.8718179374800386  9.6557462499618296
 -1.5920820623427665 41.3563832690945290  9.6199851208429603
 12.4192340707888924 37.1473603453197541  9.4985270267162338
 15.2458926860574273 35.6823688684532172  9.4074620135428848
 18.0730911076637391 34.2220019875180768  9.3389196733189372
 -27.2761412945133372 60.9414642580230819  7.5043081248463830
 -18.9619630558738450 59.7552428839443834  8.1001095025595493
 -21.7815153740919492 61.2121115317391968  7.8305210312102460
 -24.6025066610167222 62.6652911707839735  7.6083194197233395
 -27.4267410879119531 64.1162759802156188  7.4669409821289445
  0.1570677780120975 -0.0611920390658813  7.4317281487723630
 20.7806274968219853 35.9434550405697948  9.2815711360718183
 17.9535026492529255 37.4026362850743581  9.3372351666343807
 15.1263914831390487 38.8655568449462976  9.4247686855515500
 12.3004787799774977 40.3344797782389932  9.5225497169297277
  9.4737265643019892 41.8094063831946769  9.6045457486031438
 23.2425382956819746 44.0201685516732084  9.0254421372858431
  6.6456505069560396 43.2900222430118689  9.6517025280903237
  0.9833433730193848 46.2566548351208340  9.6160354402424488
 -1.8491061567734757 47.7397300565999245  9.5312560236941515
 -4.6811829828633993 49.2207087787383628  9.4043445021039584
 -7.5128736983422142 50.7000875854694399  9.2377757655403858
 -10.3424871488689849 52.1775694346427485  9.0332313459602922
 -13.1701010361580195 53.6504411141957434  8.7926559056871234
 -15.9942030047780559 55.1185213702333172  8.5209129252693092
 -18.8150966201464733 56.5802073538290955  8.2312689131871117
 -21.6336858142392998 58.0372999359816930  7.9453324322337755
 -24.4528898269368788 59.4905421229026317  7.6914978454978424
  3.8154036344363367 44.7733089375878492  9.6564081028976059
 46.4625783473023901 16.2912175466814908  9.5325799320007736
  7.7583792888198468 14.6185090667551378  8.5071293007318562
 60.2979586434898849 15.2887226267835867  8.7874730644927155
 34.1523757946274316 47.7196700144587496  8.3782694542235454
 37.7392376235420386 27.1413317293639302  9.6155047127103170
 31.8488807168826824 36.4711125526626887  9.1762210483339093
 51.3220687050954467 32.5213518403400315  9.2695232954222515
 37.8591927545649014 23.9453038725497791  9.6923492736614456
 54.2680626321939883 27.8389483674259424  9.3030041797295713
 50.9193834854475611 42.1204311215969582  8.8986061054146148
 36.6898599531576224 52.6052187314514725  7.9305249448313404
 29.0216478683471735 37.9314182885606570  9.1126288867488778
 34.9153091473491841 28.6239359385562437  9.5587760429645510
 36.9760851920134854 46.2636687105877584  8.4328065213705106
 37.6184336989218124 30.3362672589341820  9.4992999584180851
 48.1062805990550828 43.5916738827779184  8.7358192120943432
 57.0809736000318111 26.3593398108857393  9.2463381639145599
 43.5105187905059836 20.9718831662315637  9.6522341112723247
 48.5088343785564717 34.0011397811822746  9.2377464259072095
 40.6848587558143322 22.4585448790768218  9.6922109985828317
 34.7954397360158723 31.8155063006278134  9.4273684056361677
 35.0339439220276745 25.4305199021334616  9.6535146984941118
 51.4540282230137720 29.3193145175099801  9.3371327780714672
 56.9475487478366560 29.5624515248688517  9.2725188161977776
 54.0016133109001615 34.2446667482231675  9.2306905792020100
 45.8245309795232245 32.2820146648607107  9.3354530406625162
 45.1519331761672476 48.2414711834673540  8.3132472251039378
 40.3164543694025710 32.0493388924903329  9.4092673954475075
 26.5568353990082997 29.8480895151494217  9.3930929480241918
 43.3858425802835654 24.1691915834062208  9.6237918426009106
 42.3343545101621288 49.6987219518922458  8.1314822720184310
 29.3836754880695032 28.3827531611539357  9.4846595697404279
 31.9707494016819638 33.2873470258543023  9.3387719476629840
 37.4961445641732993 33.5295404475430416  9.3457816357082528
 48.6398450584742363 30.8004524805744460  9.3477565338367103
 31.3273225468550436 49.1739574155791033  8.3864153971978332
 40.5624171717576871 25.6553775243857949  9.6380703105157384
 32.2092838740556857 26.9104908458423182  9.5799323293053700
 39.5137944772202019 51.1527731040390279  7.9962666477451627
 34.6740856140681402 35.0044906012609616  9.2622877429310098
 26.1937545098097857 39.3877536251004372  9.0901070591660584
 29.1442143165459413 34.7513325035640293  9.2568560666487105
 45.2919722335800188 45.0584951817657782  8.5665667068794722
 59.8935980844747959 24.8814630675642476  9.1693944716224500
 42.8799463946512631 36.9593611368244979  9.1177379077070633
 57.6187090471519099 13.5673080628995759  8.8628916214217686
 34.0107581890775634 50.8895883251190639  8.1488139651316551
 34.4217705029089842 41.3703827529167967  8.8506756783945448
 54.5340645510698891 21.4348818200041471  9.2578359910934829
 46.0812001644275355 25.8825544767885916  9.5305573535548049
 23.6090078717663019 34.4875113258281587  9.2710669307036842
 45.4292211269735873 41.8701892458337710  8.8003638060276401
 60.4343841222229798 12.1008914398337204  8.6084990877886600
 48.2428093200915953 40.3977294315740352  8.9303907145126757
 51.7180413495748610 22.9153731727196579  9.3796874116862128
 37.2442085627130268 39.9061253836589529  8.9377688128805861
 63.2495651125977076 10.6409628978697430  8.3447444752473441
 40.0634513923711424 38.4355173334244071  9.0324161405769523
 66.0641545341640040  9.1853997182975302  8.0913145942424034
 51.0551519019713425 38.9231019071744555  9.0488399131521291
 53.8677111299002220 37.4462381898438892  9.1525096841950599
 26.4371426459903667 33.0299354747606344  9.3077502180679108
 57.3488679527851488 19.9567441195867232  9.1104541960112932
 54.8010510835250670 15.0402342518974272  9.0932687995714652
 46.3354367388133781 19.4856482888801423  9.5717588565113108
 39.7970871163660576 44.8039124447846149  8.5354793032317868
 40.4400797066266406 28.8528400785203409  9.5432806466467568
 62.9751228691100238 17.0124975146540613  8.7567380208884593
 42.4762309538086100 46.5215492303931839  8.4021717771912403
 49.1594616015996024 18.0011777895830001  9.4509773627459683
 29.2646818722597644 31.5683695982877630  9.3822704581700140
 28.7695242874760133 44.2838564292987016  8.7887120030245409
 45.6950822527005798 35.4805497951122035  9.1870133328127785
 60.1627351892540858 18.4829688860211547  8.9415865996065982
 39.6572754059675603 47.9801264887850962  8.2630364487517625
 39.9323033626246655 41.6225292312163475  8.7960376830296614
 51.9815328364918727 16.5192149984886782  9.2908918622982615
 42.6144725587837527 43.3391321206479034  8.6647456442391153
 43.2606082427027587 27.3672671337346252  9.5543371944012936
 31.5965273203118890 42.8285473214463721  8.7953443033869085
 36.8352354938992761 49.4358822820647532  8.1724685381452318
 32.0905023056973207 30.1002479382768477  9.4749825637457459
 23.7292069149965457 31.3075603095234563  9.3303115585447216
 54.1349625433743711 31.0420391592844922  9.2813460380047506
 47.9671335419070033 46.7798423743674547  8.5170554345616409
 42.0417065413474589 56.0445895846445836  7.6506261616634843
 34.5497412665591668 38.1895211388898019  9.0681368133208871
 45.5633741988968026 38.6773224741528168  9.0079202654692683
 60.5727802876857098  8.9195933357711823  8.4162445949598297
 39.2162099034349225 57.4949996917165222  7.5701144065147234
 65.9250945478584214 12.3637919996067716  8.3302076991650047
 34.2893538292752140 44.5468882492913352  8.6173542800414342
 47.8256099211564489 49.9624362857528155  8.2830497007685491
 63.3889438113043724  7.4629437126294320  8.1312297247918970
 51.8498167218437658 19.7156954591974625  9.3523721113486413
 37.3719203864378926 36.7200758480834182  9.1573143298973996
 45.0091793696123332 51.4196224631969727  8.0571043527190724
 48.7700805744569053 27.5991331182277193  9.4266269394261979
 48.3764641442872474 37.2003574908004424  9.0982398269346927
 66.2059443488537198  6.0106298583782767  7.8699897751679408
 54.6676389331953985 18.2356215547600584  9.1911321090304092
 42.1894967098159839 52.8724642058643823  7.8727659362477729
 54.4009027265181260 24.6360455244292424  9.2950358511692013
 44.8641292177452584 54.5943179213928360  7.8204791169753634
 49.2889589952197227 14.8074831676396279  9.3837575033384155
 41.7405524232756449 62.3922660467095866  7.4146743847807199
 60.0276215247512539 21.6809997179247773  9.0687652948824891
 28.8970832035924126 41.1087318828714245  8.9546710709862811
 44.7165520080033048 57.7674508424264701  7.6279136719229372
 52.1135096143705852 13.3267089644538910  9.1941136382858186
 41.8917556586211077 59.2176207817227294  7.4909385521151313
 57.4834057771821563 16.7597809401871913  9.0009787857223493
 57.2149735976992915 23.1572101802618526  9.1920458430517762
 63.1117948408786091 13.8237389886831483  8.5592002951159412
 42.7489069300463314 40.1513970086637784  8.9051923479926600
 54.9356735694357070 11.8509478183286703  8.9645292174030402
 39.0647970345880111 60.6684364295242418  7.4593295341470931
 31.7244027670532311 39.6512871413973826  8.9929699579403017
 37.1124667073342209 43.0873937617838294  8.6929241945608968
 57.7552202008733815 10.3813179877032375  8.7006260829319348
 26.3163445422598201 36.2099527893154587  9.2056368701170470
 51.5861613629966484 26.1172237966684513  9.3743168451485133
 48.9004537814194009 24.3983033320286289  9.4720610942511723
 36.5412080855321335 55.7749386320043357  7.7298859655147094
 45.9532040380097513 29.0826504060613296  9.4508810462420421
 31.4643194239056605 46.0029066064922887  8.5899045991044183
 20.9011692817027424 32.7644893299844568  9.3107686085803056
 50.7816655907915688 45.3139138738704474  8.7228931475434823
 69.0262495011627095  4.5615887783604707  7.6625410681570907
 49.0301186330542436 21.1985519426444746  9.4805392839952081
 43.0087319426794750 33.7640034967462412  9.2988352296710737
 39.3659917207531578 54.3233694389535842  7.7567360336772699
 51.1894303808467797 35.7230584940309157  9.1727122225928941
 43.1352734313272350 30.5659083156262206  9.4452846135599309
 46.2085908879732585 22.6831835074789261  9.5715332634250476
 40.1910212524330959 35.2437808193271778  9.2380716716978686
 40.9128751357654181 39.9541361763884169  7.3529225009132615
 43.7307507108128846 38.4921047620413930  7.4513597890531740
 54.9725733730539901 32.7063774514118677 10.8205004407074750
 -17.8457470648836747 58.1543485667144324  6.6793006091096903
 -9.4039515826073909 53.7502400999996581  7.4612628944042001
 -9.5800511977163243 53.8658119885836442 10.5767309457511303
  0.9820507077880014  1.5169127426222946  9.0542238288066574
 54.9885408561353373 32.6602999935270901  7.6982086440633370
  1.0166040810085382  1.6227877290225095  5.9278677752128193
 10.4159533175311445 40.2592911890311029  8.0128805760429014
 -15.2694433625059922 56.8103851513320350 10.0777857276840326
 43.7276002232671246 38.6980493791935487 10.5671806970092312
 21.6788678059036215 37.5967641046290169 10.7990150452414575
 10.4976903081703732 40.2448977880836551 11.1309419313845090
 35.1735180794956079 46.2955277636659090 10.0322884670234984
  3.8885664541794398  0.1487526408159485  5.9639184545604946
  1.9581996238077846 44.7165459195829555 11.2019127072551221
  3.7611676273017394  0.0908702250841820  9.0892197949085372
 -12.4280714369694678 55.3416662245860493 10.3423655545208852
  4.7940871978869524 43.2063365683098226  8.1021041602140169
 -21.0651186137723201 62.8589359899375566  9.4368920833228866
  4.8079058139306712 43.2222319466825127 11.2198627978251686
 -12.2175651428183425 55.2214221404880945  7.2279256570863337
 -20.8175801507750542 62.8289481220494679  6.3186122185175186
 40.9152447103555517 40.1845965354463672 10.4677474107921800
 37.9736059441008891 44.8459233008140359 10.1095872149278598
 -17.9889547504649414 61.3563622444725425  6.5789815764209072
 37.9508669038949975 44.5898444045222391  6.9946367843499324
 -23.8634478992997821 64.2920916869678649  9.2246607801393914
  7.6038181528320639 41.7314894065313098  8.0769735624786652
 -18.1000524984904914 58.2700956111983785  9.7939093156763128
 -6.5892762138609742 52.2764399301922040  7.6603243025033123
 -18.2523666780300573 61.4158711535487711  9.6948820677064216
 -23.6616395757990290 64.3024096091091621  6.1026525560631839
 -14.0414064743574887 31.2045199954993926  7.7149823362454839
  7.6548455189386306 41.7302872222518815 11.1947271581886838
 -23.7158989069637798 61.1592100509439263  9.2657411554831111
 21.6107186274084242 37.5506359426629004  7.6784564025191981
 18.9057077967975360 35.8492434019529611  7.7572809425770979
 18.9693418579425845 35.8559280854893672 10.8784782254808938
 -3.8788719915549841 50.9001261677855013 10.9406939671429448
 52.1614795391814567 34.2072403252325827 10.7835208677677095
 32.3752610888550194 47.7347843346573697 10.0081681604642352
  7.5323478827084402 44.9383516595673953 11.1804768758046009
  7.4822549143012456 44.9065921029646304  8.0628653121351377
 49.3510770296407486 35.7069648683519532 10.7278932618874485
 49.3604430631738040 35.5740587791968892  7.6085463862987073
  4.6812197076119118 46.4301473350388818 11.1874603305979683
  4.6711661865414413 46.3808643578012934  8.0695560168698606
 -26.5044198007752456 62.5894606482625804  9.0830235575266958
 -0.9570423553639198 49.3290766842205315  7.9475972600559004
  1.8275547915430073 47.9217893183627837 11.1488812636522461
 -1.0259954103566142 49.4127051230298804 11.0657149190121231
  1.8579214762926231 47.8546927552322572  8.0307932719448996
 32.2586280092428552 47.5269452060344193  6.8905943494381630
 52.1741784354752127 34.1162617373973447  7.6623066787860488
 -26.3656659620484106 62.5591256623961627  5.9580841533774320
 13.2349812318416848 38.7888212413521032  7.9225934518265069
 10.2933261195278298 43.4332859755966396  8.0134821713473414
 -3.7732559368623559 50.8027772857641651  7.8230949201167768
 -14.0593801056652072 31.2034964038841416 10.8371323667073671
 -23.5091511375338378 61.0875808654074675  6.1449223155036243
 -20.9152105145840572 59.7199989494270014  9.5135414622099628
 18.8670670755083485 39.0442522608187588 10.8581180151126198
 18.7681601734666472 39.0219156384674903  7.7381304819314218
 46.5457318837220555 37.0322948606799329  7.5378277372542648
 35.1078361865314079 46.0562004189167453  6.9161293463005125
 16.0471849640435060 40.5006478761893121 10.9479143421985547
 10.3794344772783020 43.4498022934961909 11.1309574516731402
 -20.6704220116836623 59.6195685199227015  6.3966717122515746
 15.9327780947059914 40.4920996412718353  7.8291377895043182
 -6.7304826553081192 52.3843300195910686 10.7769638687193350
 -15.1706798929425286 59.8846143582578065  6.8523795375835830
 46.5393190829447576 37.2045417992055221 10.6551768410421186
 16.1546051999853510 37.3077794622171766 10.9486776181999961
 13.2187076044102412 41.9697661384629797 11.0472577828280816
 13.1084096701001283 41.9627924112534814  7.9293386663039866
 -15.0294027189393198 56.6891228310773414  6.9634977020255056
 16.0658744819729442 37.3194942088120882  7.8291014264562042
 13.3309152960702875 38.7695322310336294 11.0409306098963373
 47.2606725996655896 17.9430133364844409  7.9604238801469940
 38.1037062561163324 41.6584590948012803 10.3656007856299723
 12.1235447768339153  2.1395020829707785  6.5678495618489841
  9.0578787820074247  3.5037830749003089  9.5009879516752829
  9.2855575661694463  3.6170419121657682  6.3826895965679649
 41.0371925197047034 36.7783792603597490  7.5714046392046752
  6.2641621374335781  4.9334207635890452  9.3810747252395998
  6.4334836244862244  5.0932730447554500  6.2613041529164137
 41.0501051661078691 36.9785326840805055 10.6865023325521182
 24.2859870061551071 42.5204484145352239 10.5933397702412631
 24.1708524582214999 42.4238794190517368  7.4746843358384627
 21.4730389371669759 43.9659737227454883 10.6698968546631896
 21.3295777387220014 43.8964845532109180  7.5523516593101148
 43.8508691623645959 35.3126747768232647  7.6422993941249535
 18.6519667686750310 45.4209155433462541 10.7764323224701943
 11.8642438992718855  2.0686807429218250  9.6839187844097943
 18.4961822903214745 45.3678756866733082  7.6596122017994022
 15.8209051851316698 46.8886498617025680 10.8905679994892761
 15.6729529094868738 46.8387337265594823  7.7732346719022631
 12.9786265883605409 48.3675647974202363 10.9863482717575778
 12.8575632125201480 48.3098778230892805  7.8685708003291515
 46.6629640647454380 33.8483298208568399  7.6935320269176541
 10.1277533597407157 49.8520999101907165 11.0467438478517028
 10.0437562209557107 49.7831215800282934  7.9287088767235714
 46.6849793928977874 33.9911283529243065 10.8115828105995320
  7.2716661986385471 51.3367871986755517 11.0657910322478514
  7.2280371109145287 51.2581074536326398  7.9474877529606092
  4.4116728485374752 52.8194338423329910 11.0426912508590718
  4.4095582455902713 52.7349812811730061  7.9240582303729186
 49.4759303979878240 32.3872030518372966  7.7239023328755838
 43.8687922135546984 35.4881032325226116 10.7586659090200207
 38.2319185928728302 38.4610906373670574 10.5999706300251209
 14.9481308558640293  0.6608370139836525  6.7872294368316286
 14.6847824721636719  0.6250143840191231  9.9027185117850536
 15.6974600331797181 50.0809327667753337 10.8339707576356421
 15.5419658636910452 50.0126119052951950  7.7170827258262813
 12.8480133649538679 51.5594427325015232 10.9229022989554032
 12.7264531882794394 51.4853265858188323  7.8047624579788959
 29.7164466559443277 42.6531093352584350  7.2858152344699194
  9.9918039070493379 53.0403226727013575 10.9741605330484635
  9.9095126881416675 52.9619504359628621  7.8551378162944330
 29.7971515428957083 42.8228061174668255 10.4032091249830412
  7.1308646396731383 54.5186227808252895 10.9865465044944344
  7.0899961509924481 54.4404516160533873  7.8671978222791932
  4.2680766040299671 55.9944101039343352 10.9613598403508679
  4.2692204228207720 55.9209992336360244  7.8417288051577225
 32.5609655416595984 41.1821682410014631  7.3201022887730076
  1.4045398298258349 57.4685333180026277 10.9011982435317769
  1.4473564614968606 57.4037330218994271  7.7809810941560063
 32.6042547167482084 41.3807818264135250 10.4364988187320140
 -1.4589949782707043 58.9397537716153437 10.8074232173319338
 -1.3742701051682700 58.8860301901037673  7.6872403823090609
 -4.3214994481873070 60.4097351474137483 10.6813965242204247
 -4.1952579672684909 60.3691331797356128  7.5618894668417029
 35.3970876730078317 39.7132466065724898  7.3937159576914846
 -7.1818658786760174 61.8772620395804864 10.5248114111852775
 -7.0146217713388488 61.8517748820573487  7.4065832706155552
 35.4153066997295767 39.9291683088547771 10.5095004500763523
 -10.0386160068029771 63.3415887318520987 10.3397307462406634
 -9.8317064098196614 63.3326272915632700  7.2226105637665041
 -12.8890769469332831 64.8005886433772815 10.1290834236408145
 -12.6464400578108034 64.8105961116974925  7.0127421807276180
 38.2214357374852369 38.2453231018807145  7.4846900446296818
  1.5507567039367374 54.2991498901794714 10.9796388050248552
 -15.4236867421752084 59.9634592114004050  9.9677157353737229
  1.5897449910856007 54.2141616438227203  7.8605800319440302
 -1.3093794912304069 55.7756833086175163 10.8796702641269132
 15.9367028056648810 43.6945094001300447 10.9287064118638355
 15.8022978757372705 43.6654836913580056  7.8106371151582188
 13.1017502726266066 45.1697861537200112 11.0291430068049632
 12.9834843357427712 45.1364660725360523  7.9112612532182585
 29.6882573038032049 45.9988153673337550 10.2232522632013438
 10.2564009504514999 46.6532272506267987 11.1019149222917637
 10.1704069697093935 46.6077270422101435  7.9844410165448387
  7.4053491427776512 48.1420196810695558 11.1353336286118800
  7.3581773122207368 48.0815136803985510  8.0174953122941073
 32.4127784798057235 44.3537352489605610  7.1073692255568792
  4.5495317766796557 49.6307290431014181 11.1247480755315937
  4.5437042166697630 49.5558054124597689  8.0064054114743204
 32.4911081432014939 44.5620506581024571 10.2243998243026493
 18.6312080656525971 42.1944618034484122  7.7055132548001994
  1.6920905631408414 51.1172128876437597 11.0693383996177186
 -1.1650888707918283 52.6007236660635797 10.9723635170228224
 -1.0906187320913101 52.5081985029233849  7.8540018529856761
 35.2561914196816986 42.8844997978821070  7.1612878677662746
 -4.0215652828655388 54.0813116012083341 10.8372668850860521
 -3.9088041806234122 53.9850693528528822  7.7194656697549915
 35.2955237880486905 43.1171967346985454 10.2769917127303874
 -6.8768150713597977 55.5588863305619043 10.6668193680601533
 -6.7264785375315963 55.4624317116852197  7.5496092185694907
 -9.7300364474192822 57.0329114792978515 10.4632696381226413
 -9.5427841378757368 56.9386833916180422  7.3470317764950890
 38.0894218210197550 41.4177190063377125  7.2507489366673523
 -12.5803788995954271 58.5028307846407003 10.2288217852746808
 -12.3569837874088400 58.4135168987748870  7.1133016383127607
  1.7272420550507845 51.0314699542036223  7.9508346740018192
 18.7612588928475148 42.2324375801193739 10.8238672109509668
 -11.0959535359541661 26.4855956675688979 10.7619975030151753
 21.4699922992973633 40.7236663194104693  7.6200993320342070
 -1.2299724154598219 55.6939922682609705  7.7605380074950991
 -4.1694209804995142 57.2499562284943764 10.7450295364601995
 -4.0498384722271048 57.1742354786120970  7.6263303799708204
 52.2888707356181257 30.9277680449433063  7.7340801923594604
 -7.0277065259596139 58.7218867078989888 10.5778097367849266
 -6.8686863025098015 58.6548604099203459  7.4597713212826537
 52.3130541034880423 30.9912965471240796 10.8554466625586894
 -9.8837542016718327 60.1898504933896987 10.3800477015686301
 -9.6858332722721041 60.1337625830567077  7.2629813842564586
 -12.7350541118942644 61.6538184939185712 10.1541408540716809
 -12.5002293385891363 61.6108119554434950  7.0378476687099445
 55.1020155235691576 29.4704181402479399  7.7231451956346895
 -15.5767404137994774 63.1093690328403554  9.9064975972889524
 -15.3155087646879693 63.0863839371065751  6.7907978589008122
 55.1255178481094745 29.4893888227994090 10.8455043338328405
 -18.4020444151217575 64.5560858434915730  9.6567865928857266
 -18.1365569499260531 64.5627395493470289  6.5402849537199286
  9.1994439750911958  0.3660260460607246  9.4332958072927315
  9.4414575719366027  0.4112663136326381  6.3142711212241149
 57.9155034830408439 28.0145502374918216  7.6915288347924129
  6.4035591292223151  1.7961576648208941  9.2653386002821101
  6.5926341810689628  1.8872629426399929  6.1437462373265452
 57.9370859015792519 27.9870234811318177 10.8137260179944921
  3.6186712546286306  3.2229796333852079  9.1811716017229816
  3.7300410131536053  3.3619397672962510  6.0574912548818869
 24.3880782755941539 39.3392680631041216 10.6934219098201044
 24.3150733863520330 39.2518419511594132  7.5735519098454391
 -11.1135581731789461 26.5591647525369510  7.6404223406864258
 21.5773532550566713 40.7821770688265488 10.7392938695818234
 49.4996324223984701 32.4923869284080311 10.8438821365441616
 29.5648193401686896 45.8253186382473388  7.1059437171651938
 49.1997913419284600 38.9193737982845747 10.5834660023922815
 -0.8919304334599286 46.2120652670873255 11.1397173143829651
 -17.3313978297851108 42.3474009336645665 10.5779148305329596
 -17.2017365548195009 42.2259965843662144  7.4598595070032481
 -20.0169424695885994 43.6767496186575102  7.2865346779058138
 13.8524732522877763 22.8058101053595266 10.6783334122963574
 13.9149880169498221 22.9310752086719916  7.5594693708515948
 -20.1439574798737411 43.8423245764577487 10.4033215363913527
 11.0423103254782369 24.2499095718904520 10.7011380281338440
 11.0704487011305659 24.3998217608376819  7.5831780154306658
  8.2272932751200507 25.7038396146036270 10.7614888609295072
  8.2328025851128075 25.8667250902449162  7.6439972593965813
 37.4956388345831542 54.1334984543067108  6.2404248281317773
  5.4057529538578581 27.1702950232134874 10.8392120658465849
  5.4062022234126301 27.3319786318778242  7.7216633571033659
 37.5712169907355076 54.3344296094970858  9.3619104391073886
  2.5786464172613699 28.6509370804585366 10.9103976528030699
  2.5905470774017947 28.8002468168693611  7.7929305921323841
 -0.2502231258347364 30.1398188350892440 10.9607254608025642
 -0.2201987016878248 30.2694326756484173  7.8429820729494590
 40.3589581675961497 52.6658716821485982  6.3112113174035196
 -3.0779918335202514 31.6346145236717469 10.9845609661440751
 -3.0293009311096211 31.7377967864888149  7.8659285154858507
 40.3548682543463926 52.9005260574782312  9.4310317932437968
 -5.9035146380614263 33.1330358312717550 10.9798406887556634
 -5.8381784106897365 33.2032819510766188  7.8602444542597487
 -8.7267329184930968 34.6333678337976707 10.9462244717415214
 -8.6483558518156922 34.6657816122155040  7.8262004792755437
 43.2125627078765433 51.2060363972743957  6.4583904369342697
 -11.5468940383855792 36.1348905777533460 10.8845031792887870
 -11.4589036472743686 36.1257376766020926  7.7639235765143439
 -14.3885587767457803 40.7711970973690185  7.6139973749432084
 43.1416856352462474 51.4555876817190025  9.5753384620782072
 -14.5152930164475649 40.8499658368571659 10.7327383935460894
 -11.5771753734278775 39.3124941309304106  7.7446451138889829
 -14.5088375405826877 43.9556573732572957  7.5235170068086106
 -17.4853676855222311 45.5553317529406812 10.4433267292256886
 -17.3217877309105042 45.4092302538988122  7.3272880274875911
 40.5071769123202969 49.4799576917989796  6.5688591888175347
 13.7506351881620628 25.9922119357058001 10.7877922652918290
 13.7733913676548756 26.1023380141976844  7.6683550656742216
 40.4964086436856761 49.7408231772802978  9.6856024002136731
 10.9366152004201123 27.4410251532265228 10.8359532331283486
 10.9322063556346354 27.5708636323161116  7.7175883396957152
  8.1160059850292683 28.9019107597683096 10.9098886119242202
  8.1004449997027290 29.0382420627257147  7.7920479583288644
 43.3506653760005420 48.0236892539616278  6.7220848161448394
  5.2876557834647144 30.3767828807220504 10.9862938099677532
  5.2796249426228661 30.5060852283356745  7.8683130367006697
 43.2894951095996845 48.2853714901203759  9.8376201335534539
  2.4556851360674363 31.8627627061539727 11.0448998779847649
  2.4671929719112584 31.9765650709285900  7.9268641762890795
 -0.3777935725145043 33.3553062707297272 11.0756092141914610
 -0.3422235595702922 33.4485428732476677  7.9574937812045174
 46.1827501662464641 46.5724541633880520  6.9058581649029893
 -3.2108342851885077 34.8517689657433252 11.0738219247026208
 -3.1498560072329451 34.9193445965757050  7.9551915240087920
 46.0871732927103395 46.8148711218219375 10.0212427569552229
 -6.0426039648947869 36.3501271462964937 11.0374036520663186
 -5.9580700863886173 36.3865302439006086  7.9180951378630384
 -8.8713004611755295 37.8505780077255807 10.9665395309530993
 -8.7672461239975874 37.8510934725982437  7.8472548344670185
 49.0076363817865044 45.1254029592729822  7.0987209828201419
 -11.6952880406071387 39.3505351745893037 10.8636395262376553
 48.8914657688947472 45.3334456873332172 10.2149206610654186
 -14.3640277867196833 37.6357006553724673 10.7964361652757663
 -14.2709714657863298 37.5832971184009565  7.6758081784649397
 11.1477533132650084 21.0630102699583794 10.5507143043808806
  8.4490937205737957 19.3220676458320675 10.4027518229322364
 -23.2630066041750290 51.7052594428833459  9.7715144881326861
  8.5126677100721597 19.5238797755368694  7.2859812138831925
 40.0467169640032665 59.0716282491304554  5.9373969549918835
  5.6409683874503482 20.7733285947840294 10.4597877494375080
  5.6744195605082091 20.9888915491155110  7.3435255399434523
 40.0693304506233332 59.1815834786776165  9.0638198931420177
  2.8268152214219349 22.2384343562299769 10.5412413954853381
 42.9180413573705835 57.6004402744815494  6.0222809536209896
  2.8461767303035050 22.4509254468960862  7.4248310415611503
 42.8481837637641974 57.7533661745809681  9.1460210713441601
  0.0104628484761332 23.7180864686654083 10.6258104307553278
  0.0274360705262806 23.9123499975238509  7.5088219676789514
 45.7785063807354433 56.1362276123014823  6.2007509975981483
 45.6333672153803462 56.3174932764312643  9.3204700190314469
 -2.8057319139234274 25.2075398854473249 10.7012982844608562
 -2.7879291044053405 25.3731140582568599  7.5834196419619193
 39.8874506272242400 62.2894046609224645  5.8670395448474091
 39.9258010481759271 62.3120077423803238  8.9952567674756754
 -5.6201084737745921 26.7021364349121590 10.7628995004653412
 -5.6014358859279785 26.8329621847386619  7.6437089262177329
 42.7634375581025026 60.8140511928402603  5.9003527619961877
 -8.4338823101771432 28.2005497243856951 10.8076460787330877
 42.7032260248203670 60.8862339625474291  9.0271268940216043
 -8.4146277798866667 28.2915919772540718  7.6866369562734471
 -26.2125457867302849 59.3433201394342547  6.0410991089798793
 -11.2471014499857116 29.7013573777828377 10.8327704726331735
 -11.2278137532721622 29.7485540843786751  7.7106057257377492
 -26.3578933715021435 59.4572234747144890  9.1638149895852514
 -23.0882564913189761 51.4882539154965855  6.6569981676959893
 -14.1554779806902271 34.3941041557772991  7.7096991756019762
 -14.2122325342107843 34.4200723641127126 10.8314983872403658
 45.7829623516941950 53.1651795922865560  9.5314137090834894
 11.2122559352888409 21.2283405812309418  7.4331332688049976
 46.0532817392583738 49.7535637547557812  6.6573233023968053
  8.3384519617119572 22.5102621565241812 10.5906425589735864
  8.3702578591849850 22.6950511904093659  7.4734590097092219
 45.9344335581710581 49.9978129691284323  9.7727141403365554
  5.5234731458432513 23.9685145665599109 10.6621291684856221
  5.5375460600253277 24.1594281565711135  7.5451657617428429
 48.8839913231291447 48.3050822161359790  6.8821034736850750
 48.7353591639765185 48.5264097793891267  9.9969518260975079
  2.7021997712499508 25.4424717741544200 10.7414655945406281
  2.7164518738664651 25.6248688292137068  7.6245662193171349
 -20.1375093110560499 46.8584590125895843  7.1105838653188389
 -0.1209352147579011 26.9268790395550930 10.8098282033866475
 -20.2994870317481713 47.0449978274618559 10.2256238802878627
 -14.6662056339777553 44.0613592791520716 10.6402583918393923
 -0.0972052230576349 27.0900088303223825  7.6924668996519685
 -2.9426833574770925 28.4196780216044189 10.8594301145034802
 -2.9085115011268639 28.5551886523579341  7.7410601684504492
 37.4325896496079835 57.4742692585207919  9.1876054082988432
 -5.7627774457229739 29.9168313176665990 10.8873216915795421
 40.2046994457818485 55.8625645158028163  6.0922259227270956
 -5.7196448312523929 30.0182688596955849  7.7678756250926728
 40.2125567929279271 56.0460487775610900  9.2154585963241669
 -8.5809756845025653 31.4165229221577782 10.8925518021180636
 -8.5312981333363851 31.4790078075206594  7.7720400732005679
 43.0683884974727746 54.3975325495986013  6.2165497066632920
 42.9945960584379918 54.6112872400911868  9.3366317781621007
 -11.3974843108485970 32.9181675878915811 10.8740807666825123
 -11.3429580871372497 32.9376804244292529  7.7523364683673579
 45.9191711161740201 52.9404814545177445  6.4145441738794329
 37.3347601456220559 57.3355740195432944  6.0637306515692808
 37.7077007777772408 51.1846207295994944  9.5890044597244888
 -11.6981548665022554 42.4970846903727661  7.6937903325579109
 -11.8423737399487603 42.5645758000293526 10.8112846462291881
  7.7735672339004456 38.5208748013686773 11.1751703385566827
  7.7250107246965447 38.5572765019496373  8.0570213873025427
 52.0091665727065759 37.4219254896161431 10.6833009230624256
  4.9303131603500940 40.0105401868358470 11.2174256317216816
  4.9146175451184728 40.0309247506814287  8.0994442268808964
  2.0854893146027673 41.5061116404307597 11.2207005745619703
  2.1050429057034070 41.5058534208738408  8.1025648050541061
 54.8744998992679527 35.8498964661884614  7.6453510627680288
 -0.7612051837551433 43.0026805032728703 11.1823030850064420
 -0.7063651063768916 42.9787851117895627  8.0642011412660857
 54.8190941403492431 35.9218250672142432 10.7666624342723711
 -3.6066598708649877 44.4988034713388032 11.1012390360626174
 -3.5175380577484581 44.4509883386195241  7.9836025843611207
 -6.4508473196660772 45.9945147592778625 10.9784150446819222
 -6.3288533910729345 45.9224014533969935  7.8615343625177783
 32.0994580347134431 50.7046903700305762  6.6832937785354476
 -9.2934952292570827 47.4871754444097576 10.8150596226955322
 -9.1396674478158584 47.3908661144359868  7.6987748752565848
 32.2548518796696300 50.8971277156152127  9.8010395865504396
 -12.1326019379573893 48.9778155847264571 10.6126016249895709
 -11.9497442220180474 48.8561698272848304  7.4971069486778870
 -14.9663330986265084 50.4634631542557273 10.3745925155172127
 -14.7602548111452467 50.3168427813214336  7.2606638188052148
 34.9538458595925619 49.2320010500121441  6.6716460254638141
 -17.7927114663979076 51.9418529645542080 10.1094118765760985
 -17.5739287045601387 51.7726110320034110  6.9963200089044948
 35.0484254292306190 49.4630438149310905  9.7890243564602422
 -20.6097930552227595 53.4109631232912960  9.8312890463102800
 -20.3937841369778035 53.2250582868027351  6.7174325304137090
 52.0595893730097359 37.3051489511276841  7.5628620407294047
 10.5398676881190578 37.0862687823773456  7.9818337031863473
 10.6114002608625171 37.0401766128695087 11.1003782705702179
 13.3647915618294419 35.6162101306013241  7.8914653439609888
 -0.8296855176894173 46.1538717078593308  8.0219013097567586
 40.7843008487573542 43.1278530030749252  7.1066600556306945
 -3.7409744108448919 47.7050430846141396 11.0343019338315607
 -3.6431243499348982 47.6259148444848961  7.9168180007899602
 40.7771755509537712 43.3820991238765288 10.2216788950983322
 -6.5884620499862772 49.1962268399813709 10.8876473870333044
 -6.4567865499418566 49.0977386736632653  7.7709179234323766
 -9.4351189854282715 50.6839112394829314 10.7013879261324085
 -9.2701256466056332 50.5680148282958157  7.5859033639180264
 43.6084935176943986 41.6699355223723700  7.2313071722073108
 -12.2784693295790959 52.1673621185232577 10.4776948581583884
 -12.0813614172254091 52.0358572848000023  7.3631562406927147
 43.5834146232720840 41.9029329500604106 10.3464743536837656
 -15.1173498012305423 53.6443812487816558 10.2202800619931828
 -23.4156739261157725 54.8701177844363954  9.5595503369919843
 -14.8929236921299690 53.4999972495193816  7.1066431214910741
 -17.7074922066302207 54.9597060356172875  6.8255505822367297
 46.4278311697684174 40.2148134628127565  7.3531658624475060
 -20.7632896155472011 56.5717510247459359  9.6519686389628383
 -20.5292694930781749 56.4175360499574268  6.5365830809970591
 46.3916397871524708 40.4143714282671027 10.4697255234178215
 -23.5667875009600891 58.0205869826267744  9.3832238230912655
 -23.3623012539505730 57.8785678085235205  6.2645091902213919
 19.0705797147525686 32.6685894102171588 10.8846639679540864
 19.0448621403182550 32.6772330483293914  7.7629262564450183
 49.2441597730865013 38.7596326253416024  7.4649687088262500
 16.2582695099578700 34.1153905718842552 10.9312977813760668
 16.2006762100106592 34.1470362319138019  7.8110643183620194
 60.9003013949162693 23.2718814284270152 10.6635863739630299
 13.4397003735593952 35.5712310862732650 11.0104272496343008
 -17.9465193659493494 55.1128925177617432  9.9388855847156421
  1.9829741856787713 44.6803295257545230  8.0841350973111492
 -23.2221597516713736 54.6786474442957697  6.4434187350559808
 16.3602381739980984 30.9247914590023498 10.8967604145492789
 -20.4550383807047993 50.2352707303211332 10.0297074062680593
 -20.2630481131975948 50.0398661953017054  6.9157228356038223
 16.4610575993518253 27.7365117001630459 10.8463204611156456
 16.4783276395694642 27.8037770398257713  7.7254956166959321
 51.9441191996519578 40.4925076514912874  7.4376477457116605
 13.6483736631615198 29.1822467068435252 10.8816422769354286
 13.6339862206260847 29.2731983149380532  7.7619977364673938
 51.8551397005424022 40.6339181457090035 10.5563448749012103
 10.8302303956452945 30.6370266330082863 10.9500102136456530
 10.7976025188677500 30.7420022919503531  7.8315542904633988
  8.0030981147858942 32.1046835366659664 11.0306494882466719
  7.9718334140600078 32.2105262008354387  7.9126465126828363
 -17.0841202727122088 39.0390759877499036  7.5658325892416691
  5.1696638169857936 33.5866185144688529 11.0999469698117714
  5.1563740020742346 33.6811377494553739  7.9818816113738027
 -17.1776389139591537 39.1356478342847183 10.6855486373442670
  2.3325474709104284 35.0768022802663850 11.1425445289629774
  2.3453823038521775 35.1531121533662017  8.0242656764323250
 -0.5046290531341096 36.5724738385759593 11.1518394261352540
 -0.4631856937992912 36.6269143059281248  8.0333758901699746
 34.7940003193904346 52.4152222125035436  6.4459334602829284
 -3.3429740938966783 38.0697136303667492 11.1239245499676702
 -3.2716639366426441 38.0986196533832810  8.0054700275825610
 34.9196551073435231 52.6189869439671654  9.5649865978836033
 -6.1798781894675088 39.5675258290887157 11.0570344208601110
 -6.0800068624383590 39.5674632236709556  7.9384707183561911
 -9.0132179977249951 41.0664310906215064 10.9516588932697907
 -8.8885030974357573 41.0341626618311892  7.8333664032167825
 37.6537850850003792 50.9440961184485559  6.4701714523566167
 49.0465405411967907 42.1292752264954444 10.4119419059871383
 -17.4454319614566948 48.5901773365913314  7.1695973242748527
 -17.6390821781842781 48.7554515526932377 10.2839993975298469
 49.1267441775321885 41.9441305680463046  7.2946203115034880
 16.3383598087474944 30.9748272497553145  7.7762012473689595
 37.8416443900227577 48.0216556052039394  9.8449817529418020
 13.5451206720228914 32.3755608455575299 10.9565949010432604
 13.4976684828627977 32.4446868946060292  7.8371287025236063
 10.7216558740982748 33.8368157916023407 11.0392703455378385
 10.6666428192398310 33.9135260593210219  7.9207603224512493
 40.6493092960278304 46.3022172697781897  6.8406058775943679
  7.8898018940697909 35.3116832289931821 11.1200487006929052
  7.8475813917780766 35.3839009799416786  8.0018835673525182
 40.6373504956383726 46.5683033099919044  9.9558436138970894
  5.0506503464087427 36.7981426861026009 11.1776229835935315
  5.0350456789660996 36.8559087489861810  8.0595534868683387
  2.2094915821335612 38.2922095254185848 11.2014160156258153
  2.2251873016005890 38.3299763227135415  8.0830054849919790
 37.8054847923101462 47.7643442966952989  6.7287219277093699
 43.4823402509646044 44.8463984403746920  6.9854051381548370
 -0.5842852919240884 39.8034676729128876  8.0689028587226161
 43.4368238279282863 45.1003248051553030 10.1003630795970327
 -3.4745190071160432 41.2862562319065916 11.1326161949193985
 -3.3942926406978118 41.2756190702274353  8.0145955973340932
 -6.3157927978750479 42.7834729855563367 11.0367057991312887
 -6.2039330801143473 42.7463467388222611  7.9191562239067173
 46.3073843742383460 43.3944031430294288  7.1414275400639102
 -9.1537924449216987 44.2795773213760313 10.9006935933047053
 -9.0128894128200940 44.2138614466855913  7.7835297847206313
 46.2405666682010477 43.6189714811727924 10.2571576550485979
 -11.9877064410309160 45.7751607058752157 10.7269943033115815
 -11.8219769836604076 45.6781241507638782  7.6106549869290623
 -14.8165601921191712 47.2675150696285868 10.5193991982962451
 -14.6325173792482257 47.1366774806226516  7.4041347449188919
 -0.6319349872851437 39.7889208879808081 11.1873318877954819
 18.3612388540260731 48.5415012055103148  7.6009155190292361
 49.6465855890977252 29.2760082159275754 10.9294840973474336
 60.8448241385093382 23.3708214935400740  7.5427641234642069
 58.3795497001614976 15.2701493997077211  7.3249443781226917
 19.3707085883450354 23.1078703019826897 10.8199780301118285
 19.4638952322011747 23.1605670464933873  7.7006344854612125
 58.5501890451742000 15.1374229159656188 10.4405092290174437
 16.5606203213801777 24.5502865085113129 10.7808237630938084
 16.6190949262114280 24.6327229275817707  7.6607098852816451
 37.2914138696028346 60.6072317437897397  9.0875090025843157
 37.1734787118486025 60.5476249675465255  5.9616576117763627
 61.1966156181078276 13.8218438808802730  7.0924095517432475
 34.5080309773882092 62.0345718190199946  9.2138173905161125
 34.3081333998061879 62.0235707962498637  6.0916757462632383
 61.3626958295966460 13.6496310041105744 10.2082350350205129
 31.7124486166202182 63.4685162954692572  9.4219507088319627
 31.4582278969261004 63.4980519087159365  6.3039718122076200
 22.3030405609845310 21.6875989498802220  7.7819122267053249
 28.9007686604676444 64.9098579928949846  9.6804440187911354
 64.0193708662244205 12.3777765146768441  6.8511613045125479
 56.4851332159564663  0.7330618945925841  9.9585492242209330
 56.2136853999751622  0.8118859140742781  6.8449475823310504
 64.1678583220131884 12.1709596801539846  9.9675332711804412
 53.6427503364957587  2.1925284152973661 10.2282606075530182
 53.3981545212533746  2.2830378621354286  7.1147112024035755
 50.7918602718628662  3.6597981484118658 10.4729198625086415
 50.5843559890650383  3.7572858308228021  7.3585886318896714
 -4.9913672664784379 10.9321958882407699  6.6195952030896548
 47.9369755896615999  5.1321140008598487 10.6864728663774677
 47.7691993605507719  5.2334154534326007  7.5709978203000468
 -4.8787109339412931 10.7015590424018807  9.7363390549657431
 45.0806882147856385  6.6095878198981577 10.8661834278751588
 44.9531090218278564  6.7115566569844676  7.7498306790592659
 28.6241386922903835 64.9692903775034694  6.5659240504212475
 42.2231477016220254  8.0904066278525626 11.0095700047892731
 22.1844186562389609 21.6600893860844579 10.8999723596471352
 25.0061820171990092 20.2021940430197660 11.0057472301691064
 56.3320975986472448  3.8849338752904887 10.0753527294932450
 56.0740563749367382  4.0042636276871137  6.9627590070328704
 47.1389876500955154 21.1201857405115732  7.9829452735543542
 53.4902583135202292  5.3519946157427798 10.3502353498339907
 53.2612972773408373  5.4719383038268186  7.2372865131948307
 47.2430121101757692 21.1220435764147503 11.1002348193758653
 50.6415809043776264  6.8264870887892917 10.5950372638770034
 50.4489269846812647  6.9434123538999746  7.4810390483413540
 47.7905638837447597  8.3062915471225018 10.8053235560160239
 47.6356053408244264  8.4165850531557691  7.6901345891468962
 49.9473081112059063 19.6506399889591385  7.8695451927157318
 44.9378340050583205  9.7915120188353963 10.9781243240179833
 44.8215841961997796  9.8913364042527157  7.8620424723875892
 50.0774024067747874 19.6239676287659570 10.9866233860865012
 25.1325225223450488 20.2142644794898274  7.8881747101075836
 42.0839665604417164 11.2797133168533872 11.1101638179980746
 39.2299330478008415 12.7707835423858782 11.1984121458514849
 39.1939323985651455 12.8402890023789542  8.0815389954798196
 52.7566469203638562 18.1848158413741920  7.7195303028529123
 36.3769083385596801 14.2634848925728281 11.2409737763240933
 36.3818636375433755 14.3154260829984743  8.1242858133634908
 52.9075461301224905 18.1265919638412925 10.8361896281683769
 33.5257646143191295 15.7561651888731511 11.2386357205758358
 33.5706075545651501 15.7912228376291193  8.1221529984487670
 30.6789541573588096 17.2462144759122218 11.1939810897646392
 30.7609915202384983 17.2662161750936249  8.0771877329338491
 55.5667434959055271 16.7237513139635894  7.5365169421929119
 27.8378296672977328 18.7299649543623339 11.1121493565419094
 27.9501306844756776 18.7399268021433087  7.9947110383927331
 55.7315985231499482 16.6299670406952984 10.6524185664266877
 42.0072257966738789 11.3657643470307352  7.9934366426983230
 58.8921842051792481  2.5399050597805557  6.6696033304769973
 42.1367089458700477  8.1891132907766142  7.8924305618537929
 39.3649526519726933  9.5741654622348644 11.1131274445981809
 23.3863294324367068 64.6703648446464570 10.1442870216218797
 23.1299759520671842 64.7167902551904604  7.0297302787778140
 50.9446700981697234  0.5026698740019484 10.3790878821454164
 50.7251148097327587  0.5645504168648002  7.2639506647919632
 38.5928351086801129 28.7187228478837824  7.9945563464596221
 48.0877834045799375  1.9697159455558970 10.5861372590886837
 47.9089694165463484  2.0437280989494679  7.4699395493589682
 38.6054769172426973 28.8326204703286919 11.1111915135535710
 45.2282577606463150  3.4409640418020411 10.7622696628202057
 45.0906541340111318  3.5247651674236238  7.6451745183653976
 42.3678624448442207  4.9153607730884508 10.9056723999249545
 42.2717947582941633  5.0057143834511475  7.7879941903425358
 41.4009354812661883 27.2439982775195872  8.0201682553917752
 39.5064951594368807  6.3919802311304945 11.0139866870690195
 35.7712462405555911 30.3220784378990587 11.0534207438780534
 39.4530758357368754  6.4849577509985998  7.8960607105351883
 36.6449937154100951  7.8723990474731691 11.0844572110311024
 36.6352963183259419  7.9630598612159682  7.9662959906565272
 33.7854029664717359  9.3558144974622923 11.1137212674390451
 33.8198801957477926  9.4397480577424115  7.9954045898729778
 44.2097179511655440 25.7708742564700941  8.0109389516485603
 30.9294531985444614 10.8421539226792270 11.0998077296412401
 31.0062655074500029 10.9160938119825701  7.9821457920916705
 44.2744488732991783 25.8390989469977406 11.1287417768543815
 28.0787820457644628 12.3286145998267909 11.0437997775582861
 28.1946574083044155 12.3918296103298413  7.9273863116733914
 25.2339542237381167 13.8089576115043950 10.9502876218710732
 25.3824470581460595 13.8648029548336673  7.8346700288470732
 47.0179285107802727 24.2995891520400669  7.9659120823811866
 22.4003146583618431 15.2795220377971859 10.8311873777759704
 41.4395921351318677 27.3369639282601646 11.1374268881318486
 24.4578365670422144 36.0806303103253896  7.6635184972456685
 25.9480483227888286 63.2419146811148494  6.7761196975263207
 35.7820518293107810 30.1932255483290923  7.9371825932263711
 39.3206302750383614  9.6647756551740169  7.9956344714791738
 24.4889951922609477 36.1558246543638475 10.7839045799412823
 36.5075971953084704 11.0624261501744581 11.1734238881176982
 36.5062589525984649 11.1406121235088165  8.0560793343040391
 33.6524680543855865 12.5516437670061283 11.1888489066052248
 33.6928908753240179 12.6154822561426876  8.0718164795533713
 27.3026067314415855 34.6095657899571165  7.6959659247239713
 30.8016714274839245 14.0416222529945323 11.1606573887306819
 30.8819491269133728 14.0911789081799039  8.0436597460483501
 27.2998535198357928 34.7129403186937751 10.8149847851552501
 27.9555193031669411 15.5279033443249705 11.0917444477910809
 28.0712859053217940 15.5657059847649037  7.9749330368888263
 25.1172668674946991 17.0059358793378799 10.9898071668602597
 25.2580811462723105 17.0398222019907557  7.8733664075444230
 26.2258361274466871 63.2162279290163980  9.8906453470126969
 30.1402844214028320 33.1383627908745240  7.7665059775990422
 22.4355003934782324 18.5134026711404474  7.7574646736257735
 30.1158287313684099 33.2629863942241073 10.8839498843184934
 19.4722095848543297 19.9218867369138373 10.7712024393860961
 19.6018985285907270 19.9876173769142866  7.6535972959076872
 16.6607821301572336 21.3656373448964700 10.7021970468832706
 16.7602043828031242 21.4603946526720470  7.5834477953649939
 32.9662605296189923 31.6663792567297406  7.8554142703281045
 34.6502077530633059 58.9015782855043568  9.2595664925507073
 34.4684920751377248 58.8132834574249941  6.1374074835337264
 32.9398957593509465 31.8004471276258265 10.9719720887112935
 31.8572019253306316 60.3328326875086418  9.4190824422612298
 31.6137253206128612 60.2912384236446144  6.3001409094390493
 29.0493970096716545 61.7699041310543464  9.6391021523751821
 28.7746154642460930 61.7666304158832489  6.5234587202597174
 22.2899001016849532 18.4696129436411027 10.8738667332374916
 22.5661403261104141 15.3390871577189998  7.7158079118574765
 59.1610589656966397  2.4273508823379242  9.7830687574404287
 61.7202756371747512  1.0741007203713038  6.3817125423620045
 61.3191343503209865 10.6438511284104340  6.8974859352485272
 58.8565072212253853  8.7526324791842534 10.1037458338031083
 58.6253528236364687  8.9133551600602399  6.9910031627921763
 61.5173715770698664 10.4608403679148303 10.0120210878743165
 56.0305310982952776 10.2285821793313243 10.3826561466720939
 55.8117906203321894 10.3697475029046231  7.2695333207041184
 53.1950206315293030 11.7124037912926617 10.6324540806647079
 53.0024131186206091 11.8308687088829210  7.5185786011796578
 64.1454259037396355  9.1965657778212222  6.6284569195213221
 50.3547717894526343 13.2029550636075221 10.8443255909692375
 50.1937463225239497 13.2978439444374370  7.7295756205725716
 64.3210095642170643  8.9927721705943782  9.7443599409904422
 47.5120233499334645 14.6972606753479624 11.0157425444431727
 47.3832741309619294 14.7680588301694495  7.9001128568518402
 61.4461315606525034  7.4613005927869747  6.6999080759881364
 44.6674788508884717 16.1934988830626949 11.1460221565489341
 66.9846675005914420  7.7474376389773703  6.3823811278193485
 41.8211991324596468 17.6903411413846001 11.2339437260168875
 41.7609880988346873 17.7139606886326533  8.1171672866923625
 67.1147414226872456  7.5352094076042864  9.5004034648099722
 38.9747076819904308 19.1874324470519575 11.2786077063081507
 38.9506856267243506 19.1900663658214370  8.1619396017231765
 36.1283163953883459 20.6830076277188226 11.2803659341142684
 36.1410647063429948 20.6664475735276056  8.1637040767911202
 -2.0041309663699276  6.2937934397237303  6.1879014808175272
 33.2848658840452742 22.1754462245494146 11.2405574774393013
 33.3328591888619172 22.1425018201654531  8.1238549202530770
 -1.9423092631176873  6.0888185846602925  9.3088338839917810
 30.4453966192772718 23.6603116384727237 11.1645483392890430
 30.5217715491752983 23.6165809199205547  8.0474714784791566
 44.5720981578242004 16.2402634724889374  8.0295803887024668
 27.6145393140468549 25.1318441485371338 11.0662368969063269
 61.6705948541167857  7.2865137925235555  9.8139008857118988
 64.4728593230131253  5.8290827582641649  9.5357234708987342
 44.5362453343156588 19.4053358058086616 11.1800491378905029
 44.4508314669166609 19.4155335117307928  8.0630913024982380
 50.0699358868214688 16.4728688958898282  7.8176085885064879
 41.6939214758707664 20.9038432745883753 11.2421043036474249
 41.6411660582622787 20.8896193307650009  8.1250715159265177
 50.2162257912312242 16.4103401674461757 10.9333267290930696
 38.8508706329681175 22.4013325000672694 11.2630612034370650
 38.8312791833016462 22.3653605116555809  8.1464612685078173
 36.0082914613459337 23.8971362357421846 11.2438140672840614
 36.0224580462100121 23.8427160550911559  8.1273160930598145
 52.8782660771308812 15.0066855064582523  7.6354139343693888
 33.1677442438943046 25.3865324942213348 11.1868034453484420
 33.2128689637522001 25.3178330887990519  8.0700782519623218
 53.0511854217637620 14.9155646263314186 10.7504250250823095
 64.2775388196976252  6.0088092988108235  6.4187808889370253
 30.3331955202431196 26.8650239074120840 11.1003024855773749
 27.5074019356234416 28.3291373372742648 11.0039976776894441
 27.5735229860595403 28.2642956129030409  7.8857119992560056
 55.6879937354270709 13.5460444933489246  7.4160012767155106
 24.6907130696774182 29.7807078368764060 10.9249351282342619
 24.7362662428148141 29.7354947192352910  7.8047585902457728
 55.8812494626386354 13.4236297987679229 10.5305365014608157
 21.8799889495802375 31.2254627156862377 10.8822045400443077
 21.8921555170100000 31.2065119499627457  7.7603087270592122
 70.0469824022327430  2.9464720414570169  9.1270483090029995
 69.9869065830059327  3.0921833945453989  6.0027524520437909
 58.5003851494034635 12.0918997946129245  7.1661620463435982
 67.2640446178045721  4.3827405732990581  9.2963153663618119
 67.1240378649770264  4.5538149362240636  6.1756485730868729
 58.7034030146009798 11.9377055547715116 10.2799995211764514
 30.3988845738940903 26.7914325213820455  7.9829899808022615
 44.4057600354080293 22.6214502182888388 11.1749038071828881
 27.7028873964319473 25.0894760272986517  7.9484367443209241
 24.7941415405975434 26.5898814580285148 10.9711782911140219
 41.9510349730881629 14.4813312811636425 11.1882905671722401
 41.8829146992935861 14.5395924288459710  8.0717773725710522
 39.1005407901582913 15.9766742153492913 11.2558263297952461
 39.0710786999601680 16.0151012934574162  8.1390987111570308
 35.9032519388728488 27.0180670252534618  8.0513708537830517
 36.2508546658062372 17.4710360799482771 11.2783657357498246
 36.2605379106435208 17.4905716106666524  8.1616504769947014
 35.8896196595123484 27.1105325073504133 11.1678042601243543
 33.4038011389443028 18.9648523649764194 11.2572057253408389
 33.4513712855521774 18.9670748552786037  8.1405632030538388
 30.5605015779069582 20.4532393076652461 11.1959544589079130
 30.6417512774861294 20.4414508524474066  8.0790361852291266
 38.7121811744043356 25.5417967574976963  8.0904601269474608
 27.7244624461738773 21.9318933575356176 11.1032823084339061
 33.0532764655326972 28.5956807112258744 11.0966342698127871
 27.8280850358922187 21.9146573986942776  7.9855543047752358
 24.8986701054841078 23.3968757329393284 10.9989325774848048
 25.0040213816770240 23.3881073425177917  7.8802456877027334
 22.0820248546501325 24.8498210467326466 10.9095665097306753
 22.1684763125588553 24.8612183202789758  7.7897718233557525
 41.5211911083683418 24.0664348673131734  8.0929381152692095
 19.2705147630562550 26.2944525524019141 10.8553891970184679
 19.3247406256617182 26.3328418256304246  7.7346259577150711
 41.5669508146126248 24.1199983068789940 11.2102307636693492
 37.1475690406586310 63.7377353203317014  9.0736083606621136
 37.0145039921487182 63.7641719366578315  5.9480663673618723
 34.3620371451278714 65.1683271537028617  9.2504370694051694
 34.1533958319444721 65.2353134467426514  6.1295937378119802
 44.3302218306035201 22.5926008877824458  8.0573607612476970
 61.9741151765286986  0.9784819616327611  9.4979746327351560
 38.7278000837896244 25.6171864577089856 11.2072273188730431
 21.7519942599179572 34.3786030498344957  7.7253805435777680
 44.6953310775428534 13.0659909588654557  7.9602890314041366
 33.0913559851903116 28.4927448130107557  7.9797903963756784
 24.8721506849426639 26.5621868426923200  7.8516997592591169
 21.7798861522331180 34.4114425399102615 10.8470717887926416
 21.9803462546060011 28.0381782438777414 10.9033620040135357
 22.0309196245056782 28.0339550182357833  7.7821697210384126
 19.1706611157964986 29.4815240709428643 10.8769060665957316
 19.1848285772551961 29.5053191958701966  7.7553802594957366
 24.5983196255746641 32.9084040948719263  7.7413135347744619
 39.7813377319354373 65.4414309167129318  9.0175082212723279
 39.7300254817568401 65.5083179675916085  5.8902105948107844
 24.5894553811286620 32.9695113198744494 10.8618858334516641
 67.4120767319241310  1.2420631961435717  9.1470215161803878
 67.2712995163431913  1.3491308989846891  6.0235190886715770
 64.6238147728205803  2.6789861807564210  9.3636274795139176
 64.4169618243373208  2.8124571385084751  6.2447410734621798
 44.8005683536416086 12.9873422402709284 11.0763980543039331
 27.4400312391591683 31.4375027226278121  7.8005822831617264
 61.5795028405243769  4.2718810077511602  6.5206860270400790
 27.4029286227630067 31.5227093972354062 10.9193061132627971
 59.0088754755262244  5.5833606274376688  9.9310931148026818
 58.7557608847766204  5.7304774026884413  6.8184409322964692
 56.1804832132304668  7.0494416892870406 10.2237130500669551
 55.9401329104058220  7.1903253445921838  7.1114278073074431
 30.2717649058665756 29.9652198919818247  7.8882301140665128
 53.3409751982061167  8.5242768858817399 10.4922656848395395
 53.1297859535188977  8.6542200434738703  7.3792752670071975
 30.2231793404644122 30.0659987760297049 11.0057467563418943
 50.4958851378069440 10.0072331148725002 10.7261721322609063
 50.3191184080928764 10.1230468777933034  7.6120234126338007
 47.6488911441549234 11.4952582835377957 10.9217472643215281
 47.5074467943057783 11.5937088745368051  7.8063976616069457
 61.8228599010024737  4.1261099180793321  9.6354154022298921
 47.1069096397048881 24.3402580483109148 11.0838772877306120
 19.5772023194175375 16.7366651955369043 10.7103997674476421
 19.7387391987498120 16.8137178307169854  7.5943508928083832
 18.2785656895287971 54.9696465188710732 10.5756573144223953
 18.0837657484672221 54.8968671535203327  7.4596103238989340
 27.0169085361290975 40.9525123141633713  7.4422616914515860
 15.4239009410664156 56.4382300555328911 10.6971644489610060
 15.2643174454293842 56.3738954819908713  7.5802504182004755
 27.0947774602365392 41.0817126888259665 10.5610975065486929
 12.5635401018852022 57.9080012674802660 10.7891242343178853
 12.4432115643995633 57.8548718587828787  7.6703680645407859
  9.7000348463128425 59.3784405548149223 10.8503149449149472
  9.6214810086304183 59.3391894322174522  7.7294138351497947
 29.8625552358067665 39.4816695453883639  7.4597890443694252
  6.8339123371131940 60.8473359427417932 10.8791156174523795
  6.7987397659697040 60.8241060543213550  7.7571999137159855
 29.9037408916270131 39.6415016125194555 10.5773726427046686
 20.9031902935671390 53.4223366950442013  7.3144089990122350
  3.9671489252624941 62.3163990602566926 10.8757243058143906
  1.0998439443994734 63.7840071482546591 10.8404551432331271
  1.1528395946037451 63.7951432058569168  7.7194815763105407
 32.7023502968921065 38.0109939374928487  7.5199857556235647
 -1.7660578204838278 65.2527979907594329 10.7738823913169153
 -1.6693103878120383 65.2805784419798414  7.6539230610646163
 32.7162336596488572 38.1935543682564571 10.6361946311650630
 25.7820084936637421  1.0923278146066695 10.6766225678239408
 25.9207010336182648  1.1361901741896572  7.5583016280381345
 22.9239104912667422  2.5594797638224693 10.5503739635743621
 23.1034444417439246  2.6180533377893935  7.4337903579584150
 35.5309009230834505 36.5413507886454525  7.6044020505755743
 20.0711117715945235  4.0226673002117037 10.3966101076375619
 20.2877485412657315  4.0963308701145600  7.2812364201796695
 35.5344361321191116 36.7332571384731068 10.7202824709263638
  3.9759872193394363 62.3103635795018533  7.7539857180648966
 17.2314043406997683  5.4803656394442450 10.2224927607065386
 21.1217352083737211 53.5049477870331884 10.4297581772546195
 23.7293904218773903 51.9490576507835797  7.1611143080301538
 31.3575272329370591  1.3132302337484483 10.8709657817400540
 31.4163954523881834  1.3631997935921647  7.7505906767741770
 28.4935604577364181  2.7836998319577306 10.8178186356152324
 28.5962370112932547  2.8469693575631090  7.6992030136629710
 55.3312967750491964 23.0929091091131298  7.6871963382857400
 25.6328067936301238  4.2552898792743452 10.7331915165876275
 25.7770942212503869  4.3293341394443940  7.6160454631798951
 55.4303313254560521 23.0562819415687237 10.8070497575310327
 22.7779182550349084  5.7246076464241629 10.6176642074253618
 22.9613630660120833  5.8068933824717526  7.5017617936279768
 19.9323251394155072  7.1906398093121258 10.4740816205241583
 20.1475322975496063  7.2827792652919392  7.3593734329331078
 58.1448980220495315 21.6365547680275796  7.5624266157049735
 17.1005931010405163  8.6478980867367579 10.3152291372226745
 -7.9831323601306501 18.5661001041142768 10.3794143164696742
 17.3289970974231871  8.7590421117982107  7.2014149513358090
 14.2820480033747437 10.0934660942628884 10.1669056721538809
 14.4995205547164936 10.2338446761237520  7.0524842968014587
 11.4753128863844491 11.5311014739001276 10.0554296181053839
 11.6603323402766552 11.7081005134887626  6.9398390422916618
 60.9603117853891447 20.1844079509287830  7.4187041724709974
  8.6755807547948578 12.9664418529759491  9.9989805888757815
  8.8136274614533114 13.1806880662396289  6.8829469763161466
 61.0538617103144858 20.0602385326875350 10.5379977921457382
 29.5753490790380020 49.1686133569734594 10.0454433305202109
 29.4084044963754856 49.0003192037641355  6.9281571981521033
 26.7692090001181491 50.6050356459598589 10.1401403160629897
 26.5644023565063279 50.4748035112917606  7.0242725080170914
 -8.0645470166558830 18.7348191930872368  7.2613503423956871
 23.9518640690944764 52.0500102710982091 10.2760804831893111
 58.2436986714392191 21.5568068107797650 10.6823142007571050
 52.6132732779143382 24.5575077933920198 10.9085327666715326
 17.4726930891486028  5.5743277442311916  7.1079830011642677
 14.6499127987672981  7.0508075384698952  6.9332048950633673
 -1.5218893848355819 62.0825216580939028  7.6491774418035456
 47.3775084296141529 17.9071943604336425 11.0768431264409504
 -4.4755472137120877 63.5646185805049271 10.6574648544038961
 -4.3426193168217608 63.5670671205352278  7.5381605390843287
 -7.3360100207303205 65.0307568200536963 10.5159324557755340
 -7.1620588676649657 65.0503728146717179  7.3982684725932044
 52.4034405753603565 27.7396819877250138  7.7767630595879611
 20.2190529775587464  0.8650181910225836 10.3468874264068020
 20.4327254981053237  0.9026187477949229  7.2306457656910235
 52.4634780473996969 27.7747286105889586 10.8974316541122054
 17.3724792079838970  2.3224809083948599 10.1547636058702206
 17.6178299931687974  2.3810712580116222  7.0392867664982113
 14.5419940528479579  3.7732451438248606  9.9537600890027047
 14.7995935771311764  3.8598292426655907  6.8389144669110484
 -1.6122577464513161 62.0968423908116662 10.7697514307191646
 55.2159327054510953 26.2812282343413273  7.7195410061780434
 11.9700225650707051  5.3374658117344289  6.6539998950250316
 55.2781646722240012 26.2721617605863713 10.8408869083566284
  8.9230901680370032  6.6477767262809015  9.6292096940166392
  9.1277377578201868  6.8141250620136837  6.5123152811837715
  6.1306590039861790  8.0793143317839728  9.5569790295583719
  6.2749591718405142  8.2879478774927016  6.4389657794794148
 58.0296287381151359 24.8248562968325004  7.6403830447033148
 26.9901538254387745 44.2599379080795288 10.4203283870640977
 26.8690917363593371 44.1246779249872674  7.3026080231058046
 58.0904526820524794 24.7711180989234130 10.7619097022219172
 24.1804709851229447 45.7001248037743579 10.4874513736926342
 24.0251540173772504 45.5973898306022107  7.3703989346137533
 21.3637365304266744 47.1487312905043794 10.5928977359321195
 21.1889053161505778 47.0697971489841578  7.4768419855650867
 11.7260216583443562  5.2143496960862805  9.7694126923786655
 14.4069841518759993  6.9286895389324954 10.0475289514865800
 49.5916256824801067 29.2003432279489772  7.8096072872393334
  1.2535442847154910 60.6285774637076216 10.8513264093288324
 38.3480401257029868 35.0709409312915810  7.6893396544711816
 11.5959087769808438  8.3679330724326366  9.8990735823712193
 11.8149984811840270  8.5269548315911958  6.7839539013460977
 38.3575558999425326 35.2560189838193949 10.8049160388576482
  8.7957102294456373  9.8019532911712481  9.8017889412337222
  8.9698498651328578 10.0019863040300532  6.6857734262200061
 26.8825350502080305 47.4347121237312521 10.2777140211307998
 26.7181229363121702 47.2983390823775096  7.1611347346413901
 41.1601371809276912 33.6012115914569591  7.7574453595119763
 24.0701034136116441 48.8774446508305118 10.3798403664835543
 23.8781725823796904 48.7721038566989478  7.2641142062057718
 41.1827649267716325 33.7678210829653906 10.8733212602896927
 21.2475032560273114 50.3294757464085478 10.5110584841896983
 21.0471199264573983 50.2443448996454904  7.3956136368050043
  1.3010582389718204 60.5982283029115720  7.7302964319105030
 18.4127065007587127 51.7937298381704352 10.6472262508302240
 43.9696004191780716 32.1314433972454196  7.8011094490630732
 15.5654352457774152 53.2657719421751352 10.7644711728389879
 15.4066623321777563 53.1897408395968299  7.6476633864582997
 44.0060858395170271 32.2736529879770515 10.9179754649116045
 12.7092188448149184 54.7399966189973384 10.8503376152172155
 12.5880019531010294 54.6661834100403752  7.7319238245763557
  9.8484969553529851 56.2145706165336208 10.9018335216477968
  9.7677145577744966 56.1470226209433960  7.7817773089502573
 46.7802139136855999 30.6645582198206768  7.8180995455305595
  6.9849407294382466 57.6877382468517368 10.9184207814184067
  6.9466968292763065 57.6298126177636405  7.7976567096428955
 46.8280441692065423 30.7761984996653091 10.9367133711702156
  4.1191817523617669 59.1586313687534258 10.9010929237302570
  4.1237012731599272 59.1136270909329653  7.7801156255364043
 18.2245740829596805 51.7165853652605136  7.5311753212649393
  3.8276206464291809 65.5072997806396700  7.7696490604717221
  3.8136258257491695 65.4723500716005873 10.8912985824684796
 52.5191566637258802 24.5522815641538052  7.7889985582070995
 61.0772315394393317 17.0010239167148711  7.2684754528805184
 33.9261718332603692  6.1735338992439752 11.0253985054035724
 33.9530744082194786  6.2599788638283487  7.9060191478835495
 61.2079444207027663 16.8514172628383925 10.3858603896013797
 31.0648121935213908  7.6526019717242875 11.0190900490898454
 31.1361344817758585  7.7387406447772973  7.9006982334731095
 28.2084991126695250  9.1345738489932113 10.9730700756009512
 28.3219491452021721  9.2162237244368086  7.8563864321815720
 63.8980628922764495 15.5556067872235335  7.0667254181434975
 25.3580865089315139 10.6150273360629299 10.8886671894542015
 25.5090339784508018 10.6903759305859083  7.7734074059418736
 64.0141905185656981 15.3635122674216849 10.1837968701333565
 22.5161608191257940 12.0897310101715298 10.7718853696854975
 22.6948969199571380 12.1642755341548749  7.6570644770185643
 36.7713118315571137  4.7788763591836059  7.8731766817186495
 19.6872902573148174 13.5521899707657951 10.6390439745415790
 -5.1185921673998562 14.1109737854016757  6.8642069205240928
 16.8694680413634970 15.0019444744249029 10.5168583563670417
 17.0437681631547484 15.1128264556377037  7.4015953264863734
 -5.0292667011269696 13.8828398720683719  9.9810777765873500
 14.0595438733438804 16.4431126693941074 10.4287671957370272
 14.2034190419867006 16.5862507202061096  7.3123156119891179
 11.2541408419570015 17.8807767471117280 10.3896261069320648
 11.3579057033114790 18.0566026497483918  7.2724570201208554
 27.1613425994122402 37.7812329485622627  7.5750019938669819
 32.1285242449677497 54.0498622143817329  9.6211503548034880
 31.9369005642612400 53.8912232022907389  6.5032943587006260
  8.5608408787463546 16.1404278301326585 10.2033966104993272
 29.3284880940929149 55.4840273734763088  9.7489204921713366
 29.0893814005287759 55.3695439846055564  6.6325183031402899
 19.8745994735680291 13.6386056580118904  7.5244223092017357
 27.1974666547965036 37.8995676330757263 10.6942828282322679
 36.7894055869368586  4.6963169372611997 10.9924025486947698
 39.6537558955065137  3.2230030884460277 10.9230607353698819
 16.7631816824201891 18.1828223581065878 10.6133226262382276
 16.9017348934474363 18.2871026078122867  7.4961680195689571
 49.8267388847705988 22.8315865362119332  7.8847804867578359
 13.9548891285749121 19.6229150248569653 10.5573004287654388
 14.0582951338606481 19.7591619954549280  7.4394713098996625
 49.9366255492291629 22.8407570034391227 11.0030468000213659
 34.7874419197621592 55.7640761018719857  9.3816534150599775
 34.6315749572432878 55.6090232970283864  6.2605478892883752
 31.9962349257205432 57.1942251366345289  9.4885716336440389
 31.7743641331484170 57.0875679973209671  6.3698863513975219
 52.6365645846901842 21.3669048334172622  7.7701203044469898
 29.1923064259453611 58.6294650606007579  9.6639880946116055
 28.9300043022712075 58.5653346548273461  6.5476360609774913
 52.7611692862907518 21.3409723950155588 10.8883925706023987
 39.5920174486059437  3.2975315011167701  7.8040884179592922
 26.3730719510897842 60.0717002555674640  9.8804382184202826
 23.5384371681948679 61.5225112045666549 10.1096918422685125
 23.2772562273351866 61.5190048541420964  6.9947103743508459
 55.4481581668964765 19.9065972119285846  7.6264776451063003
 20.6885201126657208 62.9802784268123403 10.3269248425666298
 20.4603965737369613 62.9967720047150550  7.2114059362999914
 55.5813233730969287 19.8422287088418479 10.7444468334844956
 17.8300315437228925 64.4430239879468303 10.5202156551583155
 17.6419671783788381 64.4769997576426306  7.4034100406486631
 45.3799783675623090  0.2814439884127489 10.6852670723849137
 45.2335654437171968  0.3311680732935765  7.5671812126773004
 58.2615497294482978 18.4513195366410017  7.4575810899463697
 42.5175391066319932  1.7513176354732736 10.8199746174435418
 42.4130086693498072  1.8148034828154240  7.7012501071801855
 58.3973329959942618 18.3452301146210957 10.5752584094578861
 26.0982338581190092 60.0421311783120899  6.7656314413600800
 26.5143273883186659 56.9235305717742222  9.9261260829028259
 26.2527745690082206 56.8458994122774044  6.8113229872366636
 23.6847286454965875 58.3717819974322012 10.1261104030495073
 17.1857137264312705 11.9371442568845758  7.3022686872902822
 41.3122893341254667 30.5537862319976661 11.0245185814747551
 14.1674579930910998 13.2662429703387019 10.2968237645449481
 14.3504914997430237 13.4117211893988522  7.1818446491289949
 11.3625977760898316 14.7029808195309357 10.2223831505098595
 11.5073079721908638 14.8837936505205768  7.1060380062691859
 44.0891943117020091 28.9504277303995856  7.9248469282831300
 29.4559784276309138 52.3305028550445002  9.8817447591988579
 29.2492101206325259 52.1808589375419629  6.7650724812035765
 44.1413387801321235 29.0566407576193519 11.0422704403974681
 26.6470052694449215 53.7684217881188502 10.0177910561808083
 26.4089833028440957 53.6566027040399476  6.9026978991460002
 23.8233877562530161 55.2149433707897899 10.1862672937338719
 23.5785839805459609 55.1317462114830974  7.0718634372701272
 16.9807290348222431 11.8230567280429852 10.4160497273768602
 46.8981512762698998 27.4814096950681943  7.9098653772205649
 20.7568199454988225 56.6076598917072005  7.2457545627907107
 46.9683484705188192 27.5588770672195693 11.0283238339393836
 18.1344997270205397 58.1341419874895777 10.5198217081312073
 17.9380220096796350 58.0850307641960839  7.4036209288119386
 15.2758952717586265 59.5998319260542218 10.6531111293787220
 15.1179829287418332 59.5658322390653296  7.5354322228922621
 49.7083614900908586 26.0148889694817207  7.8641478781914982
 12.4129093249143043 61.0675573774229647 10.7583719380368752
 12.2955625670137749 61.0498633962619124  7.6389107913229504
 49.7926626631789730 26.0587093545214366 10.9834475577955626
  9.5474223794325397 62.5353974621025372 10.8340391178080271
  9.4727503405115243 62.5352637048310598  7.7128685483418922
  6.6808206399528931 64.0033409894842009 10.8787747824546113
  6.6499576332014669 64.0212081909451740  7.7566996861048292
 20.9853501732490741 56.6716605842258900 10.3610459923414009
 41.2809340970273837 30.4228195407443991  7.9077674106285016
 20.0104251504471442 10.4622446153780828  7.4448601764061104
 19.8046827443075131 10.3690179188634630 10.5589050700345961
 23.4272668573619463 58.3223612132689055  7.0114726379148316
 30.0037808509730475 36.3104956340110476  7.6220071926047748
 20.8401231278408474 59.8287942957745429 10.3222867067242330
 20.6087056397848336 59.8001259802510177  7.2068092949487159
 30.0096002019614296 36.4550809546540506 10.7394917603816626
 17.9841966616156128 61.2904703545248424 10.4981049502044677
 17.7902309734862847 61.2799265363948891  7.3813355908732206
 15.1230898796583109 62.7551832080854979 10.6474562615023256
 14.9693964198317548 62.7624378166445567  7.5290689909728012
 32.8373094240083958 34.8393185602043332  7.7004949487084913
 12.2593617144240294 64.2228456143065642 10.7682876661632800
 12.1475768847457797 64.2473572694699016  7.6487532362385400
 32.8277997351372193 35.0000740856257835 10.8166935463867304
 39.8049943098335675  0.0627438824918531 10.8592825047752726
 39.7358998981705156  0.1037674532852812  7.7388392193156976
 36.9390694323849118  1.5322712869792461 10.9189497870529220
 36.9141259836486597  1.5883263365082796  7.7979687200858505
 22.8259750010884765  8.9879401256915781  7.5827673992251130
 22.6417338745220320  8.9025889478108571 10.6978764554939456
 38.4819738006425140 32.0458372177198854 10.9763265751228083
 25.6399393828900237  7.5136273013399224  7.6950971967409130
 25.4909390572916017  7.4287914324961655 10.8111547761092144
 38.4716074326988533 31.8953277663449590  7.8602447038812837
 18.5364521618636182 48.6090290978091346 10.7167429168813992
 28.4551754022429257  6.0351680721025671  7.7733395260463469
 31.2738174129322779  4.5550668209474221  7.8163891992906107
 31.2087522044164771  4.4775581149222372 10.9355833099167867
 35.6527602550531881 33.5302220126373101 10.9031305996900265
 34.0928023678994876  3.0721544800897140  7.8242728654509515
 34.0728849636193161  3.0038715993963412 10.9449274801046670
 35.6583541296696609 33.3676455294531564  7.7871878947366548
 28.3469118833806064  5.9521587305870858 10.8907604040685868
 -2.6660055426383797 22.1930968162198141  7.3954024525149915
 -29.2848084871875614 64.0152653591036369  8.9952141758252786
  5.7581509699853886 17.5846724419134048 10.2379776921226604
  3.2665444031784481 12.9345182985385296  6.6956864437460171
  0.4166660274685016 14.1308128046373866  9.9122217300203932
  0.4211531660709077 14.3902944045339272  6.7960086355922655
 -2.3798318167950017 15.5977198433823272 10.0533730984286152
 -2.4146107956869871 15.8405849741904383  6.9366465378938038
 -5.1796878626274383 17.0778111943362134 10.2146066478194122
 -5.2420004392253530 17.2881617211128500  7.0969495561787541
  3.3429521316636772  9.5138618575338327  9.5650845440608023
  3.4171583799042646  9.7545431669093698  6.4469071630945294
  0.5554472353585291 10.9576923190485118  9.6499114339599483
  0.5628041914346513 11.2133008016848290  6.5322943595925214
 -2.2349356565715337 12.4134752165845725  9.7956616655378603
 -2.2829773899681194 12.6647675669857644  6.6785423828785691
  3.4792469031047069  6.3627495996586028  9.3468500769214096
  0.6959744379042395  7.7982790093378496  9.4033825425010402
  0.7096174954738244  8.0285086126494125  6.2832583208351016
 -2.0891730679927982  9.2439496800027232  9.5399396758066750
 -2.1464698041843331  9.4837245414742455  6.4215798923516951
  0.8384473362190520  4.6523334147803048  9.1965261141466783
  0.8609693641226142  4.8316758034746972  6.0731258826616514
  8.6609007819559984 16.3533358422170387  7.0868313627736077
  3.2102578146933740 12.6781937198451082  9.8120878323676628
  6.1182983347336313 11.4713484869466402  6.6551285312692423
  3.5723381653155877  6.5645099542428369  6.2260586650772325
 -8.1822368163039538 21.9183574164145405  7.4300404918764746
  5.8169062172977188 17.8183585869107333  7.1220492513466711
  6.0018926959298948 11.2361856495655257  9.7719508316304076
  2.9530215024204840 19.0416211019792279 10.3142093123832357
  2.9812328529605829 19.2790735321766142  7.1981084084016009
  0.1440430994887106 20.5141483205401407 10.4115168773103086
 -2.6658577695264820 21.9987693588164319 10.5125284448739809
 -29.2368906319887927 64.0335818699277439  5.8673891532460267
 -5.4758570552031776 23.4900128258676730 10.6083329792132073
 -5.4833208675599732 23.6486639953994597  7.4894057950052524
 -8.2855347943194193 24.9865836957692729 10.6929295854404245
 -8.2985367545168991 25.1043320675250143  7.5720827955633645
  0.1542774023807066 20.7368628601622085  7.2949852299195053
  5.9653941775731720 14.6470877903463705  6.8886743881385133
 -5.3632976451396548 20.4670986965584838  7.3066587934879941
  5.8782099441707656 14.4050685590043042 10.0046840386073370
 -5.3288237768392976 20.2815727489473012 10.4249939175212898
 -8.1355519947299939 21.7745045744343315 10.5496992046387632
 -2.5236213346187073 18.7944217209305116 10.2954559599716049
 -2.5417982479656542 19.0156658033307053  7.1787333472162089
  0.2853482168791092 17.5637958915084766  7.0548869728352290
  0.2797817940311531 17.3173713795098649 10.1708907847249055
  3.1210225025172571 16.1081643718742278  6.9513824683392338
  3.0802279990507349 15.8544202561405623 10.0674139097065485
  5.4470805561631019 58.1961878083216320 17.5075988274340375
  8.3735076352606654 56.6162042416826878 17.4987117052529939
 11.1885082716609645 54.9807671174727446 14.0931922141048336
 11.2996852727016730 55.0354407768426555 17.4523190908297678
 14.0742950393266373 53.3926792733175262 14.0145182113588334
  8.3074454413177303 56.5681679090840106 14.1385475143193560
 14.2236770728552813 53.4542690254177586 17.3719981162559414
 19.8695144765723697 50.2039651506669529 13.7957865670038231
 17.1427353955563717 51.8718572164798317 17.2663057686425709
 20.0543068927132246 50.2873383043734137 17.1498635509400756
 22.7819135190730861 48.5962953654645204 13.6879915282123736
 22.9587324253476517 48.7003587963498035 17.0403786728672948
  5.4285515095426788 58.1551827671171964 14.1469711203721271
 25.7031484159519579 46.9800265653412978 13.6032229055035643
 16.9672908304866006 51.8017440701625915 13.9108638696564988
  2.5217576042288492 59.7752589106629770 17.4786684707986844
 18.5533646416012168  2.0829201899339953 13.4834021341679087
 -0.4026960661948538 61.3538295336767945 17.4127544157151917
 25.8578535995920831 47.1100311606764208 16.9546798553367957
  9.6270035249702310  6.8101762391091398 16.3955838059072576
 12.7291843507199331  5.3143442258865594 13.1614053111322971
 12.5246142235362932  5.2170398182963229 16.5074574301000254
 15.6481487816539691  3.6941510040216166 13.3111592196851323
 15.4265113010320949  3.6283428479299209 16.6587557989045898
  2.5504034483460387 59.7429607152244060 14.1182375820624681
 18.3327914411867603  2.0442515395006606 16.8325836189090197
 21.2450467336376150  0.4628796490961484 17.0104974891151812
 -6.0821800254582268 64.5122393127724933 13.8195841281970679
 -6.2479922402330264 64.5114397142043572 17.1741643796648695
 -3.2038332539824932 62.9207137815640536 13.9531081777597130
 -3.3263760567719260 62.9323332090282364 17.3105915927288763
 -0.3269663611139593 61.3314123267567481 14.0534873593887006
 21.4453858172519674  0.4799342647227124 13.6590699787511198
  9.7053361500888986 10.2826935900122827 13.1895976961521200
 13.9950017864481104 56.7186324305459380 13.9666408810819469
 12.6387469418603544  8.6561337936835407 13.2684912302686442
 11.1147685488831716 58.3090945497686732 14.0535762202354402
 11.2235899485067812 58.3422760713616597 17.4120981142505187
  9.7979346400102703  6.9415258548179430 13.0501593061154413
 14.1464803705332933 56.7615991439313561 17.3232315325637138
 16.8808700571728352 55.1257779744474448 13.8512537197764445
 17.0653866844625668 55.1806297611260987 17.2057146180523333
  8.2987094349523058 59.9225153202599756 17.4656269039979009
 19.7754236252376927 53.5277463830051161 13.7191011040111466
 22.6815162067956173 51.9214971796360416 13.5879351178265271
 22.8837882389224347 52.0143545611685028 16.9386722997250736
 25.5990949317748715 50.3060622905246007 13.4757077795684630
 25.7836416152053118 50.4266174672397511 16.8248477681084800
 28.5267248002222082 48.6843593668226404 13.3972347075670442
 28.6790480546580007 48.8350264090904247 16.7462347786394012
 19.9780355998982593 53.5984756952659680 17.0719581076583644
  8.2372985127905221 59.8985787293151688 14.1057013394292046
  5.3737177043545312 61.5016849477568641 17.4819085230182978
  5.3603264384266147 61.4878325770397467 14.1213743038127753
 12.4503698345293614  8.5224521996586340 16.6156117072342546
 15.5618253245259694  7.0348105481615306 13.3878463407585340
 15.3520136884841847  6.9318373704396592 16.7362496729927273
 18.4730695941372289  5.4222221176658190 13.5333302364677994
 18.2587674363424384  5.3468712203487181 16.8836034375818826
 21.3710612500224890  3.8181850194121081 13.6885112890779617
 21.1714404286703370  3.7660622636823038 17.0407233019106457
 24.2582732952752345  2.2210465731015931 13.8340671809972235
 24.0896730001529313  2.1869394604566739 17.1889854152254955
 27.1392096318689084  0.6284324250553494 13.9562292703808790
 27.0115528906271969  0.6086091088921787 17.3135003764198920
 -0.3938230437155493 64.6666644235373553 14.0463956103452929
 -0.4752761194396850 64.6586568597481062 17.4055469806864060
  2.4833250177088262 63.0772012495351859 14.1014459020433236
  2.4492425117051204 63.0802982284357867 17.4618348746979350
  9.5529254001254440 10.1171259410895473 16.5365053087900904
  6.7332310518685334  8.4061755338610880 16.3379388262264840
 -6.1757701456176326 61.2073030753262017 17.1916806705367016
 25.9336849248485137 43.7882207862608723 17.0892044413155411
 -0.2530189818646935 54.7406665219900148 17.5072924310593301
  2.6950723515528168 53.0910384785915213 14.2223221804058486
  2.6755058655005248 53.1602202351150552 17.5837116854343982
  5.5799719491102051 51.5117207412061902 14.2573114588173926
  5.6057697104284046 51.5791313859758205 17.6194171471403855
  8.4679661584310839 49.9334000996865939 14.2520951009596022
 -0.1875014004393822 54.6721545947749448 14.1472568460341375
  8.5366287630145248 49.9962873699277992 17.6138578354807365
 11.4657160466531298 48.4114642140910263 17.5692864977622953
 14.2578353779210829 46.7707627637607359 14.1347319549635522
 14.3892262138491382 46.8250871860335565 17.4939946590051605
 17.1638756137644926 45.1782734772015715 14.0456203600581571
 17.3042671132615382 45.2371782458315579 17.4036489524606282
 20.0784763668691326 43.5747383520267846 13.9609342629421462
 11.3600163101831093 48.3542636758025353 14.2087394027752900
 -3.1791707381612473 56.3209727067396884 17.3917331697796271
 -3.0682730859088512 56.2551819149514216 14.0337594287480663
 -6.1022371677924871 57.9021156316169368 17.2396071210016082
  4.0716541520479250  3.4946381595809011 12.7067187386155247
  3.9835782740305370  3.3922026459790935 16.0507304121676455
  7.0230872624770733  1.8617786463259909 12.7700840182890776
  6.8743049842177246  1.7962713513580981 16.1139520151843598
  9.9621414069899128  0.2326597093040430 12.8989605263660874
  9.7679094764530845  0.2029795344847403 16.2426617709114147
 -17.5242436780857354 64.2386293720413306 13.0762594972576522
 -17.7456056933720632 64.2409733727666179 16.4209660253797445
 -14.6149126167266594 62.6255231384137190 13.2831534003674712
 -14.8436565479051712 62.6538100707137673 16.6298450055934879
 -11.7188182344664860 61.0229937846137531 13.4989793483474561
 -11.9353658550799402 61.0685711549243138 16.8481048581664936
 -8.8314075570845887 59.4289365838965153 13.7036930373022745
 -9.0211675067313184 59.4846347808466547 17.0558498330897947
 -5.9489267794542089 57.8404409110255315 13.8845063898676493
 20.2114350218619876 43.6475612126385712 17.3177248765243057
 22.9992440937186657 41.9624760482872006 13.8957959062427747
 23.1126384388158392 42.0555809047737199 17.2526394224711446
  6.9421792079588851  5.2213201785250005 12.8572648518784014
  5.5010071688307782 54.8286543715337231 14.1953468621480425
  5.5239413962099073 54.8890928181175823 17.5566544971614604
  8.3838141996585200 53.2452820806019034 14.1909653759612553
  8.4524857544771610 53.3081707240676010 17.5519580316120241
 11.2704054998943874 51.6620303789079074 14.1494752611443460
 11.3804568308197176 51.7260929028136331 17.5094060555931392
 14.1626710616728477 50.0773381501385941 14.0757859608567966
 14.3051025361048865 50.1427877738984762 17.4338790178044114
 17.0623311571271863 48.4870645310487944 13.9801843332339111
 17.2229352423726567 48.5574472473807717 17.3369065103183324
 19.9712166469548151 46.8873196939389985 13.8804204171610852
 20.1324554237110114 46.9700980818224565 17.2357556841325810
 22.8883432884284801 45.2774708152500764 13.7941083569891330
 23.0352957519826163 45.3803219352828506 17.1487502583582661
 25.8120797470852246 43.6606965359039663 13.7350013003042015
  2.5964258035322967 56.4688669159222698 17.5218344395807826
  6.8556839141393962  8.5708435321855401 12.9926362014044265
  2.6202018885326699 56.4129569327819596 14.1612657304365293
 -0.2590550902562029 57.9986337576595048 14.0891501630320217
  6.8051134750712965  5.1006424011327329 16.2015794004601759
  9.8833156268415827  3.5905338434227603 12.9500816346566090
  9.6984887918720233  3.5059138045579425 16.2942649863108464
 12.8115284320758605  1.9648477991965863 13.0948284574490792
 12.5959962705466566  1.9142584046939404 16.4399505145043250
 15.7255632008441175  0.3468857747045629 13.2746152495074057
 15.4974837912690191  0.3267373370614517 16.6215301301255103
 -11.7855703276263277 64.3669808249642159 13.4712958220018226
 -12.0068442466077983 64.3708078604937270 16.8200735922316866
 -8.8970665983658925 62.7676266562101901 13.6639549544719205
 -9.0939162326425844 62.7882916067442451 17.0155885310504473
 -6.0153955788700069 61.1746481365790018 13.8367146123031848
  9.6057239780162078 13.6127335568725343 13.3546489502339014
 -3.1370505540174536 59.5854919133160550 13.9802507987971438
 -3.2538602975898838 59.6272997724387750 17.3377587281836014
 -0.3294306879732472 58.0480809810736815 17.4485299872214590
  9.4765442197322987 13.4283549891890797 16.7029936858195072
 16.8043772258450730 58.4587805078293741 13.8145620239805123
 12.3739316006081470 11.8327567394876390 16.7516638066461852
 16.8479673903925473 65.0994238350926793 17.1864425166019323
 19.5491952082117386 63.5417673724641716 13.6541061728081985
 19.7643739674437171 63.5174714308359185 17.0043741384100393
 22.4371998508028199 61.9423777863987013 13.4560214795379363
 22.6737351649001297 61.9338068498175929 16.8031897572132785
 25.3375042057230679 60.3334657005183672 13.2559173450930228
 16.6683702613894091 65.1346558176796719 13.8326365777756539
 25.5748972889652109 60.3481333664699235 16.6017993535781017
 28.4700965647147548 58.7597449450697695 16.4220858654727664
 31.1842456704033815 57.0866482732542977 12.9398016784578029
 31.3618897199592332 57.1685047390669467 16.2844391335334855
 34.1271635898225796 55.4544306375448599 12.8595770163216514
 34.2518491899844619 55.5752847358316799 16.2043386245057022
 15.1420755356003607 20.3261514624308184 13.8574993246303979
 28.2534801348909212 58.7142261093767814 13.0773371042788931
 44.3375673617994366  1.0519685659277183 17.3377978560198329
 44.2013510376536018  1.0957494568389317 13.9809918971987770
 41.4132763024652775  2.6320741094746842 17.4528761733670237
 21.0935296008339499 13.7856232501878324 13.9071974489476737
 20.9277565716846894 13.6953540259876689 17.2628713993936316
 24.0008276596952115 12.1879091714002588 14.0115090826597459
 23.8436176023320385 12.1115845654223442 17.3688380453563980
 26.8995977619402744 10.5998665549523885 14.1061431888915472
 26.7675522495091123 10.5303240173889865 17.4650506351113677
 29.7916091784470218  9.0172038954843146 14.1753106644210103
 29.6968844072925933  8.9498449544773440 17.5358495046794403
 32.6788047996023607  7.4357322500761871 14.2106703402253327
 32.6281416923779943  7.3700834486433537 17.5722683872756242
 35.5627792003235257  5.8535268003880114 14.2091517176188820
 35.5585505297593940  5.7909417966233274 17.5706156639214477
 38.4442834265249616  4.2691445226976619 14.1701137125823617
 38.4867693623141491  4.2116336252683535 17.5306964773094940
 41.3237166261713114  2.6832856676529508 14.0940079821061079
 15.0383574982572590 20.1991923086486551 17.2130713978155079
 18.0195515649415547 15.2831808550306967 17.1651997898083977
 18.0670319486751971 18.7089898997748456 13.9062746762400522
 20.9868459356688817 17.0972114503261672 13.9830117499815287
 49.8947414525538093  1.2526970363717780 13.7008389579594123
 50.1021370157118326  1.1961379444691136 17.0516211797078441
 22.3706242061971068 65.2870051231783748 13.4899825317268913
 22.6033723190380194 65.2398187557276259 16.8376911848384765
 25.2669796734063219 63.6844389453698199 13.2691485747763060
 25.5074977927618782 63.6529622873042982 16.6147539461115166
 47.1836692974556300  2.7787005676986052 17.2412829131215339
 28.1777670905659292 62.0704439632338705 13.0601843341957391
 31.1046094142762115 60.4458467559487573 12.8862488557141628
 31.2966367806314452 60.4731746742473888 16.2298839632997058
 34.0454180957405086 58.8143163041411015 12.7659499479803777
 34.1860260227189272 58.8800444521546211 16.1099846723629732
 15.0279913562212837 23.6386702244268712 13.9645788132710411
 14.9595127980124349 23.5263313162544101 17.3222622785256952
 28.4044705580864907 62.0641104838211461 16.4045351411858391
 47.0130841587161612  2.8410313550917876 13.8869787229583679
 44.2607319552108365  4.3600368241953120 17.3977839245070030
 44.1332138883774405  4.4266977692153269 14.0403768158457574
 20.8441833425968426 17.0161229158258749 17.3400317508651334
 23.8997286940863809 15.4955710558864457 14.0750449012842491
 23.7566062527046924 15.4297180721803997 17.4333884125890997
 26.8045836451931478 13.9054965710015193 14.1658704563107101
 26.6777144885432520 13.8461606016240033 17.5254307147510673
 29.7021223592347923 12.3239465817253055 14.2371500554025570
 29.6064052493495886 12.2636780698907426 17.5981494874872944
 32.5945471174528336 10.7462912313528367 14.2758207624255302
 32.5391093467539250 10.6816610990194949 17.6380023743195196
 35.4834274678296140  9.1695860184222369 14.2759994529298098
 35.4729422651627502  9.1006319783088632 17.6384262613986564
 38.3692440058475057  7.5912438813004677 14.2361614429353907
 38.4049244051745617  7.5201738832759411 17.5978019699587840
 41.2524197819656351  6.0100431920179203 14.1573431524929703
 41.3342618054781568  5.9402390442777948 17.5171263907920682
 17.9389486208858848 18.6061688316416642 17.2621796557782545
 18.1775646794019643 15.3941090085029870 13.8112686601718657
 15.1171474645181316 16.8749448035061853 17.0919796276506162
 15.2543067106452970 17.0107635545248357 13.7390271340384231
 11.1502674652333091 61.6480608381713964 17.3973140224616394
 13.9236744387553451 60.0521909476964098 13.9425073653775211
 14.0728810820818424 60.0675782446075956 17.2986493122331879
 23.1902392924896859 38.7275772230495718 17.3446527490037958
 16.9917315166939247 58.4868300652970632 17.1682704757319300
 19.6917302131435434 56.8605550767654364 13.6647622523111245
 11.0465968595181643 61.6429763113348486 14.0386612978506271
 19.9051520553539341 56.9054434957560034 17.0159371375690185
 22.8114861036559162 55.3226455778529029 16.8578546451586462
 25.5023473459255818 53.6407069095188405 13.3659752442307465
 25.7115174850321289 53.7371141175286553 16.7138316972379570
 28.4275643873417430 52.0181400404888024 13.2557032961957013
 28.6066269070533714 52.1474701572342809 16.6027526422946892
 31.3634051122477935 50.3921781623283636 13.1913610089557238
 22.5900968958863295 55.2550849962558601 13.5083250015161287
  8.2259301177648112 63.2278822209233340 17.4592910087389157
  8.1703209336054154 63.2329692069132250 14.0992918700563159
  5.3012334236002463 64.8067315013659879 17.4848189568386658
 15.4661930999079154 10.3669058563865590 13.4939791376535787
 15.2746826506855484 10.2402888047535114 16.8430172843385400
 18.3825316370607226  8.7530393161152311 13.6137601803675423
 18.1807074856131727  8.6529935761948806 16.9647686733061782
 21.2874321053808941  7.1490858413700247 13.7475771221151142
 21.0933808553100555  7.0708071042731175 17.1009312058911078
 24.1812808596205784  5.5530642717121861 13.8774508299813792
 24.0124970825962869  5.4914475360875645 17.2332338991423981
 27.0669697913299281  3.9614126228485786 13.9876531775834554
 26.9355319293549549  3.9133757624552334 17.3454192724151710
 29.9478936271814931  2.3719557622331586 14.0681657312622264
 29.8608828503656945  2.3353539550217244 17.4274934273513971
 32.8265809918928966  0.7833035226997505 14.1139986686777057
 32.7868484734249535  0.7568715463684710 17.4742083718798646
  5.2934228203696225 64.8226615999920739 14.1242254639611886
 31.4990872466399452 50.5545040378945174 16.5387468616060467
 12.4347453816001892 15.3128173666678542 13.5517466034072296
 12.2963613963789413 15.1485147228164916 16.9020270022652603
 15.3629520034120386 13.6916414624773033 13.6150462189316190
 13.8566320465295085 63.3886247861830938 13.9469901572022223
 14.0003961000781008 63.3736112665169316 17.3035198717429317
 16.7347057813478308 61.7965908392015848 13.8076898171507416
 16.9201292475258036 61.7928782295024348 17.1612044565869333
 19.6175130000524653 60.2001326574419977 13.6418648064588144
 19.8348228081591103 60.2113442666238399 16.9920240455486002
 22.5093743949637890 58.5966450027590042 13.4623595259698448
 22.7422542349648644 58.6283047133202757 16.8103171109862366
 25.6421086222538257 57.0432374849941439 16.6361755491456904
 28.3364676763172234 55.3622654643289138 13.1448757027264964
 28.5370396698254609 55.4547688623236894 16.4905558964527152
 31.2705553463915180 53.7342003181960024 13.0450635841936293
 31.4290113107570512 53.8628667466704769 16.3908255746690728
 12.3254466215023761 18.6304366730309781 13.7019119162721381
 12.2182128734138011 18.4693422687979520 17.0544847104496213
 11.0773119852212041 64.9538529236867817 17.4111043637381364
 12.5400218472538771 11.9886632850074335 13.4033832160565094
 10.9803019085360596 64.9784372206747918 14.0524538614063239
 38.5140994197006918  0.9389694145378540 14.1218307156448670
 15.1960673940163584 13.5549414117083131 16.9656425117211995
 18.2834446199894707 12.0761977773991518 13.7107757305558895
 18.1004865017149221 11.9650879897045854 17.0629206260939483
 21.1943480424254744 10.4706048708524939 13.8251645090360249
 21.0114456861548753 10.3800182481521812 17.1795215983311635
 24.0951684966443835  8.8750407556876816 13.9413656436986564
 23.9297864812833190  8.7988957289022576 17.2977731689497709
 26.9875271110231587  7.2861851652821903 14.0415697356815947
 26.8542930281250030  7.2198283896960582 17.4001671673447760
 29.8734886032940921  5.6997375432638080 14.1141125678913273
 29.7818350235758196  5.6411839465496714 17.4741499499639410
 32.7555538167431948  4.1137761631655838 14.1528394781064932
 32.7102673365993013  4.0626013189314918 17.5133802776191949
 35.6355574800382087  2.5270423891211427 14.1553407520791676
 35.6374599786716146  2.4840497034979045 17.5160462228367315
 38.5633407411398821  0.9050789798367543 17.4819360264813959
 23.1127255441903756 38.6499516587601022 13.9858845496664568
 -11.6538547612381898 57.6839709294477103 13.5637317508639033
 20.1895554571534568 40.2642037130023311 14.0293361344550451
 -11.2218382626265125 37.8532432312327387 14.1006139545207265
 -11.3139297628902753 37.8909863482290277 17.4604295476923355
 -8.3062664215009896 36.2939771011319010 14.1731521052163085
 -8.3831829812195107 36.2883406087148828 17.5345058343581108
 -5.3931335824206998 34.7335618247405762 14.2127254201346673
 -5.4524518470788745 34.6874164592183547 17.5745187129841440
 -14.2434514943727581 39.4937214870438353 17.3543681367773104
 -2.4821455484615487 33.1714305547882660 14.2189413883381732
  0.4275897000524005 31.6059630186537888 14.1937761767597230
  0.4064231362366668 31.4914364280203003 17.5545861285785847
  3.3382196479818167 30.0348717264197589 14.1426171140002293
  3.3309446100607780 29.8973435524318134 17.5021019142132879
  6.2534672524158870 28.4547208765274675 14.0768152459067810
  6.2484731339876456 28.3057543501175601 17.4351494582771025
 -2.5221258496102745 33.0882559605972588 17.5806869953042444
 -14.1403279090376710 39.4121329653357506 13.9965602282597068
 -17.1708190474863400 41.0957121109916628 17.2201334776567023
 -17.0620883113890009 40.9722499784102183 13.8653373760867176
 -8.2787170021043135 32.9696792330948085 17.5060976807935766
 -5.3120687759461873 31.4501705426943055 14.1448804842062135
 -5.3484200380933986 31.3671675781622810 17.5057562974017316
 -2.3965821803863387 29.8869669186203843 14.1157554438199622
 -2.4202935298184620 29.7665956151134843 17.4757498491309136
  0.5185296576905825 28.3192951695664696 14.0620138034594611
  0.5043262237458285 28.1687274102071861 17.4206583573050260
  3.4357827574476305 26.7444541168883738 13.9925068605259195
  3.4236166497553855 26.5742631402843763 17.3498487273435948
  6.3575258486993791 25.1578973221598474 13.9218501818910756
  6.3351597254159442 24.9816326803416935 17.2779841851340237
  9.2842772569331729 23.5562838086787778 13.8684128453812718
  9.2390965049717142 23.3883639422558538 17.2234460778751739
 12.2135800444592810 21.9436477661773282 13.8448903459273254
 12.1393390417544182 21.7937246758174190 17.1997689283897266
  9.1750899712202880 26.8608797259629348 14.0148055394239943
 -8.2296575758872610 33.0107700924960312 14.1449998834343695
  9.1573858771189727 26.7141871187827213 17.3723861114978675
 12.0596782685520800 25.1207467404884994 17.3313699111405271
  9.0734559773647838 30.0413215917710019 17.4989195703208971
 11.9883285967429920 28.5604532156840492 14.0850873100220255
 11.9795177298794915 28.4494487795902593 17.4444624345429844
 14.9129944505867655 26.9488842468754584 14.0555270236239753
 14.8806844506936269 26.8555569303687207 17.4150061023336775
 -20.1163230407957947 49.1375748016295262 13.3814835158106149
  9.0665949825903223 30.1613507115209636 14.1392094367189713
 -20.2760663818472366 49.3127326469225196 16.7278006025123531
 -17.3602329147399566 47.7167710335717885 16.9452551233176436
 -14.2799239411540633 45.9939410231268297 13.7970849686405330
 -14.4402014841468525 46.1203570538151055 17.1503315628222985
 -11.3700231721147329 44.4290045406663623 13.9761191339689592
 -11.5163030073272026 44.5239223502635610 17.3330274142269829
 -8.4638174875026913 42.8663730997780803 14.1251898213631613
 -17.1948497988875424 47.5623321858009760 13.5955859661604297
  6.1591406749259576 31.6318123839827336 17.5643222580257401
  6.1508016765854219 31.7481295018132741 14.2038709617141752
  3.2361119987308542 33.2230683198662291 17.6205324463914579
 -17.1286709136298683 44.2635063794038786 13.7389552816092060
 -17.2678455837873059 44.4070569238406847 17.0911243307256022
 -14.2098729488676643 42.6999839937704806 13.9087553732348130
 -14.3438410134950924 42.8074975793508301 17.2642125007659786
 -11.2953607534746094 41.1389967483541028 14.0531009664781230
 -11.4165497293986675 41.2077520918439788 17.4118233037432759
 -8.3842216749328919 39.5788451871772722 14.1661741375051662
 -8.4870762651766913 39.6078957246792811 17.5269294083958584
 -5.4757256311694684 38.0182979177055316 14.2438204378450823
 -5.5561412840059798 38.0089327654509646 17.6058950832553123
 -2.5692830800015352 36.4563342763075866 14.2848239937638120
 -2.6245151280399064 36.4115751102695100 17.6472475241844009
  0.3358912813374847 34.8920418023051582 14.2888898805639588
  0.3069399640070143 34.8161179465275481 17.6513157503599949
  3.2416738718435556 33.3236923736036630 14.2594331852024023
 12.1008073137825587 25.2534852552675169 13.9742139891030472
 -11.2095745400958613 34.5739637489507459 17.4757962181798341
 -11.1493960834023120 34.5697281076207830 14.1152377132788285
 -14.1402087944797152 36.1786239268331187 17.4147968914801723
 -2.0382227417784065 16.5075702895853986 16.7474625859525403
  0.8722320938681702 15.1326734831757452 13.2758990824092589
  0.8654551291870117 14.9098997586453486 16.6234190070487351
  3.8178172749459711 13.5260898106418654 13.1939887606846700
  3.7631497037286161 13.3123190007303069 16.5407133068289127
  6.7635266015000814 11.9078909321178674 13.1635934615591594
 -2.0702610821882574 16.7247251040958638 13.3989774937991353
  6.6580238560847134 11.7141342575495297 16.5102681699360119
 -7.9675485072776011 23.0210815720383231 17.2089735142098306
 -5.0803990236230918 21.5960860028311181 13.7353618701118254
 -5.0448587226272394 21.4181544139160387 17.0888784975589125
 -2.1490737491216678 20.0238697329812325 13.6108330059376197
 -2.1279018121020461 19.8175885659736046 16.9622791494918559
  0.7863334248865158 18.4411834514033330 13.4941886275165999
 -8.0089474644915608 23.1612741249284397 13.8529329297728214
 -4.9493860516879700 18.1071079319696970 16.8953459320087021
 -5.0071880010063214 18.3034673793537941 13.5449083663086629
  3.8401643387779214 10.0039466927474798 16.3428402044259329
  1.1137864621220115  5.1253612345541342 12.7183405041346980
  1.0932705058391206  4.9896781260974139 16.0619948884225998
 -1.9179077892789500 10.0882542402901390 12.9805936322962587
 -1.8739456568721518  9.8936547960253733 16.3248932197853023
  1.0358650400720470  8.4754339940288279 12.8734050798743596
  1.0211746890395987  8.2956142381705877 16.2173930606863372
  3.9910610733920686  6.8519326211010112 12.8302465565955792
  3.9136263489195642  6.6974861006526494 16.1745172420182790
 -4.9357192205475444 15.0020632811335926 13.3418319613515699
 -4.8587706779387387 14.7983508821083429 16.6894652925488209
 -1.9932391475364006 13.4137923979926068 13.1838586969738891
 -1.9535931955456836 13.2000222914579037 16.5300560282194198
  0.9553754673601770 11.8111733135152832 13.0643287859865325
  0.9451424132923985 11.6022297871092661 16.4095664889544857
  3.9063109843246422 10.1958606776601410 12.9978684613001292
  0.7813679560698857 18.2197647033759331 16.8442112394832044
  3.7256699971628153 16.8440833922755715 13.4039070876850435
  3.6829649529807695 16.6230585401497279 16.7532037939201111
  6.6664267303898681 15.2330868778403197 13.3551798493652374
 -8.1542705071130896 29.7284725004606081 14.0814320158846531
 -8.1739432521665876 29.6521436340105602 17.4415227162568840
 -5.2329577744629683 28.1671118608056084 14.0408998716055446
 -5.2452599193234937 28.0484020831487975 17.4000260583003090
 -2.3125020845213506 26.6020474128919879 13.9771438219519890
 -2.3199226498752079 26.4471959004488859 17.3347827720594339
  0.6090103621396744 25.0311520133839238 13.8972979953518472
  0.6001736747263827 24.8490376635745740 17.2534026752312357
  3.5333067085057603 23.4507518198732718 13.8141808553099228
  3.5133267972355746 23.2538398139757980 17.1688089890362505
  6.4618482270514326 21.8562347332284546 13.7448398903016393
  6.4188666809713490 21.6597809618776616 17.0984221661003808
  9.3934600988265995 20.2475146996155999 13.7048500465112930
  9.3195576330094863 20.0647881908194954 17.0573544136933322
 -14.0710069285850299 36.1277986585060802 14.0554626253166006
 -11.1043248621982205 31.2571134975336200 17.4560294866909693
 -8.5889148760169274 42.9275093204556839 17.4846758381756757
 -11.0774278608374566 31.2874787997018338 14.0954871479162858
  9.5011985149267169 16.9335868055013492 13.5305955764070287
  6.5802349607685660 15.0256159146155746 16.7035874924700103
 -11.0058805489355560 28.0054518681798754 14.0413034182509602
 -10.9986309338381947 27.9406693514074718 17.4010476217817569
 -8.0806810249962506 26.4458769062712662 13.9832133302284181
 -8.0699381975789919 26.3357760999875801 17.3416509319358951
 -5.1556830697029312 24.8830570891567078 13.9029797767779257
 -5.1439214917846927 24.7319819640176917 17.2596158530191168
 -2.2298663282222972 23.3152787350562960 13.8067706334167291
 -2.2221599880008691 23.1307536124593938 17.1614435136803571
  0.6984432926662515 21.7394681399190510 13.7052624504389833
  0.6927161595554114 21.5326685542253351 17.0583471031689164
  3.6303064137247412 20.1515703519586289 13.6145690885298940
  3.5996771259025624 19.9367161385679665 16.9666624457823509
  6.5652997448380184 18.5485247168886254 13.5528609700521123
  6.5004991956357090 18.3410526848805695 16.9036969067413345
  9.3986794605369699 16.7444554152838130 16.8806888797866748
 20.2903250053452915 40.3206735690607090 17.3879336598060235
 -5.5597815349584705 41.3046001555790099 14.2382416565745942
 -2.6574145188833538 39.7422340966856922 14.3119755041981662
 -3.0147745294348542 49.7009761157500520 17.5446268276146817
 -0.0266859890689468 48.0504174453759418 14.2877609982661760
 -0.0835748269521559 48.1154165092216104 17.6497914870411989
  2.8645972362909964 46.4800795009006009 14.3477591235839412
  2.8504656251493650 46.5292568337120116 17.7106835799092792
  5.7577977464085546 44.9099031728808811 14.3632308145462790
 -2.9170239795467205 49.6220063807569289 14.1845547720799932
  5.7850755289064910 44.9423067799665574 17.7263724195099286
  8.7168960406752163 43.3544825866444086 17.6997836159073429
 11.5549886693058941 41.7574949010444598 14.2777026435740346
 11.6421871479680039 41.7655549108281221 17.6399331680108844
 14.4641273289758132 40.1678067053783323 14.2026910644920594
 14.5583408118210063 40.1757191633055371 17.5638271785093742
 17.3809226460502195 38.5657626508479368 14.1319669492556894
  8.6537588975928905 43.3367494988303648 14.3370017857228405
 -5.9422482004893116 51.2859876367118304 17.3990520555161794
 -5.8066663460486243 51.1956623768951573 14.0413821954751583
 -8.8652696865522600 52.8714665682889660 17.2177477430960089
 20.4174784362351254 33.6451279940437047 14.1141598093181084
 20.4460541333011747 33.6604281001699022 17.4752710398618731
 -26.1908330540950018 62.3863796169440690 12.6356657628670064
 -26.2945372224764533 62.4121398958967148 15.9784910549790347
 -23.2426012045007298 60.7587339422310677 12.7720228057668344
 -23.4022285071137084 60.8184675144925890 16.1146526337110458
 -20.3087838416518807 59.1409741750419258 12.9642115698059861
 -20.5062261479931571 59.2267226416565862 16.3072672727672874
 -17.3898398510448970 57.5350904696463701 13.1899958645915145
 -17.6050344446222304 57.6363903297097337 16.5346129069016960
 -14.4841351845545958 55.9401886329486047 13.4272110883584972
 -14.6976760080171776 56.0468893589368733 16.7742242320173496
 -11.5879344308762295 54.3533717324673873 13.6560916521931794
 -11.7840537064120987 54.4583558625051865 17.0066893696718395
 -8.6965111174030891 52.7724073089046044 13.8634045455776143
 17.4662959327742477 38.5842870893323990 17.4922129404015507
 17.5455932486672559 35.2542362672142318 17.5062274421556126
 20.3027706610489851 36.9544511326428449 14.0811182921489841
  1.1888179877986751  1.7624668381632822 12.6144713075637984
 -0.1102471206397744 51.3554432956093194 14.2180058592802947
 -0.1714326926505589 51.4305521379603618 17.5791329660836659
  2.7768024356635777 49.7800067936406379 14.2897134283668343
  2.7600475988097313 49.8477056361839743 17.6521814269165453
  5.6662520517756780 48.2063079167750388 14.3189538966301928
  5.6931375962040729 48.2638247937419607 17.6814899656661382
 -3.1000527102632138 53.0127559577390173 17.4646596250869521
  8.5585733295813746 46.6319322512721826 14.3056128444500352
 11.4551211948114080 45.0540626052312945 14.2550477839129197
 11.5537625367873744 45.0907955809966055 17.6163595798300889
 14.3586221132527907 43.4686999005201642 14.1792025460769526
 14.4742124898117837 43.5021609866224708 17.5396387935594689
 17.2706803060725136 41.8717886790711020 14.0980469975675309
 17.3858077625199989 41.9123543293066092 17.4571373215141179
  8.6254673901284100 46.6781325356220620 17.6680538843851664
 -2.9955676493048955 52.9331539401135558 14.1056479695514447
 -6.0249036440535297 54.5953531851470615 17.3120619619512652
 -5.8801555640402565 54.5132642746741070 13.9560411315690960
  1.1611351587777885  1.6843783512302255 15.9576059939860535
  4.1476269032368842  0.1281469448581989 12.6396135473789144
  4.0506742111199232  0.0876328057074814 15.9829772585570886
 -23.3128027176882391 64.1246482035184897 12.7402936619901173
 -23.4690786412319561 64.1213040888887917 16.0836253496086243
 -20.3762966631538482 62.4996143097634373 12.9033645561244512
 -20.5748085062810375 62.5291598657708150 16.2466735628303560
 -17.4552658610496927 60.8836021813797501 13.1091907602070137
 -17.6765610882248296 60.9393992755440408 16.4537270800540831
 -14.5488394602703384 59.2789087659267295 13.3365646533648015
 -14.7725513569163045 59.3514456509595476 16.6830744196451093
 17.9536600130104844 22.0216958915533993 13.9895587890140369
 -11.8617022656498889 57.7646460882061916 16.9130048050372395
 -8.7656292802385494 56.0961069618441925 13.7733607132765901
 -8.9455869674570945 56.1792191847691456 17.1263213114565076
 20.3684304227241846 36.9912341030955645 17.4411931979502555
 17.4935900847628432 35.2590542810439018 14.1451793612185028
 14.6409962524737853 36.8470223031777238 17.5634060131617282
 14.5732338451756220 36.8662708324822148 14.2019487343567672
 -17.2606646450318735 50.8730728267815309 13.4466964557697004
 -17.4473721009586704 51.0244179197414027 16.7941564937882539
 -14.3500344126855417 49.2969013686315094 13.6704598548281844
 -14.5316904369995754 49.4313902812882802 17.0217340960400065
 -11.4452293310395063 47.7262000092635716 13.8762480180207248
 -11.6115020683706902 47.8383839043701542 17.2306574427055637
 -20.3579466016856117 52.6180297956473098 16.5617267868782072
 -8.5438239496896067 46.1590814456417249 14.0540833577670909
 -5.6443958629004278 44.5941471125285531 14.1972840830888316
 -5.7581520682931346 44.6534989770515267 17.5575164619790094
 -2.7459174753242994 43.0299380561207272 14.3005793203299607
 -2.8263887261426803 43.0612199679571930 17.6628568947383400
  0.1520513028843520 41.4652669232603657 14.3616075385772071
  0.1077173243206974 41.4694173406654016 17.7244405308800346
 -8.6868120485824338 46.2456903517414872 17.4119049569680833
 -20.1799163835579449 52.4579287948325259 13.2173531561011721
 -23.2628927471597535 54.2119363126847702 16.3419144127139191
 -23.1099058885777495 54.0538639231360918 12.9994219782442890
 -2.7262435551461306 39.7364455711135349 17.6746462537320994
  0.2438463419149860 38.1782628875071595 14.3452379468390223
  0.2070509898655969 38.1425129108612850 17.7081506483633753
  3.1454493713490796 36.6113953956210949 14.3389203896875337
  3.1392151534123531 36.5503269607292793 17.7014167473321606
  6.0496430344701233 35.0393414296795314 14.2985555808839795
  6.0673374949661047 34.9596079827282935 17.6605122676504038
  8.9595470741091408 33.4581797344713081 14.2368645434114427
  8.9873370553404577 33.3693931012180158 17.5984266637784614
 11.8766964147998699 31.8640041336404281 14.1738300092529759
 11.8980942148357602 31.7788776959280632 17.5347451233766449
 14.7985677835808769 30.2570162568170531 14.1270079254044969
 14.8016275543467302 30.1860937937247407 17.4877952148560247
 17.7230222124076562 28.6426462639830710 14.1072532391414018
 17.7020184024882568 28.5920153706034874 17.4681643267357884
  3.0503069262953235 39.8989212991548072 14.3792080832993907
  3.0418502039606419 39.8783263968154102 17.7425925357219114
  5.9500919336659264 38.3289950669677637 14.3571775238999031
  5.9735922153738104 38.2881758531358543 17.7200804425365170
 -8.7791572061407308 49.5605885394081724 17.3179643152942582
 -5.7274600318823916 47.8899374428611821 14.1272034217319042
 -5.8531702567107997 47.9722982415185371 17.4864365769959669
 -2.8330334363691683 46.3220633544841078 14.2548827398338513
 -2.9230944037014917 46.3837040156413138 17.6159251974855735
  0.0613794251969565 44.7549068012015709 14.3399687322837899
  0.0100382479755900 44.7944865655485103 17.7025912225845339
  2.9563922916678202 43.1876242579514766 14.3807432591443956
  2.9450775452874751 43.2054906123807712 17.7441264411423987
  5.8527729602352112 41.6184679975947276 14.3780995098316229
  5.8790899454311747 41.6163761328249819 17.7415651631772455
  8.7524952151814528 40.0444933626858059 14.3375800274125389
  8.8084952294250556 40.0270623180494241 17.7003987300145340
 11.6588825859192173 38.4616831293284136 14.2719924445320494
 11.7292523125621493 38.4375079382060179 17.6345089018456918
 -8.6223279627720775 49.4600883828034341 13.9619446955796160
 -5.6586324562876067 41.3314380207531045 17.5996411453370314
 -11.7008122560486818 51.1497627222763001 17.1171151002622040
 -14.6176435605088706 52.7399476568234746 16.8915463150979477
  8.8545547908446895 36.7521605816987531 14.3039031637266891
  8.8988173229897054 36.6982062073747173 17.6664221453613877
 11.7664891657687480 35.1641871600988765 14.2369564182396573
 11.8146364990363875 35.1084036976655014 17.5989427945876180
 14.6851626143338443 33.5628204054075496 14.1763602304350282
 14.7220774816664566 33.5169281647157362 17.5378934964097368
 17.6079111481210226 31.9513126956419029 14.1368711820078499
 17.6239175387677633 31.9230684085379188 17.4981666130277667
 -23.1752516427851276 57.3998716422355599 12.8621714399457936
 -23.3344170994950630 57.5154568410422726 16.2044443672092449
 -20.2436858585421184 55.7926851461367619 13.0736869037131616
 -20.4345424708392613 55.9228322966906504 16.4168469381634914
 -17.3254248487680584 54.1976915321168349 13.3070394450844560
 -17.5289471306516873 54.3309458798072313 16.6527143213200262
 -14.4183081000053104 52.6122968674644795 13.5426256971021939
 -11.5185332975221222 51.0337843771012132 13.7645585252215472
 17.8593349173432578 21.9327231729080410 17.3477561622645844
 25.4152813186691553 56.9840025473880445 13.2895557732316902
 20.8762974624992275 20.4074046597571694 14.0458999998808078
 46.7214383818166752 19.3572376927295267 17.6180399382605977
 46.6209968787114093 19.3791709432407266 14.2562253141426414
 43.7883195450389451 20.9489290616042929 17.6987512470342203
 57.9121665495557068 29.5633813492097879 14.0739062539536768
 43.7181380096516889 20.9410679696462765 14.3360706563732592
 57.9143087790308542 29.5459678055139783 17.4346144566858641
 40.8540109143730916 22.5392632116670448 17.7376153618216499
 40.8162877183477519 22.5043523929344147 14.3743021188471580
 37.9204070208714867 24.1278684849633542 17.7353114197992952
 31.4621309743840598 47.0618141839856179 13.3641761862142516
 37.9143882741807374 24.0703227077132489 14.3722181950362842
 31.5727860536593106 47.2416931852288187 16.7130943937682730
 34.9902812515082573 25.7146025198788024 17.6972538091117073
 35.0105605152092352 25.6413731918748447 14.3345791825995210
 34.4012108150167677 45.4439081364798341 13.3798454911293572
 32.0672772365395815 27.2998853531259904 17.6348547920610841
 32.1024749949786994 27.2210919951303900 14.2725168791527164
 34.4675053512973477 45.6478724930726827 16.7290761607287024
 29.1531829329376073 28.8856317089051657 17.5655400769610743
 29.1878029417403049 28.8126542756128785 14.2035941874849794
 37.3399303150389699 43.8357653317317641 13.4402436793543352
 26.2470174782646950 30.4746533012391687 17.5079228189538370
 37.3655132485871633 44.0553835921272352 16.7905205515026523
 26.2667967128814688 30.4169689344227550 14.1469523756020550
 23.3457286918304021 32.0669070870513053 17.4759494130509019
 54.9835862900871035 31.1516379825833383 17.4398748100959295
 23.3424846648657152 32.0297489945519374 14.1148239752276723
 54.9872790247567735 31.1205348961533410 14.0794038763586613
 49.6517920706824114 17.7640307528106263 17.4967816340796141
 23.2678279130638259 35.3978562188495403 17.4200274337158518
 40.3583278109903461 39.1513771625142297 17.1016038733187337
 23.2273394998939580 35.3390519346768031 14.0598358785950630
 -1.7989652163890355  6.5875837701943061 16.1470639432044223
 -1.8441191467049900  6.7478625291848706 12.8040568796071881
 43.2879837411433073 37.3688060483773512 13.8466608959014348
 43.2746830696021618 37.5581610440884077 17.2012971665469117
 67.1484436459175527  8.1852153894853821 16.2963082124707448
 67.0469170101956280  8.3586800279643683 12.9530979206261385
 46.2127244484795696 35.8010082308111421 13.9365087119380693
 64.2470821637714380  9.7827534424788372 16.4919720742226268
 64.1054478826234089  9.9566348453854534 13.1474713984721969
 46.1972773147450440 35.9606683118012214 17.2929503082664482
 61.3385984963683129 11.3799772355213076 16.7122290479766988
 61.1752632815442539 11.5427169310858524 13.3653129723330188
 49.1374645949698206 34.2380119064293709 14.0084498275542604
 58.4237197012970668 12.9768260979086687 16.9373732509773554
 58.2538853168607034 13.1190258853732313 13.5869901465871870
 49.1239636442056735 34.3599013971586871 17.3666513067590564
 55.5035264205505499 14.5735428168869223 17.1502827276027787
 55.3399600844704622 14.6886449941702075 13.7963046132085534
 52.0624860478175151 32.6784018634895546 14.0569986430996430
 52.5791817418119791 16.1694647373466189 17.3391624352558757
 52.4309518555551790 16.2542527176391651 13.9818227685263352
 52.0531117466146256 32.7564796506750682 17.4168095901843785
 49.5249774053717999 17.8172783966573931 14.1368452828900981
 40.2759320310556319 42.2415699172294197 13.5364698543559516
 70.1144909202095477  3.2816234409047751 16.0114634836954011
 40.2692163434530599 42.4643112545050414 16.8870458744721077
 -14.0012174834154095 32.8453024280096741 14.0816968594606795
 40.9097153707679269 19.2172179488330102 14.3863359042119683
 -14.0350958119041263 32.8624814331325723 17.4421420519820707
 38.0211093127913458 20.8004545434146024 17.7722984451487278
 38.0111293568413657 20.7827211801594238 14.4084546451678790
 35.0875669981419094 22.3870565177157914 17.7534171115351320
 34.3054464294075672 48.7684861728512047 13.1813749641231333
 35.1109075258633041 22.3516951329210904 14.3897510782981737
 34.3919647433494973 48.9603390275703063 16.5287429937084767
 32.1593996493286127 23.9723666680898404 17.7011775090970076
 32.2071696591897734 23.9274626195299120 14.3380308111640833
 37.2493836508274043 47.1522644393117716 13.2249194547209754
 29.2395705902588467 25.5577447376778899 17.6306601176720079
 29.2973521353613648 25.5130085717398387 14.2681366945814769
 37.2868723306334715 47.3664156595808450 16.5723403755651901
 26.3286857757331880 27.1452385209442255 17.5612803917235780
 26.3800802124546614 27.1116325807779432 14.1997122809249792
 40.1919391140107578 45.5482572640815704 13.3150290793302304
 23.4244563158750161 28.7361167591477624 17.5103422139546794
 40.1858524906594141 45.7738171877776523 16.6630643150241440
 23.4573943804690828 28.7212776072024454 14.1492888857709715
 20.5239029746589559 30.3291717828880358 17.4883434063653951
 20.5326356974345181 30.3360803285201577 14.1269163042465138
 43.1308400867946276 43.9578576824491591 13.4396656973448003
 39.7698983411619764 65.6043673506124350 15.9313214461540049
 40.9567486150092961 19.2124965634256242 17.7497217924190842
 43.8082469942226638 17.6532375599237383 14.3208556630777153
 43.8919140820752318 17.6238459031429642 17.6831770301147166
 54.8777683903252367 34.4677026908559512 17.3992700308981192
 70.0716092547083491  3.3931893803879705 12.6688284452486002
 67.2222424879532667  4.8783790902816335 16.1390068184305022
 67.1162200429567974  5.0149764252116213 12.7963371384361295
 43.2083480786154794 40.6601359149198132 13.6520513959668683
 43.1804545908086084 40.8712208531454237 17.0035595731717990
 64.3256772234359602  6.4748377767368872 16.3251965642424182
 64.1719867458869544  6.6242216849004523 12.9823080872518322
 46.1378499907860231 39.0876405533274252 13.7706468203285635
 61.4232133941691103  8.0709943814723069 16.5483937862002364
 61.2409604720022287  8.2212234437697216 13.2037071210946575
 46.0985104926171942 39.2744259817674646 17.1239608004707478
 58.5144604378684363  9.6661232462227478 16.7865890795967765
 40.3620201665759595 38.9439473641363563 13.7480984214805222
 58.3214757002666815  9.8077551295266634 13.4385844475227003
 55.5993441659564880 11.2602131811364679 17.0209231156639866
 55.4112287580867502 11.3852802767409820 13.6694000503116566
 49.0217530045784997 37.6743386614178419 17.2353897391698681
 52.6786279486277706 12.8529638271445794 17.2360296778137645
 52.5071579766526568 12.9566099524959615 13.8811223850259200
 51.9922758979267527 35.9609500217089959 13.9711702854850550
 49.3340960102144024 27.7248146765678314 17.5265504081503209
 49.6060859372894072 14.5240755696318917 14.0642077903161997
 51.9486385970391709 36.0718557748393138 17.3289155550201990
 46.8244403483238543 16.0343464727568445 17.5730382115248140
 46.7066773732869294 16.0891795072522967 14.2124751681920269
 54.9177127605956343 34.4026526298785029 14.0396707620919976
 49.0654826526307986 37.5218367487509141 13.8795228373243251
 43.0913640968184950 44.1809491780759416 16.7882318875710581
 26.1524177057862204 33.7244035965123317 14.0712556842148029
 29.0763550309163534 32.1151437635269019 14.1123672025704909
 28.8303315045586892 42.1954089748167291 17.0659456338137012
 61.1520407926647920 17.9998099707220405 17.0465275150819764
 61.0435587352316631 18.1470952449445448 13.6939409767025353
 31.6718719591288895 40.4278506851724302 13.7284587854749560
 31.7275047667340004 40.6027471957055681 17.0820114598194870
 58.2277920776173232 19.6017111207510766 17.2118752465427107
 58.1189703601710903 19.7102960062269155 13.8563150589252526
 55.3005294196097452 21.2037357096863808 17.3546888646476596
 34.6020768654887618 38.8224474013798613 13.7799082044054266
 55.1977740561933956 21.2711511504662028 13.9964121188473545
 34.6284821149175315 39.0125256842516919 17.1343844009670825
 52.3713493365395593 22.8052533544903788 17.4693653904249331
 52.2795577792585462 22.8311728024491316 14.1089641738690421
 49.4405430632566194 24.4054352252971860 17.5517816452039597
 37.5279332154931069 37.2310614155693216 13.8560859812992145
 49.3641302405673201 24.3907150158241777 14.1900754394473463
 37.5364550517594182 37.4242488998954599 17.2113231269984119
 46.5095971102254850 26.0034743470041434 17.5996988799202754
 46.4511133356178192 25.9506351120462604 14.2374900807692608
 40.4498318766008325 35.6520006430908012 13.9395039584040408
 43.5787270165894967 27.5988603461969504 17.6127503596327486
 43.5400746806258212 27.5120082961101602 14.2507901058238691
 40.4518301342174453 35.8347988387004008 17.2959404383981443
 40.6491109830189785 29.1912674735806199 17.5921931213966189
 40.6304189518731533 29.0767109659603271 14.2312280762395904
 63.9726035137893732 16.5786984859256528 13.5181120578860838
 43.3699504411165861 34.0817104891439868 14.0149507666564119
 64.0715604050827210 16.3982545214826061 16.8677757335895926
 25.9243530915818425 40.3458341674373813 13.8613040027974410
 52.2652465041645797 26.1225706313414605 17.4870660341924840
 49.2867663560720928 27.6740829664809169 14.1652741409231879
 46.4036208444558795 29.3247125883002333 17.5340791095156305
 46.3694540002747573 29.2341217245844511 14.1730038521575192
 55.1274937178281235 24.5560609756170791 14.0562079828939073
 43.4749661363221591 30.9213528250586869 17.5112011319231868
 55.1958858623001447 24.5192562389730426 17.4160408550743426
 43.4539576544318749 30.7966462189056642 14.1508332767161775
 40.5490590926807712 32.5145826233767536 17.4614145073215425
 40.5395077681841371 32.3635440847851683 14.1024500993899782
 58.0510512346374767 22.9971960847747994 13.9585271705638547
 58.1251218044087139 22.9154622493791287 17.3164375872202214
 37.6278574513375403 34.1039251765036582 17.3922529988417871
 37.6238798612691880 33.9374636137866617 14.0346495074882984
 60.9764448447344662 21.4368007938931093 13.8364391815868082
 34.7139205520447476 35.6909783060350208 17.3172476441867111
 34.7045419490297107 35.5217863051895577 13.9601238613154006
 61.0521010893747729 21.3117684418209379 17.1922346247692950
 31.8080821484669158 37.2789266828169019 17.2540354710158539
 31.7799323896166115 37.1198756770179301 13.8976601661981292
 -7.9389414193150785 19.8731145877315711 13.6954206759615484
 28.9083207421265165 38.8698470688637201 17.2186341729568468
 28.8519279691414070 38.7298774888227797 13.8623481023815298
 -7.8675580898470905 19.7085791270671145 17.0484155234131336
 26.0107298551916379 40.4625938080468543 17.2180690840980759
 28.7407854225351969 42.0423896668876793 13.7122585942029733
 37.7228749560395471 30.7804779469570029 17.5428229789860595
 43.3732814065750176 34.2413569032947649 17.3728859511334264
 37.7203978208000876 30.6469632574906115 14.1829838526310219
 -10.9354550351895750 24.7223936868013610 13.9538363390238214
 -10.8939025567700529 24.6253288439154616 17.3120681484631760
 49.5470011597297102 21.0851111793326389 17.5414513176103490
 49.4438143329484703 21.1054278002574378 14.1800526106093852
 46.6159067857706901 22.6807189208479976 17.6276330358636812
 28.6318765766471444 45.3598948339328913 13.5539567973213355
 46.5350881485533350 22.6658349328665274 14.2652103842597846
 28.7537078123215153 45.5174002442515828 16.9050922542245701
 43.6835842363856841 24.2744782595170321 17.6756055801708598
 43.6283358940078543 24.2269951269918096 14.3129162399607388
 40.7511093889633358 25.8659340666101869 17.6848972027444447
 31.5655185341269124 43.7413419251724491 13.5475377697980086
 40.7229987608310608 25.7905661055337703 14.3224874277340941
 31.6491553926244471 43.9241235915751602 16.8985152089387114
 37.8205589208967297 27.4548434466113882 17.6582260481169051
 37.8173205439646338 27.3580794055151344 14.2964642633893870
 34.5003979197646444 42.1293179764741623 13.5833033926636411
 34.8951988719576320 29.0415803776737782 17.6036085217617391
 34.9092924854191438 28.9324428311028186 14.2425143591242485
 34.5463854037344760 42.3315686250102488 16.9350554202419517
 31.9778299420147896 30.6271526308201985 17.5356787368802891
 31.9960195284883042 30.5171388646460358 14.1747297571540276
 37.4330274649546695 40.5295043498302192 13.6547125106720983
 29.0692719115949103 32.2140990586350000 17.4728881751126792
 37.4488324367861907 40.7413984050859597 17.0075198453968497
 52.3546291299389495 19.5448900119135338 14.0598159826385025
 52.4762471398108303 19.4873750573831330 17.4190519065282174
 58.0203472384605732 26.2301494197281144 17.3919666292714474
 55.2684569227148828 17.9828621556423478 13.9081230285907864
 34.8028733105066408 32.3672252032228300 17.4754925632200120
 34.8071332427573097 32.2255938026005424 14.1163433642373946
 46.2899897926330226 32.5171558671930612 14.0721830334018456
 31.8914467268195772 33.9536954663837918 17.4072151521358123
 46.2992479838899342 32.6439537177247203 17.4311712454696490
 31.8882500970241090 33.8163774798185983 14.0481885664622297
 28.9877995727282425 35.5424232494492358 17.3558190501498046
 28.9639948461748595 35.4208458932830652 13.9973128203105741
 49.2112466471830814 30.9560674349539511 14.1045866536239952
 49.2283105277074498 31.0431831186979110 17.4646667064823582
 26.0886315827351609 37.1343406400123612 17.3337314655405699
 26.0379942262574922 37.0339891007616515 13.9749253808611602
 26.1671470403155730 33.8047018784612021 17.4313645493461493
 52.1336363599317849 29.3967398384460239 14.1090812109180348
 -4.8655986696770341 11.6879120424864915 13.1394172714627651
 52.1589230283452068 29.4398690680886226 17.4698049965346591
 64.1622953661457274 13.0899379923759049 16.6777057058559457
 64.0394191210526174 13.2744598372247733 13.3307663740651705
 55.0573563764218292 27.8388119383128796 14.0846653740662049
 61.2478926067054417 14.6891460187456282 16.8828819408552881
 61.1096721169275483 14.8503415206082359 13.5334223614807048
 55.0899149441464004 27.8351260912360914 17.4452179112573766
 58.3277485693093496 16.2888563356653755 17.0830114501727728
 58.1864393352138691 16.4186423963785018 13.7301051779318506
 57.9821924733233445 26.2811104720101909 14.0321391305781784
 55.4033736382385840 17.8883878599852899 17.2644364489062809
 -4.7738922643713178 11.4915094940592510 16.4847244142455338
 39.7327268234694557 65.6551028008398703 12.5885385402489529
 49.7534522349713981 14.4441123712200721 17.4222021086560872
 45.8316048560249385 49.1986340269828730 16.5147655512125517
 41.0907611705029012 12.6317305376023175 14.3059747525605019
 38.2205063977139403 14.1509933972996169 17.7328898160244641
 48.8621651483429815 47.4060929227791306 13.3562030062683714
 38.1986242404431593 14.2012702914899176 14.3695442130003954
 48.7398595284484060 47.6033867353399103 16.7025907684977497
 35.2841210392832494 15.7354379197477012 17.7525061044175381
 35.3048748041936307 15.7706374654459598 14.3887769727054167
 32.3497138059980855 17.3205452833963918 17.7291001925358600
 -20.0519391652330583 45.8313525065905978 13.5514290669262500
 32.4086407414427384 17.3423670595334087 14.3659393343457413
 -20.1883536457483608 46.0059030386362764 16.9001476252971301
 29.4203007601691553 18.9054152915276852 17.6706054574150180
 29.5076817264029394 18.9199347544243217 14.3084134145034501
 36.9968728553036641 57.1800420882238001 12.7135551922168251
 26.4991480577707001 20.4905102002636212 17.5923769197695883
 26.5996953055519150 20.5072533196289548 14.2311379945416459
 37.0748607809496278 57.2855243111259256 16.0578517841575668
 23.5867422855579605 22.0780406911360778 17.5137175333568891
 23.6841355161011045 22.1069959838460690 14.1536738902297294
 39.9533252469243507 55.5494431642862310 12.7345968616640270
 20.6813875879902227 23.6687398295257871 17.4517062397236913
 39.9648680263564628 55.6908050846098774 16.0786312031167782
 20.7628195339434818 23.7171995271084839 14.0921020525087286
 41.1559625754937386 12.5669675179001512 17.6680971639795850
 17.7804042687801527 25.2616668663485981 17.4173876318223364
 45.9257788261656188 48.9911766890855773 13.1694956520318414
 44.0887462745835350 10.9832370223482254 17.5593647379688420
 36.8468865900953801 63.9176308604449872 12.6292635238585298
 34.0560591236312789 65.4890423582323962 16.1036814060418187
 33.8977902656752619 65.5470774732441583 12.7609405383862953
 51.8565208650286138 42.5353158921165360 13.7122004640921080
 51.7484601919169478 42.6966041516765955 17.0642782151414174
 61.5742019338574451  1.4540930744207130 16.2946924461624256
 61.3732406838614608  1.5382048999930911 12.9518579629915109
 37.0776584961765465 53.8236715590829107 12.8457589209677483
 58.6762303044423419  3.0472396870325746 16.5243209661250283
 58.4534740820575180  3.1458212426196637 13.1800389923342447
 37.1421297862449791 53.9808785933390993 16.1903972833276271
 55.7716417191180156  4.6387976802763689 16.7688033182138447
 55.5473708216723168  4.7418817635648116 13.4220187883388782
 40.0304346020085760 52.2006279571111165 12.8986352280283612
 52.8594525099560286  6.2279331063443006 17.0071346162256098
 52.6508896822692734  6.3288104986947600 13.6569619362405632
 40.0344009473933298 52.3864769339243708 16.2430802531862284
 49.9410002111738009  7.8145887691607978 17.2238197086483709
 49.7597126715713998  7.9097688342031596 13.8697832945176263
 42.9812491494639133 50.5892591867797279 13.0108753426627768
 47.0173814563770875  9.3994218877284545 17.4097198563468609
 46.8706045034101493  9.4868944592109372 14.0521549111558031
 42.9303051386308709 50.7925539988197485 16.3555060784557043
 43.9811023772345493 11.0605174414185488 14.1990928722830851
 17.8385844731196848 25.3328551681068639 14.0574029303445194
 42.9087730733262447 53.9281402950475766 12.8260158490178355
 37.0097595905913010 60.5897310949879326 15.9828104836691036
 41.2486223096803784  9.2511973888580368 17.5938786275362595
 41.1749129484948071  9.3267954364476608 14.2325368758896431
 38.3157684443420692 10.8328508852228094 17.6706929485041897
 39.8049792401404545 62.2830618430237166 12.5720810171703263
 38.2870713651918493 10.9017581848937013 14.3081166993455025
 39.8341916604469404 62.2991380591519146 15.9151883868278130
 35.3805483862580843 12.4152762891602642 17.7043065082074271
 35.3967114691999498 12.4742357891385787 14.3412474913584447
 32.4454074510904675 13.9987705617687386 17.6947451344079383
 42.7660224896799903 60.6484330763917612 12.5951990059135586
 32.5038918343255716 14.0472551762569289 14.3320853941551665
 42.7234066331060092 60.7034997945447756 15.9379163596829017
 29.5132998719627579 15.5827031178705653 17.6463596745393296
 29.6070908094672980 15.6235763599304835 14.2847279970239622
 -26.1207364860293438 59.0192867441793325 12.6957531888414294
 26.5876427813078458 17.1665299530993458 17.5699956589345483
 26.7042226374245253 17.2069451726930822 14.2095443359093583
 -26.2289042546544131 59.1088516035762694 16.0382877704232811
 23.6707491668407606 18.7521983085086710 17.4832427227781153
 23.7938005972542861 18.8012251037257592 14.1239470117402615
 -29.1492230472146616 64.0201996104644735 12.5718914127785535
 20.7620400018350573 20.3409280788889539 17.4042628859555180
 -29.1844091247061428 64.0078035139849248 15.9146858181619599
 45.6820983323133731 55.8058213503455534 16.1561873785761740
 45.7909409987772520 55.6620564997411762 12.8136323893847752
 44.0604472130760101  7.7493031738344866 14.1168776801439630
 44.1784010400196507  7.6700214321097580 17.4756232406752936
 42.8573630643355159 54.0965357402051197 16.1694525005153338
 36.9202658034896558 60.5468163954278182 12.6390400691547189
 34.1213070669453487 62.1842854845613573 16.0753509074377767
 33.9693804128818968 62.1804232350958301 12.7318927251260323
 45.8582500924233329 52.3187580260019587 12.9767096353978264
 45.7541594592491805 52.5026200257603222 16.3199402978432957
 31.2311895170942968 63.7772926024304354 16.2333943765453199
 31.0312091882705197 63.8079826897608768 12.8904155712888784
 -23.0456801366363955 50.7222875237444413 13.1689091517847956
 28.3371402366492262 65.3688248632894044 16.4402690656749151
 28.1082734505637042 65.4258316570048777 13.0961775351986525
 48.8286650554870931 44.2961510163165215 16.8947657381161633
 -23.1860648918388641 50.9081496487104914 16.5130393101796855
 55.6120258581872093  1.4032428496733091 13.3275078929838138
 39.8783571096536988 58.9121898357852842 12.6221288068122472
 52.9396660440173932  2.9187218703400810 16.9087651367872169
 52.7169124926077473  2.9981423536208895 13.5604471485990175
 39.8986326529676631 58.9945624442267160 15.9657210302794557
 50.0244842709050843  4.5044451599483137 17.1279990335958203
 49.8289983995216659  4.5858253510730753 13.7760390877034080
 42.8373454844592132 57.2823141211064595 12.6826605000276054
 47.1037215029588978  6.0879255137460566 17.3190560840639236
 46.9444053566814290  6.1689489440687177 13.9633986128069889
 42.7889347805510312 57.3998563061441303 16.0256497874485717
 55.8477229122975061  1.3305628080403376 16.6732202207692701
 36.9455512022788000 63.8947085346944306 15.9726448354936341
 52.2058837348550284 26.1147561068098071 14.1261295871510004
 32.2539221833650416 20.6456058713688755 17.7324454744115521
 35.1860209621417539 19.0600645107319622 17.7710488947477394
 55.4807075292873080  8.0697304624386827 13.5401918892188764
 40.1101080111137165 48.8673428682401649 13.0976915509676797
 55.6889599642480917  7.9487905059609059 16.8890839220160132
 35.2093377436436157 19.0621919594438012 14.4070876135078496
 40.1077824454506100 49.0807939828393316 16.4433239564369700
 51.8465021406466491 39.3853110494709995 17.2095971483031320
 51.9234189317713444 39.2458949853963972 13.8544630006771268
 32.3095092082806232 20.6349590080279626 14.3690676100501662
 58.5985408233585190  6.3562326324338958 16.6444287124666417
 43.0553558453332315 47.2663569135795356 13.2208238648470733
 29.3288121076017489 22.2307677297255246 17.6658786403280956
 48.9230877294080244 40.9863772535549700 17.0755409442496955
 29.4042548913489981 22.2158740294664412 14.3033158586268119
 58.3882459882191895  6.4830648620794342 13.2988358029478793
 38.1061376143659771 17.4937715608126503 14.4060664063508543
 52.7726224826458861  9.5391083708871598 17.1207136885762168
 38.1216151260896083 17.4740956705377037 17.7699401823339578
 46.9236129851069421 12.7146550497514603 17.4994668254311314
 34.2140500057333270 52.1049862214772190 13.0026424249020565
 34.3201585165250691 52.2691907393731228 16.3485239591940861
 43.9925355029753362 14.3013322937094980 17.6333794012425713
 43.8964035914192436 14.3607650325545162 14.2719667489930568
 48.9281043794221446 44.1032242757449495 13.5455685540680086
 -17.0696136033958616 37.7826418232732166 17.3248669021001476
 49.6853064332209229 11.2226125592927328 13.9706180185229467
 49.8505050543104815 11.1274944675660059 17.3267838196011361
 41.0580332300452895 15.8877605198051022 17.7241740534465073
 37.1620691666545824 50.4810588553331456 13.0217868359901612
 41.0017531906607999 15.9273605581409026 14.3612368918296642
 -16.9943287705878134 37.6860553080789629 13.9671984305519050
 52.5810257953595652  9.6487590475489071 13.7681456414521399
 37.2123668201833127 50.6747765179125409 16.3671534427896752
 61.3067416099669984  4.8862473969962918 13.0613176535984739
 43.0080288142488030 47.4875869809185858 16.5672797889326411
 46.7907039242834557 12.7928069764877108 14.1404038221697057
 61.5015694129681449  4.7617343921949971 16.4046138641059862
 45.9946957707335997 45.6791522552729745 13.3762953865473282
 46.0651962484632520 42.3792436854774976 13.5808539440718530
 64.3987319559411873  3.1669252933260026 16.1909004123834954
 23.5715670131206316 25.4136613324384300 14.1622850132221583
 20.6020764494950193 26.9983844522099545 17.4802477525681397
 23.5045715696886752 25.4062745246222796 17.5230140337444240
 64.2395538321426329  3.2779907217519346 12.8483864323157455
 26.4913072197394506 23.8085560067446522 14.2280750122212858
 48.9956854129563908 40.8095487977457907 13.7229786942092069
 46.0040358857456937 42.5852068706162257 16.9310401308342513
 26.4126391793455788 23.8170392890455247 17.5897274708429769
 67.1863481053992899  1.6572885137998143 12.6840920831135460
 67.2910005470414490  1.5719839391952044 16.0269072714938545
 20.6479617999773275 27.0268513057578943 14.1193947444391696
 45.9148378520376141 45.8931051712865425 16.7237821682698566
  2.1374089587724376 38.2087820784840844 16.0463896835378925
 41.7469264234485848 62.3260249414568648 14.2279867751155553
 -6.2469935445973208 29.7341451175589242 15.7728715315766372
 -0.0521288668038163 13.3443948228208118 14.8364033153656401
 42.4585804941898459 32.4853459674588265 15.7741487187039606
 53.8896269505210412 36.0606937404357737 15.6734677827027866
  5.0541462020287478 36.6282437276872699 16.0225372532100216
 -6.7031929108750550 46.2519323882431763 15.8124449908446358
 -3.4151381295688648 31.4535498332759396 15.8458859283637405
 39.5394689357609224 34.0663004886643179 15.7089356844037233
 57.1667477242705289 21.2822446371566336 15.6172114915473799
 -2.9765808937151350 14.9405239729930610 14.9733574757884700
 -0.4942502255314760 29.8715011326761015 15.8094079034230699
 -3.7893567008137916 44.6733584054814727 15.9402768400939188
  2.4248262946629233 28.2880363574468063 15.7497700017311875
 -6.6135193448241356 42.9452231833919882 15.8744764597468109
 48.3025482851334687 29.3250994309597779 15.8326168375549035
  5.7937816817256893 10.1318922741603217 14.7105057125977794
 33.3487566277180179 50.5054655699456774 14.7867690661017743
 47.8004973212955306 49.1366911178531396 14.8950938533506587
 -0.8743905218308576 43.0950810105110449 16.0256039407024033
 38.9606979826870230 57.2669549059804126 14.3413149979224475
 -3.6967766578488517 41.3666405014498721 15.9736766981243221
 11.2698213288829585 20.1883401643373510 15.4250696028428465
 -2.8219821265350289  8.3102465298385919 14.5682931549073587
 45.3795215085658512 30.9052617662618907 15.8170968633431972
 -0.7797294889527188 39.7878694089446299 16.0311894186511843
  2.8715501732585840 11.7410990148564185 14.7452163667382301
  7.9700526011503232 35.0442968324819262 15.9683748855609657
 56.9043594728576139 31.1802943613026855 15.7610359161476925
 54.2421901336954235 22.8634819308253334 15.7365575086108862
 42.1905620135051720 42.3940915317227081 15.2142899272902596
 33.4336185295762434 47.1843244124467489 14.9742042228241772
 -3.3230758597746437 28.1515517487575337 15.7279186873280548
 48.0373087228991906 39.2240318949499454 15.4677466722508150
 30.7922509689983954 38.8347766388832483 15.5064928342135619
 38.8905304092406254 60.6030047211094001 14.2604396465852865
 50.9627650110022898 37.6419667949478125 15.5805609832598115
  3.0286405724077419  5.0912674425145976 14.4039967505162156
 -21.2649914217671459 54.1751230940254658 14.7577020998941162
 -12.1873837104704670 36.1978727066666792 15.7734414438480712
 -2.8977822762496936 11.6290731181302789 14.7614049106365162
 27.8789945052559176 40.4374762794600571 15.4888187432092010
 -12.5270178411988589 49.4120610095137636 15.4477796027263761
 -18.3503105198859942 52.5827827413840652 14.9900925581593079
  2.5189140872739930 24.9821011793727159 15.5811489248929078
 39.2701651112057206 43.9842170147486371 15.0995448041795211
 41.8152037587842855 58.9886523269233507 14.2828988322724761
 -5.8219557920714990 13.2237790886929929 14.9353556852430298
 -15.4381494728348496 50.9956217566328220 15.2253098710089585
 -15.1132332837775163 37.7789870157750087 15.6874868805814405
  0.0271378182163070 10.0272703676222399 14.6297941519958208
 -24.1827151892844228 55.7734731927346701 14.5474664163476604
 36.3515140842604794 45.5806988218606151 15.0152708639917680
 60.0918930972996037 19.7004852690869541 15.4727531977830743
 63.0170052205800957 18.1168712268283372 15.3093952132425812
 -5.9012134564987164 16.5306217568897615 15.1377050449205921
 10.8847471735505277 33.4548267855250359 15.9014141748447493
 36.6220312168408526 35.6496865107121437 15.6315355986353488
 -6.3379666474456791 33.0349109332464792 15.8531362427142817
  0.1033227354620381  6.7032781535088768 14.4517778653285909
 -18.0390212181967975 39.3599028261341957 15.5742858689907173
 13.7986324457370166 31.8579593688615645 15.8423241561535928
 41.8845995095348300 55.6559479682847638 14.4001038500484810
  5.4371900125392294 23.3912099557758104 15.5042072207766637
 44.7393653774406914 57.3782082100222155 14.3823883973266433
  2.9518892466773874  8.4193081213468748 14.5561166899951413
 -9.6155576793129001 47.8309972349136459 15.6462616748309138
 33.7065991903254911 37.2383729362562264 15.5580236150376177
 16.7112457171834805 30.2550300507786076 15.8058671685393204
 -9.2622654099961625 34.6164297511266454 15.8290228146230643
 -9.1727398930027491 31.3163483680665919 15.7907867546014220
 -0.4011371328074155 26.5678139736235259 15.6607551550026578
 44.8079270877537610 54.0505345143997005 14.5270956045608060
 -6.1573296129218518 26.4340344560341549 15.6569005729325248
 51.0495223719725360 34.3428068042576200 15.6935360154284691
 -9.5296914741075387 44.5242296345753985 15.7359682622733121
 -15.2806790334244127 44.3810107021825857 15.4923249052490188
 45.0311052645009866 44.1108195495124846 15.1350012373815410
 48.2118930783939987 32.6250240714920707 15.7446634522234206
 -6.4297449504526671 36.3369645582001510 15.8967260567984514
 -12.3607885777948585 42.8000121342080888 15.6609669914568173
  2.7010308733862383 18.3678434688633629 15.1738267710887094
 39.3566275082323784 40.6767334104551566 15.3205781709897728
 42.0309168845698196 49.0116326630539234 14.7709549650053447
 45.2876946942892218 34.2063851206882958 15.6900816179742240
 -9.4412909476706872 41.2199714175458709 15.7999183781045680
  2.6111033480613739 21.6756494633919949 15.3862626795001596
 -0.2207679844386172 19.9612297501344074 15.2758507349163519
 -9.3517217236517922 37.9175584936958288 15.8317690981486248
 -6.5218125276868228 39.6403028356543885 15.9037332251532906
 42.3660824710886743 35.7880173562874688 15.6146106627444823
 44.9530513689922557 47.4175165227291018 14.9200077628743504
 42.1087015941257974 45.7003568080181850 14.9914831505743678
 -3.1443640335432450 21.5490941427395981 15.3930379973532059
 -3.6028181069117422 38.0610658161681883 15.9696538425825185
 42.2765196613517062 39.0906800580165736 15.4252716753452734
 45.1130576999363839 40.8079384006385766 15.3420382431688331
  5.6209435982914684 16.7670653514624028 15.1052819606117552
 39.4466699869081765 37.3712466143522590 15.5269042290012269
 39.1088560843882433 50.6126787044830451 14.6650488245652912
 -3.5086611628596844 34.7565774714472298 15.9268332455176544
  5.2469484841918490 30.0103429073241088 15.8263993499450262
 30.6065463863842240 45.4712455213075586 15.1583039898511327
  2.3296577015637108 31.5944812975924094 15.8861571435609648
 50.8790090208579784 40.9418804549619963 15.4389340913873330
  8.1632510838125292 28.4207851786158017 15.7592085224600442
 -9.0835313525775270 28.0167939173171270 15.7173311887792835
 47.9545262961767165 42.5249745049117394 15.2891594295228206
 33.5222145060591927 43.8665585935408586 15.1736858921609432
 56.9925142888815728 27.8812856302259995 15.7460130744789879
 11.0783936674334296 26.8237052573236987 15.7048099268438577
 -3.2326504827588147 24.8503566641221632 15.5754747336814052
 -0.5888558509398593 33.1760305967621676 15.9222869537662834
 -12.0112350417083249 29.5986576872545726 15.7527679952354163
 13.9921980739101954 25.2204765791780652 15.6775845152616409
 36.1874952010721458 52.2198346474946291 14.6145643877885476
 54.0648814630279801 29.4624161663331101 15.7740719233485489
 36.4388531355174479 42.2679638599855991 15.2313105668469397
 -21.1218203587083728 47.5481378933356993 15.0980662782242092
  8.5393820717662638 15.1602399268999246 15.0810609773007673
 -0.3097826957614890 23.2648841016299670 15.4806702377862209
 51.1379542867344199 31.0438780151576879 15.7734264809338853
 -18.2009635849331453 45.9633141067539270 15.3018212561195561
 53.9767883660911565 32.7616891071100795 15.7409707927391445
 -0.6842441382612493 36.4814207583157071 15.9967646080221044
 -6.0695082099598574 23.1341184493991818 15.5083078540661248
 11.1744606775958140 23.5061989085391509 15.5731756962853307
 39.0331843289907638 53.9364699704652324 14.4809780768660321
 -24.1141312001322063 52.4512183252912010 14.7075381064871227
 60.0069670551092287 23.0004836850169596 15.5958216539146299
 -0.1348231984918815 16.6550756400579090 15.0566940708127035
 -21.1948604238724378 50.8582491583610903 14.9203216919321751
 36.2674603349173239 48.8976493188236816 14.8048118091521790
  8.2591275105283408 25.1074298048086497 15.6138200969660854
 57.0802152442400725 24.5821336898978409 15.6971231733690431
 -12.0995121930575138 32.8980575129381165 15.7805074457064336
 -18.2773838140419258 49.2700740112804567 15.1443584225354630
 -3.0588647505337052 18.2465404693599069 15.1886091480807544
 41.9562768663836465 52.3299793757999439 14.5681769669791539
 -15.3609861735187465 47.6861072399780710 15.3627529685468200
 54.1534061433448599 26.1631280342242043 15.7720457463526511
 -5.9839891630096931 19.8334628823492238 15.3324088524873403
  5.3426149375123302 26.7010560695126138 15.6786020933359946
 -12.4453364222306444 46.1041212641835614 15.5629989770750345
 44.8788492158287298 50.7300805247052864 14.7117520176459919
 51.2274242954990058 27.7443218189307430 15.8178872756698574
 -8.9099280554631282 21.4177723911120630 15.4720520713398866
 -15.0265665710339622 34.4795005935683037 15.7411837104272418
 -12.2747241512565441 39.4983076420369770 15.7326801902506599
  2.7878470626864633 15.0569018150570137 14.9557958092995289
 16.8080967435685906 26.9352267664455667 15.7545607395482570
 47.8754190851513002 45.8285813854163493 15.0942969551366133
  2.2335327766303199 34.9013710346114578 15.9859563801001983
  5.5300521655733483 20.0800512599130521 15.3100715312484468
 36.5292055945668039 38.9579803879646533 15.4403573634525806
 -8.9959453168142538 24.7174449756852823 15.6099133172844908
  5.1509249988571462 33.3193273593510426 15.9424614131077522
 -15.1980036326544568 41.0790662366754589 15.6029352149611960
 33.6133462802730776 40.5513800381054139 15.3716890465014675
 50.7984972136424275 44.2433244512200190 15.2753276040633299
  8.0667892543471176 31.7330341473066717 15.8789642160262989
 -11.9231364361630252 26.2996709573142411 15.6905535642666312
 45.1986982861277440 37.5069212900612072 15.5297451510415137
  8.4476646689193799 18.4771257056908738 15.2675901122469106
 39.1876990352079559 47.2955253652929670 14.8762766000859195
 10.9817783245179239 30.1399765769755206 15.8156003479544616
 30.6983863505792272 42.1523273696707861 15.3362131843684484
  5.7089856923385902 13.4513197214651701 14.9009505124653856
 -18.1215365104105359 42.6604843972323664 15.4481404019921307
 13.8954931237473431 28.5396374943762474 15.7706795347699398
 36.1112867412041751 55.5478857947221556 14.4605540679561226
 27.7847164385358418 43.7573958243473271 15.3408407253753349
 48.1232351815463488 35.9244652142608558 15.6216163792537230
  8.3539378419470030 21.7927859513345403 15.4479691893949216
 22.2465682071089965 37.0064896322609442 15.7231334993082257
 51.3181110272015459 24.4439919868260525 15.8266177870564686
 21.7869660388887390 53.6063910569297875 15.2774982862515980
 37.2057641656210336 15.8035097557219721 16.0809504058399675
 18.8832400106474125 55.2002589313606293 15.4207697246042201
 15.9812485933895339 56.7900073744469722 15.5560716611177732
 40.1208692402206779 14.2270725364856734 16.0370316535511144
 13.0802150046057335 58.3769188077241452 15.6684209638169829
 43.0344281278324132 12.6504037510832443 15.9481718888397328
 34.2902744597478204 17.3807373510577143 16.0800218866518563
 10.1795313009987662 59.9626129988391767 15.7483138804713931
 45.9455956213529007 11.0729011775140620 15.8164207188836858
  4.3780691355333294 63.1316768359326446 15.7985233157319822
 48.8543739392577194  9.4938603613783723 15.6461236395526431
  1.4771088847604017 64.7154427032871666 15.7699104504553489
 28.9866013016204960  0.6708851942905693 15.7055902472100790
 51.7609625303343535  7.9121156077820771 15.4424249328322336
 26.0847526654425330  2.2550360365894466 15.6062968018612960
  7.2788082010119037 61.5474420925554710 15.7915896291597981
 54.6665998209897666  6.3266267553585935 15.2119726901365837
 24.6938978312038984 52.0064486579839738 15.1456681812658989
 31.3747778679826155 18.9598925151242135 16.0389129945049653
 34.7184131195161640  0.8227428252679730 15.8144569531864576
 33.0506189715393077 63.8309652378431380 14.4477547017322365
 31.8157826098650318  2.4058387571610740 15.7950833701933959
 28.9121217203701342  3.9887365648008717 15.7396378175686831
 35.9683681995400235 62.2183165420356872 14.3173988947159465
 26.0072245074784831  5.5718720878687078 15.6506013331870619
 19.7204508463474042 25.3306595586677012 15.7710883583730457
 27.6041993513827606 50.4006110112972010 15.0430865608382494
 23.1006510542964882  7.1564043045285031 15.5349478799416172
 22.6330588520424527 23.7282437492981266 15.8185219778099153
 17.2825944673372440 10.3405586001841261 15.2789605008256508
 25.5463541922250279 22.1318609340137371 15.8892870683845171
 14.3704700614670493 11.9432956266707642 15.1742004848177530
 11.4559749860786191 13.5512667586879072 15.1049131455502863
 28.4600787954130183 20.5428128209845546 15.9691391381225536
 30.5174937032585980 48.7921705904621916 14.9833133544875725
 20.1925047643565172  8.7452493899468990 15.4050581177135406
 30.1384057262096974 65.4385747234076547 14.6371918050304934
 23.1818835481049348  3.8405752386982690 15.4778072904359494
 57.5723813094854151  4.7360952286543911 14.9666629575346501
  4.4479356127488785 59.8119288693381392 15.8120666312565845
 31.2771863235372720 22.2692015969064840 16.0271240699960416
  1.5469690054255936 61.3957033478611933 15.7737247043560824
 -1.3536763801146607 62.9794569067942334 15.6994390216477324
 34.1926457705335807 20.6888167651399435 16.0812673805500097
 -4.2539106140800769 64.5637219422571178 15.5896630455911698
 37.1089260473482057 19.1111103388549530 16.1005858651085560
 28.3628288953443857 23.8545550638086787 15.9536658404487515
 23.2563170142448499  0.5212629077884395 15.4479098876693790
 40.0253119898364247 17.5345207832167809 16.0772876544290142
 17.4499971662505367  3.7032724560075434 15.1115760602637828
 42.9412648128959660 15.9583465977955878 16.0089920210056995
 14.5417815574050699  5.3024776347743146 14.9521219999622890
 11.6294424790737008  6.9089232073616778 14.8223585878241231
 45.8555330448743490 14.3816599032932686 15.8964953890668639
  8.7133548332136961  8.5200077875512417 14.7374854792328538
 20.3544226961353765  2.1100651132670856 15.2834561432148615
 20.2768462315249920  5.4291046416027884 15.3308477150162972
  7.3495935254560996 58.2280117365144960 15.8139895072283672
 25.4491698717725683 25.4469910167127615 15.8808477184607817
 17.3692399226225227  7.0226780076135533 15.1823703154261054
 60.4802799985541171  3.1394613851506952 14.7248964624426169
 14.4586688590434136  8.6234848582023744 15.0510037999966020
 11.5449646776585588 10.2310531701764269 14.9523335480695785
 63.3926948429878934  1.5363934050702763 14.5087948236892270
  8.6282957402587570 11.8415492197885968 14.8996315937197252
 35.8997239260147225 65.5555739126844941 14.3425847168582550
 10.2519250568392142 56.6434264329506334 15.7783466442316040
 27.6928666116149742 47.0782642355459160 15.1885791397784509
 38.8219161300157154 63.9417577719035179 14.2455630663307851
 21.8721177086351837 50.2860396208240630 15.3650753766574830
 19.6236121703743294 28.6505172433567559 15.7998427193234896
 18.9650521854029073 51.8814814955090213 15.4860365028436977
 16.0593150456872813 53.4715694900487648 15.6055986739864192
 22.5360867949870709 27.0466283331399211 15.8260605704510606
 13.1550101324381092 55.0582042684142152 15.7068322930821349
 24.7814094241540666 48.6843063684532638 15.2610333422202995
 48.7680632299549046 12.8039609526735401 15.7430367197218768
  7.2090155321283964 64.8673352921704947 15.7979609912807515
 57.6427933298776125  1.4114954076999808 14.8647339183170786
 34.5647054613885132  7.4542639336097789 15.9188352465915255
 46.1075522178761261  4.4454439200474987 15.6445388098949838
 31.6552421785851301  9.0336489085190568 15.9081193197097459
 28.7441643654973795 10.6137774484140799 15.8598329710235717
 49.0087550154033096  2.8615581501378671 15.4650834720001242
 25.8323643178114430 12.1958405266850960 15.7796216568353440
 51.9089204856488067  1.2742308258299948 15.2561653470824936
 43.2042569116790744  6.0273603693207232 15.7888113078487162
 22.9208810443689224 13.7824523352858535 15.6801766737919142
 24.3982028813695635 65.3104024386721846 15.0292927761284343
 17.0974473668743236 16.9765064169499809 15.4954826606727387
 27.3003458139861159 63.7116952152097866 14.8034072928460994
 14.1844211953228712 18.5819708052563648 15.4412341210929451
 33.2684581489524192 53.8311032631175692 14.6269659992826870
 30.2071501253799930 62.1063335078503300 14.6023875951363884
 30.3528720278746427 55.4432492294779706 14.7023162857287293
 20.0094489080441669 15.3759683925806900 15.5796823077777074
 33.1201445992890626 60.4956146044779075 14.4482273506271515
 37.4720637010393602  5.8740836176704052 15.8906706612870661
 40.2981940388851356  7.6075269902563853 15.8950270228565849
 17.0017688032346790 20.2957997542620738 15.5961546199153620
 22.8259961182815410 17.0961464775689436 15.7433621762993834
 14.0887752360083933 21.9011737687492740 15.5663287852612040
 33.1923623536552554 57.1615243017986856 14.5102755953605822
 25.7384687440872959 15.5066428335561817 15.8358405486863685
 30.2780722837190481 58.7738142126814651 14.6252777786496697
 28.6517548265890483 13.9231810892684482 15.9175537308335926
 40.3768682127409804  4.2926947102290089 15.8244804735237388
 27.3695639837117177 60.3819214323028248 14.7921340087918018
 31.5652817483438284 12.3429767905718037 15.9712881029607168
 21.5671237923241073 63.5788699640413526 15.2043130340054233
 34.4780543623730367 10.7644367335737705 15.9872662740550293
 18.6684757921682163 65.1684784127997716 15.4049534625333493
 46.1800684019257659  1.1260558658378688 15.5797366473582848
 37.3894340230587403  9.1864224415150719 15.9617433146847567
 43.2795883563633552  2.7101078078518621 15.7205943643205135
 24.4667950814424877 61.9837208415435228 14.9926742771710071
 10.1096543188473014 63.2827986663022060 15.7456397868840643
 27.4421745392207619 57.0524807754042982 14.8322254320329989
 36.0383975049626670 58.8812216881146995 14.3578297916386521
 17.1915090301781852 13.6581996791073550 15.3871787101330444
 40.2125803942243110 10.9184431903039467 15.9714166363013934
 14.2785870391203069 15.2626306439664035 15.3078996444492823
 11.3640458979744565 16.8701091694096448 15.2663262484354796
 43.1225636522789415  9.3405996673027314 15.8694288082969948
 30.4327006435063154 52.1158808060069845 14.8259162227995311
 46.0299311472247368  7.7613315947678032 15.7272892179113377
 37.2999462016014718 12.4956699387534638 16.0306542736539086
 27.5201708357256365 53.7252098216540617 14.9191039518867328
 48.9343799370500889  6.1798097563493855 15.5490044591185494
 21.7087775918860686 56.9287527264311635 15.2159662841647361
 51.8373043229999553  4.5952755261450218 15.3391829458712188
 18.8082259883772629 58.5218821136696761 15.3818902846982084
 15.9089111298786712 60.1110340660824747 15.5330740889679966
 54.7396152982171884  3.0062869537963732 15.1060703084233570
 13.0094715839205772 61.6976475538904410 15.6567955615187682
 24.6121799180939185 55.3301722529458218 15.0547569010469626
 24.5372140499607774 58.6563109564641323 15.0014852463056236
 20.1028955626661237 12.0603447651299813 15.4923102276015712
 34.3858584967061844 14.0728358296168814 16.0456739581877841
 21.6365107718892880 60.2534641561673752 15.1903616416396297
 16.9052183783816119 23.6154867626517415 15.6837996874630115
 18.7376624029024228 61.8452500805611578 15.3761320048027450
 15.8391187858921487 63.4330668944677214 15.5410766147255348
 19.8174100982728127 22.0111838735721363 15.7233426004565242
 12.9399023210014459 65.0185621493208856 15.6746438444138203
 22.7299225738792643 20.4113466169792908 15.7905336542504937
 23.0130333990750202 10.4697449562892313 15.6071699025251185
 40.4501746305102756  0.9744884262939691 15.7720333315235344
 25.6428914655595150 18.8184668917090612 15.8738214012602885
 34.6444541148716780  4.1403544763378006 15.8569799336101518
 28.5565509279048904 17.2325435864927599 15.9561932264243413
 31.7387673960772005  5.7217809733236811 15.8443731192351951
 28.8314806592066581  7.3029238116989967 15.7952536231958263
 31.4711359080377910 15.6513978395966955 16.0184363255778770
 25.9226727165478223  8.8848695293870179 15.7133412288487033
 37.5481256673563806  2.5578529945300712 15.8327842699211274
  2.0417942128650277 41.5165249096445734 16.0664916846672625
 24.8727862629657288 45.3632659485687455 15.3856704869338241
 51.6788988086858296 11.2244192749685716 15.5537029473016535
 -1.0542446076099909 49.7126342408227444 15.9181125678032611
 28.0708723496690560 33.7999431173859364 15.7419151531468060
 -3.9629604829140468 51.2921425061630103 15.7952631629206923
 -6.8692761138182652 52.8727680700988643 15.6345414334445891
 30.9839072973099938 32.2043427974165510 15.7953293533348624
 -9.7738490464540959 54.4555676376733686 15.4412559189614562
 33.8980663286477011 30.6164457914453720 15.8639716707539140
 25.1585895489971350 35.4020686874773958 15.7162739286015292
 -12.6776309146783515 56.0415901865059780 15.2211491406478761
 36.8138773989693959 29.0342371112671245 15.9290868019818905
 -18.4890166703798151 59.2268470308782753 14.7485408173513850
 39.7311720948213960 27.4551062494568718 15.9731725295446090
 -21.4003885873111450 60.8284413307853242 14.5353418062838795
 -24.3173892959709583 62.4362527885044756 14.3675328447456501
 42.6498062594514806 25.8772013859240140 15.9852660432168570
 -27.2396088843812656 64.0491750282582046 14.2648081049637856
 -15.5821291787593257 57.6316655281934302 14.9844379394123504
 45.5692202634535306 24.2994204260019835 15.9607870594001540
  1.8565776251852419 48.1337650417464076 15.9988910698050155
 66.0975058727137537  9.9105657245985519 14.7400214537407894
 -18.5572174237337393 62.5550939880630992 14.6888474098119417
 48.5838036069240289 19.4172752246155795 15.8785383265306113
 -21.4691969436700063 64.1608308984158242 14.5024712931439819
  6.0239096177303555  0.1432444282355251 14.3683816553874255
 51.5013356308998098 17.8388095875096546 15.7438812480074617
  3.1015091278085136  1.7578393698734702 14.3036197688858557
 54.4187874273631564 16.2588747786954855 15.5760416015542837
  4.7692461829652864 46.5549089902795146 16.0349756674607917
 19.9139535945134085 18.6929393278386229 15.6584506738423350
 57.3368123610197529 14.6770795212372906 15.3805781350991246
 16.4219356303687789 40.2103508875779170 15.8278920764651758
 60.2556658534278426 13.0925607410102671 15.1660034599112414
 13.5092751784909524 41.8043879117446195 15.9066568742311798
 10.5963573682745604 43.3919163838164721 15.9797763665211328
 63.1758501529778798 11.5042808919394552 14.9465468465377338
  7.6828751767599543 44.9748840307004443 16.0268355169725574
 19.3345232883648777 38.6102255873642619 15.7624619187421615
 45.6657019915656690 20.9945933611901374 15.9755966537000589
  0.2460562514298029  0.0364047438259630 14.2400872572494990
 48.4892207062680711 22.7212390365551933 15.8990112779253892
 -18.4206420257714889 55.9020890374571451 14.8536665362918523
 33.8015100859126107 33.9269743823666161 15.7242241885707319
 -21.3330675189593926 57.4990103650133761 14.6245093308277490
 -24.2499372660841530 59.1024454356500328 14.4296100986460925
 36.7171395263105254 32.3419763250585888 15.7965084813635048
 -27.1714357267941544 60.7120773694686449 14.2918652474470314
 39.6344400816058595 30.7610275583042387 15.8592097602018658
 30.8875225327952094 35.5187530666464966 15.6613227534182080
 19.5269754066478356 31.9704457548772254 15.8081726334989785
 42.5532970784839506 29.1817891135670244 15.8986079667070310
 13.7015829635869633 35.1748406749772116 15.8898687271991328
 45.4735827194326347 27.6029551864865503 15.9077545043316864
 10.7878370688876686 36.7683250158123158 15.9586778602203356
  7.8732965289304815 38.3550013143484136 16.0236257797300503
 48.3952659589722032 26.0239009004770239 15.8839595665146334
  4.9577246501898493 39.9371485144045479 16.0640292791775359
 16.6146199586084720 33.5744612073050845 15.8356930785619081
 19.4306038140191610 35.2904983310137865 15.7954900053528124
 -15.5117725308965912 54.3110070469249138 15.0947799793581154
 27.9745035951621048 37.1182934285532369 15.6241689784107525
 16.5180718560599331 36.8930361013143013 15.8430414105005113
 51.4097123649837471 21.1423629829581508 15.8012773055726754
 13.6048468498738497 38.4903139236110903 15.9115634797080769
 10.6915835600605487 40.0806443055622736 15.9851022367824314
 54.3306696741869146 19.5621785415520684 15.6701133678390558
  7.7772847874803182 41.6651665682528716 16.0427840802292785
 57.2524449311629695 17.9809733700001608 15.5099005443793878
 -12.6045477499553638 52.7244322465642199 15.3290917059409519
  4.8624340110316764 43.2458580644599451 16.0667849374455081
 60.1749664574563212 16.3982780447921748 15.3267240955553348
 -0.9663729802646664 46.4031000492020596 15.9844686456185361
 63.0979533781893451 14.8130442244250382 15.1302997924484419
 -3.8788400840096884 47.9816143012709304 15.8762729611178663
 -6.7889826305260241 49.5606266801178421 15.7272637208163051
 25.0624444084372122 38.7221454379930279 15.6200874478234848
 -9.6974173319115256 51.1412359183443073 15.5428292068339751
  1.9474939647866389 44.8246810244540086 16.0483293179990056
 21.9622366694015945 46.9665386747813187 15.4641299738667914
 -15.6506679858361473 60.9558225900936179 14.9076321262991325
 42.7472718278487847 22.5716057013682097 16.0323745980955970
 14.6190744876309413  1.9790324701278830 14.8908983133962760
 28.2652903112407792 27.1679989167123992 15.9094132073470558
 11.7087441863386790  3.5838654935649017 14.7291025754705505
  8.7937534255255532  5.1942857946555172 14.6098163364752196
 31.1791047101725880 25.5796753339804184 15.9816721271651812
  5.8746735436360575  6.8072714592177057 14.5490099339110603
 34.0940868882144201 23.9973788579773988 16.0454664407780960
 25.3520386479788833 28.7639254871646415 15.8484611232875707
 24.9668894836159438 42.0425770903034532 15.5080455456173549
 37.0105064670276676 22.4187402780476077 16.0828918980971629
 19.1443995587427693 45.2472113485599365 15.6425963002696840
 39.9276993899578940 20.8417058674910258 16.0825649981244361
 16.2338697458502388 46.8413985636784389 15.7367639247116156
 13.3235456603721563 48.4296825816563725 15.8257089554782127
 42.8449510536826708 19.2651878258148059 16.0394674796326981
 10.4134673960734396 50.0138838803964845 15.8908637411529838
 22.0556425734675621 43.6469133101616436 15.5619649053150280
 45.7617486156613609 17.6887767028801228 15.9528490906755405
 17.5243917226723518  0.3809751953892611 15.0780418718394831
 22.4393484355428612 30.3661903633605093 15.8125614785489681
 19.0527589618482978 48.5643588134930653 15.5645812910290005
 54.5885339235884715  9.6420296554623501 15.3345889460714666
 16.1441887451533681 50.1558745103959041 15.6708971676733189
 13.2361917603985653 51.7427557554460407 15.7639697056010846
 57.4980266732365379  8.0556275989967308 15.0954774082493230
 10.3294625109573701 53.3269728869328219 15.8295864038851022
 60.4088521105032470  6.4635275763397928 14.8518223478095059
 -9.9845476857618767 64.4167195376668502 15.2710390554147626
  7.4241388098215220 54.9104474239217240 15.8600690492953298
 63.3229805333229478  4.8656393215638829 14.6221995148631976
  1.6176040420128299 58.0763747675030899 15.8063632162776226
 66.2414178537346743  3.2613107256994076 14.4295695880754451
 -1.2838555297840377 59.6594742197950723 15.7231971823136849
 -4.1842804820048949 61.2432570886949605 15.6036064945749278
 69.1640758456988607  1.6510929136814547 14.2970504489320742
 -7.0841703483563654 62.8285736373678461 15.4505275575158780
  4.5202321883950134 56.4933957823528061 15.8523663835382411
 -12.7475372123618538 59.3625089664347882 15.1366053387698809
  7.5044783024133928 51.5961436257116404 15.9209489460151019
 48.6771960338571077 16.1115623241189390 15.8244387963433990
 16.3268794615040882 43.5264510421550668 15.7912894691220256
 25.2551359147105394 32.0824402442132239 15.7931851717917215
 13.4151486220720813 45.1173016928254711 15.8765210724565673
 10.5030531292465223 46.7027538391470358 15.9456891801996399
 28.1679754537124296 30.4830770925236756 15.8380547447219602
  7.5912681838725176 48.2847812255938678 15.9822585798119192
 31.0812418890740361 28.8913511562343253 15.9033546674050683
 22.3427996027765445 33.6861384864241202 15.7781138539853476
  4.6801247285330749 49.8651109779793487 15.9780758153442566
 33.9957315700497773 27.3066172831665313 15.9722569647509829
 -1.1361582848885754 53.0249297277625757 15.8423993504455929
 36.9117865429340810 25.7264750380022917 16.0254290035375853
 -4.0409616778541269 54.6060758905877748 15.7142693821663144
 -6.9440748985169192 56.1887788904653718 15.5502081162735220
 39.8292567805934326 24.1486484078086256 16.0480984462581304
 -9.8456907055674296 57.7737911988696808 15.3551681553709880
  1.7709351370861273 51.4446993056718114 15.9311169688729812
  4.5971518094302972 53.1776168058580723 15.9116356569056308
 19.2388631032683435 41.9291731459466348 15.7105413228087798
 69.0937077707253167  4.9838918662971983 14.4086813313156892
  1.6915586844083244 54.7589129888319874 15.8621684742537195
 51.5916773988868513 14.5330073298875107 15.6585070359343685
 -1.2120967077155844 56.3407863668237709 15.7735030517333321
 -4.1140845138415045 57.9234805798006320 15.6471758508038672
 54.5054566491559527 12.9524611123640554 15.4606259225933336
 -7.0148814787101079 59.5078781412508775 15.4860236161841751
 57.4191247285641779 11.3690685680488759 15.2380697868203043
 22.1507583227664284 40.3268336197860222 15.6501251777828099
 -9.9152359813454076 61.0946213806012253 15.2957889188466218
 60.3338512928435904  9.7814776072119329 15.0030723466286968
 -15.7196623450557968 64.2817434804403689 14.8751216284500618
 63.2507242645721846  8.1887007232820039 14.7727399042457925
 11.7832135921459180  0.2559955521014023 14.6826051822706045
  8.8696690719966149  1.8645403671029970 14.5287601945033380
 66.1706240960703269  6.5895788266155941 14.5669447377556569
  5.9512927312728197  3.4771485133513900 14.4312095984466584
 -12.8163277726547218 62.6855072284568280 15.0866333992698269
  0.1763656298446295  3.3726248548942044 14.3173571364990870
