Mo S  Se W 
 1.0000000000000000
    69.3510502247656149    0.0000000000000000    0.0000000000000000
   -34.0119678099799998   66.5092384186887386    0.0000000000000000
     0.0000000000000000    0.0000000000000000   24.4856654507443388
 Mo  S   Se  W  
 525 1050 968 484
Cartesian
 36.4113554785021734 51.9761510441552659  7.9929773870311296
 -4.0809538213849388 61.4279044487746404  9.2355189839104366
 29.5726135559444998 15.7964925909548946  9.6331706733683564
 -1.5204069759893355 59.5424400951017887  9.3064107563358842
 27.0045634661722715 17.6905884877077817  9.5814608555697856
 24.4410599534549178 19.5874629635768862  9.4984292950590934
  1.0409944487332958 57.6564860267183263  9.3530749287361203
 21.8836034381139370 21.4874778178726125  9.3975882518220573
 32.1431004420565216 13.9039220052992665  9.6491725089442557
  3.6033187393493620 55.7703838209295597  9.3740762991071431
 16.7829345410695687 25.3000647321057635  9.2449990154702206
  6.1661025142895642 53.8835611381016690  9.3698966677695967
 14.2357844718275626 27.2100831080789227  9.2336728379672426
  8.7285325185320968 51.9954375408350700  9.3411106576176408
 11.6881817874730789 29.1190348102252408  9.2732692602594042
  9.1383805120715120 31.0258436854302992  9.3543750550505997
 11.2897013113997851 50.1051591891722765  9.2880568510232138
 19.3317334726450376 23.3921478508214875  9.3046935808130584
  6.5844848285611688 32.9286446482157942  9.4573686587314079
 34.7141594585587328 12.0126370237915427  9.6287894435463990
 37.2841720401937238 10.1220364145068107  9.5716131916330411
 47.4499592290712258 26.6360238339824775  9.4322697415111332
 -19.4508642543222301 48.7727423575609862  8.8117352799212636
 50.0232603094488724 24.7272300677987644  9.3644945086363531
 -22.0085609820264878 50.6759469981853741  8.5601965637331361
 -24.5600075235093058 52.5773747094789314  8.2882738436684207
 52.5958199905186277 22.8178613162318840  9.2637864495907536
 -27.1064717711222194 54.4781572219144437  8.0165998201592394
 -6.6403104141545599 63.3131156014726315  9.1451604796024935
 55.1671621160147154 20.9079421818472007  9.1314420463189521
 47.5405721028293371  2.5641354242809586  8.9835823064634628
 57.7354488386515925 18.9981284036005995  8.9692080341193439
 44.9822836423195511  4.4532644511113624  9.1781897563689139
 60.2997421029152036 17.0887927452125332  8.7791999963919718
 42.4194890646165348  6.3424214740087050  9.3445795360111479
 39.8529476730148389  8.2319216244176978  9.4769215421856074
 -9.1979102257335761 65.1986884465803342  9.0396609866801114
 50.0938140418225046  0.6752453520357244  8.7665787482498452
 13.8477040175948662 48.2114548060606793  9.2125001757645144
  4.0249505546389841 34.8292914349036380  9.5556137473481986
  1.4595168282866955 36.7280911262705274  9.6253951166342659
 55.5591578740091592  0.0463680882988441  8.3045439964880181
 39.3845450561642352 29.1812927780189533  9.5471244568639460
 53.0160111647154011  1.9410873181992607  8.5724568268243928
 50.4667690586316766  3.8340586226484805  8.8309096259739110
 41.9565566175118931 27.2784710373239960  9.5596269240657410
 47.9109154883169168  5.7258247338147852  9.0666431296761996
 44.5299102400823514 25.3739047317653466  9.5305760339492540
 36.8156082720834377 31.0830292086738957  9.4929544867095821
 45.3493842561603628  7.6172033897922313  9.2703692914871318
 47.1035887699820890 23.4680583041016106  9.4623676767424545
 40.2131385247087678 11.4011210134253425  9.5621084158910499
 49.6769692296302665 21.5608858168443831  9.3578625599167715
 37.6413513714525578 13.2937035328675517  9.6479626258968825
 35.0683807254472271 15.1868872794199241  9.6945648666011248
 52.2486187039027854 19.6536443705870276  9.2184213042052185
 32.4958196651242801 17.0808460806277047  9.7022306511088736
 42.7827378810242749  9.5089948879721522  9.4364237869945775
 -29.2731068166920139 59.5348885105454926  7.6389274756849241
 -26.7327733314736378 57.6318877751587024  7.8685594843698992
 34.2501751552102931 32.9827759572675276  9.4009661067875125
 16.4006415433276480 46.3134694380870897  9.1238574605877965
 -1.1102115093071707 38.6266439745838710  9.6548365553957662
 18.9487694551328119 44.4106050759471316  9.0434953125818591
 -3.6825603843695691 40.5252320707156457  9.6404478883546911
 -6.2556785677810964 42.4246245246270632  9.5822678530776528
 21.4946101722710310 42.5041947792457080  8.9967370843043639
 -8.8285415662674893 44.3250033235217131  9.4820467168641915
 24.0395111004690953 40.5961731164316788  9.0005640724008593
 -11.3995229316914291 46.2264719537383613  9.3418730804754517
 -13.9680224270626976 48.1281774801091302  9.1635632924922046
 26.5860705884514275 38.6891096841343085  9.0582091798165507
 -16.5325208755050461 50.0297454159673407  8.9488924043507154
 29.1358713036932855 36.7844589945897127  9.1590412637964107
 -19.0912167613626060 51.9308797261931332  8.7007656345041635
 -21.6436288364144112 53.8308684088408995  8.4262877440364097
 31.6901625648037673 34.8830045161009963  9.2821937078454120
 -24.1903071930837577 55.7312260188242661  8.1409346130165936
 -16.8872648298661083 46.8681349063410977  9.0332850044025115
 -14.3193889192434760 44.9637003622923643  9.2218665218014593
 44.8763029951070536 28.5436992031637971  9.4656405835444186
 -11.7488398213230596 43.0590074315153899  9.3754307571259243
  5.8707436200613818 26.5641789091318330  9.2102437096684007
  3.3159336424761023 28.4671023484474297  9.3242533335002449
 47.7966797597641673 29.8025400346214333  9.3815780700268903
  0.7561147181164702 30.3696191831244136  9.4281403107197139
 50.3700871428139862 27.8921588062957255  9.3549100998183512
 -1.8092631611958312 32.2717672190764659  9.5015063085052081
 -4.3783636964936496 34.1756917530605548  9.5353037684188244
 45.2234499871424731 31.7119553393887585  9.3756847404285697
 52.9435133888561325 25.9813617003464969  9.2969859197192495
 55.5160466478516739 24.0706406542673008  9.2082172782113858
 -9.5231602130886515 37.9862016737017925  9.4781063243223187
 -12.0962051236509343 39.8923202722421166  9.3905650661335418
 -3.7047428503308191 64.5871541227737538  9.2307938533923402
 -14.6683133331650435 41.7994945547291508  9.2676872170434788
 -1.1444255167876811 62.7025289998940423  9.2727548810303109
 -17.2384557211227580 43.7067191615800326  9.1115077526378556
 -6.9500932232777162 36.0804070987190499  9.5271928474197622
  8.4211387815152747 24.6584659480786677  9.1124395757879366
 42.6518228489973836 33.6205811527061798  9.3359257894262608
 10.9687697545938505 22.7504700347021505  9.0532578400624253
 24.7667251426928701 46.9491377270092443  8.6501797285330913
 36.5525831924884983  3.7911192692456273  9.3801975683335606
 33.9879600575338969  5.6772915205976098  9.4359996687937375
 27.3100594866112871 45.0431240972653057  8.6727037374454277
 31.4223336443128254  7.5635063044361734  9.4636005256725539
 29.8553680616943033 43.1377099396550392  8.7526528447388081
 28.8561976956585724  9.4509158160809665  9.4603968597421559
 26.2911135232381987 11.3400107906235821  9.4259154413124957
 32.4045904527767092 41.2343537447683346  8.8759688591970409
 23.7273305532971257 13.2313650354182322  9.3626316397905587
 34.9583464866780673 39.3327578108669513  9.0189365278981413
 21.1671359112655715 15.1269549992903176  9.2749099690138284
 18.6125521788292083 17.0274487831585191  9.1761513694685259
 37.5178621569968769 37.4311592427001614  9.1540369266349764
 16.0626988529577304 18.9327804498136203  9.0916884480401130
 40.0827458250706599 35.5269402119126454  9.2619036646392860
 13.5154224176598756 20.8411795820018710  9.0460200010848091
 -19.8056310409644425 45.6138698929350284  8.9236224541211548
 54.8173638544946868 17.7454043369882513  9.0459396795259455
  1.4158962660201591 60.8175894175408587  9.2949715529109813
  3.9765195287970836 58.9327242586697437  9.2958485211736885
 13.8754159495264506 24.0244316795544037  9.1533649942894222
 26.9471886640925540 41.8683537978654101  8.8790601087395782
 11.3286818582406976 25.9337837413447438  9.1774253146060829
 29.4947970249264557 39.9633142645891013  8.9711212422838198
  8.7799120375078061 27.8414212610899874  9.2484313499202742
  6.2276712722907179 29.7457855029071183  9.3499882911301366
 32.0466382766064015 38.0610371195484660  9.0957150641492834
 16.4228206090811391 22.1152089468893571  9.1821862446014482
  3.6704756826606655 31.6475989603214245  9.4575672837646465
 -1.4598293165340983 35.4486656820328250  9.5968396864338832
 37.1658236500130954 34.2588436798241318  9.3398006842078534
 -4.0304349040590273 37.3502182605758506  9.6055722824986987
 39.7330013220832754 32.3557127889721556  9.4196464190781519
 -6.6033254756227846 39.2520731042437561  9.5701321296393136
 -9.1762623566053296 41.1550554115428611  9.4923599193084609
 42.3034047746082180 30.4507140319256742  9.4618149275249817
  1.1078256738320769 33.5483725707978095  9.5453474847657471
 24.4022769742005359 43.7750964361080150  8.8374181837322485
 18.9722746172816628 20.2080269596874906  9.2559112819261546
 21.8580130575014344 45.6821050286522237  8.8520694946597835
 -24.9262979747569311 49.4237082593920860  8.4619194925514929
 44.6097937986586786  1.2925018077905470  9.1035687309020243
  6.5368803537202824 57.0472833070726040  9.2751375121175776
 42.0500895714677014  3.1799477920273174  9.2542791160095721
  9.0970866166969220 55.1605306650799179  9.2328556029452464
 39.4869766937398481  5.0674115527629713  9.3802357486511188
 36.9212049282788897  6.9546968910017917  9.4762485800188863
 11.6559487038003660 53.2725959402096336  9.1711512943109330
 34.3536833932405870  8.8427803325288501  9.5388703979782079
 14.2124274873598022 51.3816803760486636  9.0922845189196195
 31.7853656547660002 10.7313916681905646  9.5665778887520521
 29.2170914690324146 12.6214162457313179  9.5597168242783912
 16.7648737275082773 49.4865318949693744  9.0015162526566819
 26.6495400111985710 14.5129040921999675  9.5196343206934610
 19.3128759931768030 47.5866218053088730  8.9136835401102115
 24.0849619120702627 16.4073481294597769  9.4484281887336952
 21.5259256734882527 18.3053197867356268  9.3537076723903212
 -22.3687214434296884 47.5199061093600079  8.7057807329998713
 29.9252702260535344 18.9757158720262176  9.6713135036227982
 27.3578564195014309 20.8714285808240483  9.6043174239747913
 57.3823526138401334 15.8373539009403910  8.8428118748359985
 53.7521806599779310  8.2587519995664920  8.7505226945771675
  0.3041166793027210 51.3270962374588890  9.5276819545243736
 51.1945704359066696 10.1581816588778988  9.0090899694291728
  2.8724767634314663 49.4367249277643239  9.5600987271379481
 48.6309037594206970 12.0572395635924874  9.2317683351921787
 46.0626567376296308 13.9553658615315470  9.4157120918536492
  5.4407002166552880 47.5449053099601144  9.5581968092365042
 56.3030603097967699  6.3595815833190033  8.4635549084029549
 43.4909811127462689 15.8531334018193792  9.5585446453582854
 40.9170141974186095 17.7507452525879295  9.6581054168364524
 38.3424588382233154 19.6482705368983979  9.7140052738704146
 10.5698408113869089 43.7559498842180901  9.4549537995940014
 35.7683930544248199 21.5448464213730837  9.7268651912518678
 13.1260318783017293 41.8569602964669443  9.3673880349480694
 33.1963508632302720 23.4417894958377246  9.6981176322470706
 30.6282875543039559 25.3386801538799453  9.6306806340516964
  8.0074200700037839 45.6516455324518162  9.5220706970945770
 -2.2628012736308878 53.2168541568640308  9.4613951173097792
 58.8469696358447720  4.4602234103768179  8.1657431508528742
 -4.8278968453840942 55.1055866571876365  9.3617795262822483
 -8.1228318614077324 50.6650097246701137  9.3888468236926581
 -10.6883742386829539 52.5592471271986952  9.2193398318943736
 64.6739447951769932  6.9647917006672602  7.9087276339599564
 -13.2495661962289937 54.4534653403578730  9.0137637912868414
 -17.6071827656364590 64.5526285964759978  8.4758559444178072
 -15.8056560724250357 56.3482639975693829  8.7768000162017881
 -18.3561985812078134 58.2435296980493646  8.5161464385341326
 -15.0590354140230236 62.6604860296095225  8.6879382876156566
 -20.9013907969442094 60.1397023541463298  8.2447663325067033
 -12.5065090114462745 60.7711330520075279  8.8889250586431245
 -23.4422978113759299 62.0384756665263026  7.9820334908538246
 -25.9811815049860861 63.9403223760038344  7.7554099614974872
 -9.9501391719353229 58.8825716838594317  9.0717433401955567
 -28.5206312260867989 65.8457838731421816  7.5947698193346156
 -7.3906941941448947 56.9940774280480937  9.2309987892408856
 63.9248015100635101  0.6560191944616106  7.6472703557541326
 61.3863573160939282  2.5591287009359247  7.8834512310276565
 15.6768827716780148 39.9533838171032016  9.2811373409983702
 62.1294374357717558  8.8685784665719805  8.1700233688816386
 28.0659890159884071 27.2369879199357641  9.5321964584614616
 25.5101204775433708 29.1384882919988399  9.4221849060185345
 41.2641003270864317 20.9280181069017601  9.6582113129614395
 -10.3226503682500539 55.7219781540012917  9.1407524771212607
 43.8382841395904208 19.0278360365699193  9.5783115413132514
 -12.8806504168148894 57.6130831592105821  8.9402473839353966
 -15.4338780627363867 59.5051837982943965  8.7140903573888160
 46.4112530945277015 17.1269152592791585  9.4557236491119809
 -17.9825459315171727 61.3983228856360128  8.4709668302086403
 -7.7601574280453374 53.8311398288438738  9.3109409220217163
 48.9820383735738503 15.2252894544889301  9.2920901728081944
 -23.0667000570074698 65.1920078257325457  7.9947193640674232
 51.5493146711248329 13.3228879530088165  9.0901582491863060
 66.8411811986899238  1.9049152199367114  7.5549552609436228
 54.1116478462225317 11.4206459373307094  8.8529442231012485
 64.3002650629216532  3.8107722724180273  7.7474351774813988
 61.7595589067399970  5.7137893197839871  8.0050692307001459
 56.6674837847035562  9.5180658228148385  8.5843837567050354
 -20.5263344161536274 63.2935598436356486  8.2241123715033666
 -5.1941569678040311 51.9401491359280598  9.4469765094691613
 38.6898169192621566 22.8272173897730823  9.6946790203832443
 -2.6255389490035954 50.0483079555396060  9.5457703542416361
 22.9589549124465044 31.0436063489436940  9.3280117915233802
 20.7711984146008390 36.1373770912916186  9.2077318194210331
 20.4109826857351671 32.9512329854191748  9.2724546261312977
 23.3185136591055304 34.2291885289966515  9.2456487995242416
 17.8639302637047557 34.8608669918798597  9.2675388274183952
 15.3164474842959137 36.7690294768926620  9.3120068986455156
 25.8676815888873897 32.3230918102043034  9.3292837468438723
 12.7664961918158291 38.6744543349421832  9.3922036217250948
 28.4214197631947378 30.4207006312689003  9.4404018355516648
 10.2122001627572203 40.5761469011246731  9.4846833400011636
  7.6514470706831821 42.4738359291149052  9.5639620209761791
 30.9808061227281932 28.5206368983761571  9.5520532309013735
  5.0850652904543914 44.3690530247655204  9.6139791641975965
 33.5465548675481600 26.6229059442790330  9.6387410009121286
  2.5155500382707965 46.2630002222782579  9.6287182341484279
 -0.0550449605685072 48.1558966422311912  9.6061780898092852
 36.1167374847697005 24.7251274287697207  9.6877455362494089
 18.2247519094677344 38.0467868875431421  9.2217845282271913
 39.1156717709719786  1.9051755752128583  9.2979812686587948
 -5.5535467617295140 48.7704376884309738  9.5190514029539361
 -2.9819179676615573 46.8753397024523082  9.6083490136205860
  0.6698578092625205 54.4932079176919828  9.4361588439823905
 -8.4782167782102480 47.4957195648704413  9.4476249939531360
 -11.0471025832950769 49.3938542392237281  9.2895788855198536
  3.2349524773223926 52.6054999697954173  9.4685313018972348
 -13.6121968522596628 51.2920735682411717  9.0928357395234176
  5.8006196232307525 50.7165652677436611  9.4716353231158070
 -16.1720776720187125 53.1900018935021279  8.8602440104328171
 -5.9066843608206909 45.5978837344943386  9.5650974697952211
 -18.7261448523560183 55.0877163790095423  8.5975504091457964
 -21.2745783610749477 56.9856103529993163  8.3165787916688121
 10.9283035183048156 46.9326694227482122  9.3878222566680147
 -23.8173810431213191 58.8849144427240105  8.0348185962532916
 -26.3569040877037253 60.7861342609657527  7.7773101032307164
 13.4860403086215772 45.0362566904732233  9.3068810473777308
 -28.8963099209998617 62.6898108344423264  7.5765962830608924
 16.0380188837984718 43.1351744062350733  9.2181258610016670
  8.3656523453418039 48.8258544427540784  9.4445792033636593
 -1.8939633677875300 56.3808970315270486  9.3748709786078646
 -3.3335929411835368 43.7006089176069921  9.6406523035409837
 -0.7605663705874858 41.8043357092680594  9.6738356591744470
 24.7964168506540190 22.7698954643080391  9.5095348946241423
 59.9424373971879945 13.9301769546905394  8.6118320175311442
 22.2413858701158489 24.6721348042378352  9.4067018984221082
 19.6909517946281696 26.5780529791270794  9.3230134406074505
 62.4960187053031575 12.0245135289287965  8.3616659368192110
 17.1428629666509664 28.4868757424919892  9.2795158228441856
 -14.6830211490526903 65.8162536194059129  8.7119725103109751
 14.5956422349567134 30.3971066279009250  9.2864303025103592
 12.0473215602149093 32.3048678309062041  9.3415097210480322
 -12.1300892366817799 63.9279936688444224  8.8788890449839339
  9.4963786093771851 34.2103056607325655  9.4310576115367724
 -9.5744261566109845 62.0413545387461554  9.0318230995558846
  6.9404412636793440 36.1118263709414222  9.5312471042586449
  4.3786322955267414 38.0109745583849943  9.6151777981933328
 -7.0161727706537604 60.1543802552387135  9.1690009494764215
  1.8108384314124371 39.9078877591354697  9.6648804156269694
 -4.4561438818757448 58.2678126530336797  9.2849257001097119
 -31.4378913081785321 64.5973551954806169  7.4632851589800504
 59.5812411515499960 10.7729692540045328  8.4469596236763191
 58.4737313623382136  1.3049695997942417  8.0786808891790649
 55.9331463574043539  3.2029407482029493  8.3638433550416860
 22.5997487998763447 27.8577603062138266  9.3827460660835253
 20.0503841770070501 29.7648193383027220  9.3114875059323996
 44.1839394376596317 22.2019417913022465  9.5683465497619355
 17.5030502420112519 31.6742248389520320  9.2864571550921760
 46.7576405800017980 20.2981503851081726  9.4706669507630821
 14.9559011116289504 33.5834398509059397  9.3127008963051203
 12.4068853049538230 35.4900135507487917  9.3823061640099947
 41.6100613298576434 24.1041929846966703  9.6253139786420370
 49.3300356605160673 18.3935603544627142  9.3342145907857592
 51.8997836707629432 16.4884724694592535  9.1607589206504514
  7.2960931877404116 39.2938307867908421  9.5675294035595986
  4.7315982870679774 41.1909129496079203  9.6339423354754476
 54.4660046263796218 14.5827896132385071  8.9525993069008543
  2.1622438408249414 43.0863450659684233  9.6647833550748601
 57.0269745775170236 12.6776427533769684  8.7129408457093991
 -0.4094416019134008 44.9810352532112603  9.6566449985486642
  9.8542673873556499 37.3939761755235267  9.4761233873721498
 25.1527180295690371 25.9537657490545364  9.4832728740949594
 39.0369739101694293 26.0050278840051874  9.6393503343910112
 27.7113148546026906 24.0538666348358134  9.5873834434137972
 21.1323125602063300 39.3222018548458010  9.1159727889925932
 53.3871374137194579  5.0992650550849401  8.6511519962160204
 50.8340217396441716  6.9947539345122367  8.9195607901808227
 23.6783578931479646 37.4137476254534178  9.1369289017550699
 48.2744031554069082  8.8902691295593357  9.1557568543563619
 26.2262899507159091 35.5067424786642718  9.2080385588144527
 45.7090400376498280 10.7851280437378882  9.3530578757511638
 43.1397372372549768 12.6798037348762040  9.5096405349784430
 28.7778948187388153 33.6031675167382602  9.3152562807868637
 40.5671958862107616 14.5743728010286908  9.6246475019986626
 31.3347342740545010 31.7025474437255284  9.4348264755795537
 37.9930750087534292 16.4697085050748910  9.6976413072143099
 35.4191511570251620 18.3648368126325963  9.7288095343325693
 33.8977660866224042 29.8036518521954363  9.5393846825683450
 32.8466172056433834 20.2607626809557537  9.7190782462926464
 36.4655482528822290 27.9048096093535918  9.6100429246571082
 30.2764867705097167 22.1569675312312313  9.6703813707045612
 18.5864186227133281 41.2302032949342205  9.1468745488366796
 22.2237517020748676 48.8545622005979681  8.6844910015024404
 34.6032615320306434 36.1596850783605035  9.2270941468204040
 59.2164676670665173  7.6161015995123167  8.2943836293971280
  5.1541598012100689 20.2098086375559554  8.8363684265474642
 20.0497721546444048 53.9216640788755797  8.6044358072201632
  4.0632703898989124 10.7131826914152342  8.1057251522720222
  7.7009534770732690 18.3024010156442749  8.7532642508412888
 37.1598231538851778 58.2854345925360775  7.5902855567291319
 17.5037580698508286 55.8169803644297318  8.7278946172975260
  1.5189591180309661 12.6204668969270735  8.2187557905349564
 10.2462019729350153 16.3940122716029535  8.7243715803946724
 33.4967881606652753 50.7238893785854827  8.0941619552289978
 12.7913818271851323 14.4857887100604170  8.7531639241391517
 14.9539854394238780 57.7082037550967328  8.8542003214740941
 -1.0278169545698155 14.5268685176239654  8.3849004300647110
 34.6179376766279105 60.1930209696950769  7.4957551131642681
 15.3380511408072255 12.5807080604026371  8.8295658486431901
 -3.5784227725815310 16.4328921218499922  8.5772073280742465
 12.4012060478472232 59.5963584673904165  8.9730347530218477
 17.8878344465480730 10.6805322472535167  8.9323083118934523
 36.0420345081441624 48.8208396040020460  8.2500999895214147
 32.0763872038685420 62.1015396982051371  7.5060435190460320
 20.4420590631450132  8.7859036372537176  9.0357669678782209
 -6.1344635567056587 18.3398597897608866  8.7689543950794189
  9.8455310092393251 61.4828089797057444  9.0798509152229894
 22.9999628569614920  6.8955769719466860  9.1243877694177105
  7.2878680524369308 63.3686260266871884  9.1730603444191505
 -8.6970383027178588 20.2485374349497143  8.9420534162876724
 25.5602641143942897  5.0088677915300162  9.1935361354478999
 29.5370416870568242 64.0092869636980595  7.6204231363748391
 39.7016547028341336 56.3804111670332233  7.7733510702264610
  6.6063211689904380  8.8048913537929092  8.0662870769005615
  2.6039350932605796 22.1156403963608916  8.9572837938745664
 22.5925774326998834 52.0217799484508205  8.5030366841343223
 23.3365042034138490 58.3443127648608098  8.1812228966191380
 36.1794523935051942  0.6296718084608947  9.3092238926977959
 -3.9405391870954283 13.2749282038410588  8.3413288395145937
 31.7011679295899107 58.9446408867776057  7.6067064009258232
 -17.9367294614647221 37.3825775215047216  9.2435797380207863
 35.3159479883112795 42.5006376609246104  8.7795306287675530
 -6.4930186062521580 15.1809584408941625  8.5655889662877414
 -15.3635211331048982 35.4716615007090681  9.3188689117751711
 25.8750163724805482 56.4418758023555398  8.0516048632544912
 29.1612344935163144 60.8522107967189214  7.6731769612311922
 32.7650235624772961 44.4026650142414709  8.6275495938292259
 -12.7901511827117655 33.5612528623675459  9.3634471426608474
 16.7796864093047695  1.1983080692495691  8.5360210775133574
 38.5913182563039854 46.9188069533851646  8.4431763312623911
 -10.2173772154904441 31.6503228195438062  9.3767624209733853
 14.2340396569291823  3.0934972165912886  8.3619401292729307
 -7.6456652145775568 29.7406427235537194  9.3567739040140037
 26.6236242628882032 62.7568232209176102  7.8280115327875439
 27.6753905783509140 48.2120087243231410  8.4450106073313567
 28.4142404154533885 54.5360836006900556  7.9867756598544171
 -5.0764651662719320 27.8322357601002182  9.3017134587116246
 11.6911386602364029  4.9935641585641726  8.2103512414207618
 24.0862228787477619 64.6583785177137855  8.0476597373709566
 -2.5110172869840066 25.9252457999856105  9.2115260644993864
 25.1336224668535948 50.1178585357114628  8.4447711961025949
  9.1490955807978018  6.8977691940989141  8.1051354209682120
  0.0490903546560084 24.0201163918874627  9.0911605632024735
 30.9544869535487663 52.6292361077204234  8.0008916650030617
 30.2187707132676451 46.3065592347159978  8.5089984210019107
 37.8723583457897917 40.5986911979771818  8.9373939248400855
 28.1213616011568419  3.1227746841232702  9.2432229501206074
  4.7283500674503056 65.2535728881370147  9.2508514578900876
 41.6759465574965660  0.0191523665672976  9.1921896537933172
 48.8425903708490168 39.2929956027239911  9.1376508333481770
  4.4297096931183901 13.8743548918148853  8.3598326782225403
  9.8824078846735475 13.2229254825166542  8.5234488556192698
 33.1290400063926853 47.5655576176091586  8.3613054413717318
 12.4263942616000023 11.3161446595879394  8.5727008398435132
  1.8836091042850989 15.7810829245522601  8.4799232457656366
 30.5847488488229615 49.4697937596174953  8.2520904730089288
 10.2221338570253035 64.6422615692013665  9.0672015872435168
 14.9720936202470174  9.4130336695341992  8.6679653035055857
 -0.6655906894665731 17.6871049157073088  8.6377573024805159
 17.5214020716393115  7.5153558519831112  8.7850289338672454
 28.0431280932113971 51.3757043550511838  8.2090390317947541
 20.0746063988700350  5.6230073826994520  8.9008729423992676
 12.7773474101222266 62.7551283150792329  8.9268620199222628
 -3.2195866703178742 19.5934635479529469  8.8069101695863292
 25.5035771880840016 53.2816300080134866  8.2375466066533356
 22.6309506381760954  3.7344685502763277  9.0062049107283642
 -5.7795310835141569 21.5010353689980569  8.9638238675770197
 25.1890257544900038  1.8482538584939059  9.0966277902972408
 22.9636301016601294 55.1846096935303834  8.3281881758942937
 15.3293652157055327 60.8673380725643582  8.7748605655284262
 27.7475613708784863 -0.0375417241439385  9.1715941301366346
 -8.3448251934344508 23.4109303110291869  9.0960574333704347
 20.4222229173558389 57.0834837611069972  8.4623893803171946
 -13.4860441300554861 27.2330323027882031  9.2737494653529868
 17.8779287006880132 58.9772312182534790  8.6171286384722414
  7.3385748947481693 15.1317267059544491  8.5350284016758060
 35.6769706560759303 45.6630508104905957  8.5179943138704441
  6.9736164336301041 11.9662091144803693  8.3000066034252384
  4.7929859514037281 17.0395482098160862  8.6082015633159337
 30.6827670518276818  1.2381065992600453  9.2744017955081723
 26.9992055557627957 65.9135772947959708  7.8210701274427068
 22.2578543085049070  0.5760303522684858  8.9196964794473779
 51.0661647571432056 34.2200653944365882  9.2925239412951139
 -15.7114534337305898 32.3079609746373109  9.3238788992929713
 41.1458686963629745 45.0165440847426765  8.6464936471608986
 19.7034438853181655  2.4635930152460688  8.7863444922322405
 -13.1375755643312733 30.3965316413454829  9.3256109979318964
 48.4928131520518804 36.1311756849624146  9.2315858141812477
 37.5367997839058276 61.4410844065381951  7.4853567557510194
 -10.5651026448577294 28.4850193388013864  9.2967723673331708
 17.1519565634213649  4.3551982152096533  8.6443626939052045
 45.9215282007192585 38.0421057013312449  9.1402688805496162
 58.0867289933394559 22.1595999136134054  9.0893726190075697
 -7.9946658060503824 26.5745758224479367  9.2360695999871947
 -5.4272347137242161 24.6649500785007589  9.1437105409509041
 14.6042194527690956  6.2509577773038325  8.5040505254101451
 43.7066548465317553 43.1111398930688807  8.8365457662164690
 43.3530300855301292 39.9509169605347267  9.0188832535171599
 -2.8641237205944616 22.7572461986821359  9.0211315187621057
 12.0596678552195034  8.1523638290875695  8.3847086321596507
 40.7886950499523877 41.8576707580216123  8.8690305038782284
 32.4526837012489722 65.2581912823020929  7.4889640223555398
 -0.3066895495538097 20.8513471044546641  8.8762449967567534
  9.5164565178183462 10.0579256627629832  8.3103752809197733
  2.2452157008490023 18.9459125676134192  8.7296187094565525
 38.2301008489362246 43.7609678246540597  8.6962522320395692
 46.2727937351845142 41.2029394244670044  9.0014055417647363
 34.9943932183551638 63.3496634058770667  7.4321819766762296
 -1.3931988345726074 11.3696861071444264  8.1311514678918169
 -10.9140242881642138 25.3216710237961742  9.1998195765855293
 -2.1593359398354268 29.0968816711822811  9.3724700451823200
 14.5815513442559812 54.5464757868934740  8.9656527766797147
  5.5129184182943938 23.3851833803472431  9.0382676596649034
 -15.0158991593225668 38.6355717954430276  9.3004500667581578
 18.2516007237714142 13.8512226754815178  9.0664327043149129
 41.5073425277062213 48.1719510355342564  8.4214253678860818
 18.2534498630562112 62.1355230275000423  8.5479817978309320
  8.7790106210737537  3.7411283561468185  7.9302736758527184
 -7.2972742249036076 32.9095043969643228  9.4546765213293575
 48.1444566247354473 32.9676377301036680  9.3132057187134354
 -1.7626070755122523  8.2139434412614829  7.8945544147480451
  9.4698946638155128 58.3226779719918937  9.1404942758387460
  1.7922378484805535 63.9781426148588039  9.2782437418698702
 20.8064640200733280 11.9536760601883731  9.1656171740818326
 -4.3073380438383921 10.1192927883819372  8.1128403374499456
 39.3275702170530437 53.2268729360917234  7.9648469830414426
 33.6177216248017885  2.5145629639658429  9.3447361188481057
 31.3268299118929292 55.7874245468942647  7.7783380678278977
  0.4079862759531827  3.1529054290933325  7.5606508763334288
 41.8739421363039028 51.3256099400294801  8.2065680488114943
 21.1720237679665289 63.3992227451288812  8.2987960704049257
 -9.8698867673492625 34.8176947008029103  9.4384366249676681
 10.6082908271966829 19.5702015207645061  8.9017948624503536
 18.6295396138816898 65.2928682974438317  8.5338712552373615
 12.0269437640565968 56.4358405108577230  9.0601311765853048
 -0.7686138941994004 65.8628388945154057  9.2866761380324991
  8.0616303888653995 21.4784062215622527  8.9466369772970413
 13.8607054189975027 -0.0619936496976869  8.2641742288091908
 50.7180256112751948 31.0560709720467933  9.3300868485893105
  8.4058064673321820  0.5856855684683953  7.8084474063780442
 13.1543723033762188 17.6612709152752529  8.9125058481722625
 28.7867621394945630 57.6947766452239676  7.8011048777280561
 -12.4431235312607793 36.7264732064224120  9.3863954554260953
 -2.1348917906372513  5.0595883486264110  7.6953644032570763
 15.7015210504400464 15.7541713213193599  8.9734901674641900
 11.3193362919625802  1.8374306177348847  8.0738688492630697
 44.0639145593925079 46.2687202729714997  8.6480951511320860
 53.2919924022225970 29.1446927715648236  9.3169231049769206
  5.8657039439343697  2.4914871502835525  7.6915717525397138
 -17.5877064540548922 40.5447524108277122  9.1825274467869065
  6.2375787297814407  5.6473032291187817  7.8556986882310440
 28.4909777247005103  6.2851816724109950  9.3472097149314877
 36.7842920973453857 55.1303486356135366  7.7658181692914292
  2.9504591931390403  1.2443993560667936  7.5255774536208637
 19.6796290850327367 50.7565113280445743  8.7621183396523055
 33.8683653775898463 53.8804457395745970  7.8461677066931887
  0.4034096937795775 27.1930123668449575  9.2762785176676275
  1.1511264035403173  9.4628529019136511  7.9640936050066617
  0.7809422699438595  6.3075349979773812  7.7369641632879222
 23.7110136247827832 61.5016672455179005  8.0821316248701720
 46.6261268428890503 44.3621868003218935  8.8546666408239751
 40.4346895982089620 38.6945663441416414  9.0770566879322381
  6.9115796395092479 60.2084387125548872  9.2037669188658615
 38.9568910041044347 50.0736413554787703  8.1941844535326691
  0.0320772238591566 -0.0030783172229526  7.4552816833338245
  3.3240537224363482  4.3998470732242998  7.6654842015583853
 34.2423721060095971 57.0367867251594163  7.6393648995204284
 31.0545630788237474  4.3996234138634032  9.3574397285827509
 43.0017758194050685 36.7874102911397927  9.1872116224003531
 15.7061680877273755 64.0257754046043601  8.7444986231364279
  3.6948706056454279  7.5550973091853333  7.8668598162234034
  2.9606404950756069 25.2895590148817995  9.1568296029284753
 17.1326823632874508 52.6538167273181728  8.8623935079199203
 25.9273607566603772  8.1720199996124823  9.3117645644001872
 26.2487064544056459 59.6001262251791601  7.9083294902486037
 45.5719794430822631 34.8784667712894105  9.2658249948381961
 13.1538391997610322 65.9141116369888493  8.9323117320732521
 23.3654815501258248 10.0609302811622143  9.2503457844509160
 -4.7267528391496851 31.0025658587016402  9.4330043643199080
  4.3519217227229934 62.0935183022219732  9.2498642676030798
 -20.1579548384404710 42.4534512294935666  9.0335307510484366
 20.7968613928479478 60.2420602972229702  8.3541021452729378
 32.8250254028781114 28.2645476359346581  8.0183314867560096
 32.7935550337046209 28.3651510259406550 11.1359043938951086
 40.0774957399503506 43.4302986927214718  7.1774504646805539
 42.9266651668572123 44.8968434368559457 10.2677520578109984
 42.7983386788632174 17.5286790174088551 11.1574717004591264
 40.4525950553471532 46.5844635025780676  6.9429305758265256
 27.7119700027576776 32.0518171217077992  7.8011159522288525
 40.2063733272277517 19.4388243083848984 11.2360665590508724
 40.1432748734895739 19.4448931125402993  8.1182893702274299
 42.6386898459719887 41.5438208687893322  7.3476805115371073
 35.3787094230152803 26.3782186306446498  8.0871576277508854
 30.2234062262504075 30.2725194513938405 11.0348796260558295
 37.5868330336203087 21.3314423380887099  8.1532434876389228
 42.5912128172725559 41.7321531109595725 10.4659556957776321
 37.6146108236205450 21.3480646436443813 11.2711072557864789
 35.3750923631073206 26.4553976010299330 11.2047109715015285
 30.2708423956807131 30.1540191723243645  7.9166997157116734
  4.3205031098422575 46.0348962475003987  8.0413301078312056
 45.1587666777350165 39.8024759375038926 10.6120489283001120
 37.8882006956304025 48.4770552864172330  6.7345102551123350
 50.5560728045757770 11.7948646074266641 10.6673272602969824
 12.3272012486240499 43.5281905433534675  7.8171534465210630
 37.8377124437923555 48.7300753802971087  9.8522228003503205
 11.7513690027541369 61.2943227373369837 10.5523036757806672
 12.4653662732101456 43.5728697547869430 10.9362609475196386
 11.5967461788215882 61.2674190793205469  7.4311733857551863
 50.3602622819112042 11.8954416535902912  7.5524787602691124
  9.7763786099141328 45.4209935075234981  7.8962904407362293
  9.8963830647470505 45.4741216932258965 11.0149269073385589
 14.3228491871678898 59.4213669849255197 10.4255891553334692
  7.2254739509624368 47.3087928478254298  7.9495751455493666
 53.1308563160287264  9.8825650722380711 10.4269380035079333
  7.3174348214054845 47.3747698809771904 11.0684589947631284
 14.1330299063413332 59.3660873578655739  7.3064001687996845
 52.9085744871622907 10.0071127323800066  7.3133625015211132
  4.6742665553919736 49.1950466725106352  7.9706880617481417
 15.0184891082244185 41.6720614502018236 10.8481455987956696
 27.6701413462975658 32.1767028953998917 10.9205572402171871
 14.8812718588003339 41.6254604858781860  7.7287069330567428
 47.8086140395051089 13.7836806101113893  7.7551022482134142
 25.1475912538202593 33.9591626322991118  7.6990986359432734
 25.1332201045867407 34.0769701003451431 10.8200709696118800
 42.6993164262872256 17.5578205419516102  8.0399405059375262
 40.3747750994094403 46.8182523688545587 10.0606685902061646
 45.2029183043314191 39.6571460927481567  7.4920276382435169
 22.5786432721256780 35.8750509196385607  7.6343321478386637
 45.3885606035494433 15.6180095420876182 11.0354136962100142
 22.6066642163335665 35.9760213935578861 10.7558863372709226
 37.9625655462177392 24.5446817343977521 11.2333309459843651
 47.7303500718075142 37.8696590266659356 10.7291299694765598
 47.7705492516902979 37.7691169384008134  7.6076673451290953
 20.0087973368392866 37.7947051021558735  7.6195947006293530
 20.0837853645832141 37.8743904648688812 10.7409022422830684
 47.9747494754706949 13.7070216134651695 10.8712687967402033
 17.4420836162352053 39.7137683766509468  7.6552156210502273
  9.1764566155700766 63.1665501228409454 10.6661407593822375
 17.5564812741217935 39.7733409088529442 10.7756639330029884
  9.0595708240851778 63.1681578254156832  7.5440933486276736
 45.2546334928427001 15.6708519657716163  7.9183345242484764
 12.1302268776845725 64.4274905718886970 10.5340615700128435
 35.0307899569938570 23.2167529329046900  8.1456652340045093
 -8.4245545345847930 55.4705889593950019  7.6684056323230889
 -8.5615897900773117 55.5633522575918377 10.7864646976874585
 14.6442695411351593 38.4742593227412826 10.8880739615701234
 -10.9642696307756502 57.3637448465754076  7.4919844437281942
 27.4121384617114323 53.1645489690050823  9.6999183064844576
 -11.1424057965487560 57.4503828659140225 10.6090310861111305
 14.5355998866082388 38.4564256940605205  7.7673277694296639
 17.2675490853999989 60.6832582665642875 10.2039686689701572
 17.0402472213646270 60.6422652301248846  7.0864003991715174
  4.7339497819136689 49.2729633831819811 11.0904162493018799
 17.1779640138045089 36.5757742685992469 10.8266631525246027
 27.2322666041566599 52.9676942707349738  6.5825172232721485
 17.0996018911653849 36.5409596774982504  7.7048840137683969
 -16.0345973140982743 61.1617631467420111  7.0651396793135213
 -16.2882080949127790 61.2151774192359355 10.1810709351864208
 29.9214678356901302 51.2753517243083152  9.7095177739910312
 19.7032833829049885 34.6769312292700036 10.8088152613758393
 -18.5686826772239648 63.0688907158660967  6.8305316527933426
 -13.7183184963007143 59.3342614938102884 10.4050994409971533
 -18.8468661394285917 63.0951451954094225  9.9461900015109901
 -5.9770246312479252 53.6733615411507259 10.9329415256856564
 24.6694569776241863 54.8934784095192896  6.6447380747840308
  6.9577781102196710 44.1814658578322366 11.1267475190754705
  4.3739778783084482 46.0837335150970020 11.1606462234232495
  6.8734993857601872 44.1492560147353146  8.0077664452218436
 22.3670185567736617 56.9309065720352052  9.8799297737879392
  1.7673638498130233 47.9200473217536569  8.0391822714817156
  1.7872535400724594 47.9849158299788314 11.1588897421625948
 19.5756347337132688 58.7322098715263081  6.9180091202938394
 22.1172232900928059 56.8157910934021260  6.7638533096667608
 11.9783824908327485 40.3637227878975153  7.8548743546547231
 -0.7852403483410403 49.8054597126956367  8.0007397721335760
 -0.8011107954371225 49.8834742543446694 11.1203302206370616
 19.8241885081401499 58.8091252670393274 10.0347348208880796
  9.4254805996435067 42.2602144967805984  7.9419877442172924
 -3.3346240691983562 51.6922389736568917  7.9255759015297729
 -3.3895475811634550 51.7801669228950345 11.0449069711967329
 24.8955049190922431 55.0494429667822445  9.7613047994340789
 -5.8811953043493110 53.5802030198889341  7.8140139253427590
 12.0974473483090001 40.3753391971464239 10.9747865786913916
  9.5341260147696101 42.2781007676198328 11.0614794993110799
 29.8029293325198061 51.0429112991786482  6.5919747245239710
 19.6679043592244476 34.6197252658454673  7.6864474711942883
 63.4894441674849190  5.5838867165260400  6.3233609875569288
 11.9714393961193117 64.4512408539587938  7.4138116521910238
 29.8634441428539645 27.0719551757693360 11.1314070177007824
 48.1630984391887935 16.9424686094187926  7.8019492905812990
 48.3178081278076235 16.8857611380720982 10.9188081150013527
 29.9221575041988288 26.9896991598414679  8.0124218665782507
 37.4832429336815594 45.5738311745756874 10.1090338274923006
 45.6051336144843802 18.8303363209156309  7.9426106810264709
 45.7320390126469860 18.8033524819881244 11.0606224614615698
 50.8989509746662137 14.9669745763748203 10.7381258355050999
 32.4395769491920163 25.1647414806266845 11.2152920398818594
 43.0472812243201588 20.7182429465971190  8.0426894122224493
 37.5150587312861035 45.3195722005240782  6.9926541468529013
 43.1431675082576547 20.7190839023808984 11.1610935097419350
 40.4898001202562270 22.6057579109984808  8.1005734823137985
 35.0246734653002605 23.2563402616014692 11.2634141965370489
 40.5528120689090912 22.6326924963221714 11.2189610055685378
 43.0144482790002698 44.6971828231620449  7.1497653613327472
 40.0308377613598552 43.6574570392400716 10.2946699843770677
 32.4762136021037762 25.1026188362119989  8.0970660350617152
 50.7206591659686623 15.0544329770058827  7.6226241208690766
 27.3660654484007964 28.8834549622003713  7.9048513151984219
 34.9484788755249056 47.2175554265895983  6.8158610805197215
 63.6684362141275599  5.4057844341863310  9.4426008339952840
 14.5065083484589756 62.5489074786356127  7.2542562326146607
 22.2280999356581823 32.7793644076411965 10.8415520291838163
 22.2376046263019269 32.7005165023739508  7.7194555857796558
 60.9297759248688138  7.4900598630203117  6.5956461051913990
 61.1424350611528595  7.3049494337523750  9.7116910981272415
 32.4318341163576207 49.3814728828187199  9.7917810829330687
 14.7019555200128380 62.5558656812176821 10.3734702506340586
 58.3775618882742648  9.3870269163703171  6.8829320739704141
 24.7590157525331627 30.8797146467409860 10.9190375757545102
 58.6005854181618133  9.2134709738018028  9.9973749941558268
 32.3770138141475243 49.1253710718920189  6.6742921531320549
 24.8041214098707954 30.7868165887755296  7.7983470876366789
 55.8279023330198854 11.2777543358012871  7.1583610537369875
 56.0432116527259723 11.1288896186772543 10.2725055123345648
 53.2759406126714410 13.1664713971335097  7.4068095753867826
 27.3031404006246525 28.9777875186223746 11.0241747243303578
 53.4746120702366667 13.0476924519289508 10.5216967180439411
 34.9510601370341831 47.4814893088285146  9.9325880897627172
 37.9335102033094742 24.4926008876623840  8.1152961911185795
 -13.4999168569847061 59.2601367979580544  7.2886250142217808
 21.2239251056427598 47.4479278229635781 10.3741798706258628
  2.1237981544221030 51.0815247013435538  7.9588943975384732
 28.4025785379487807 38.3873916167450844  7.5029001347959579
 28.4138615238859309 38.5680987912327282 10.6202606391983778
 36.7873063471305670 39.0128094617657837  7.4784443733093671
 25.8338146530381607 40.3000483070114370  7.4183049549368727
 25.8874447557571727 40.4675672041272350 10.5369220197726801
 39.3453365154505761 37.3084827014444897 10.7227225655344487
 39.3448008258754029 37.1246209519404005  7.6056216285378229
 23.2636962610018045 42.2180883043916779  7.3834384759306415
 23.3672006387341646 42.3650924355576208 10.5025802414232245
 20.6961715245625015 44.1369677066094042  7.4033955521108483
 41.9185895071802008 35.3839825150267302 10.8202779796349677
 20.8441478136340841 44.2619119594070156 10.5216541079012664
 36.7790672890034003 39.2276960113001678 10.5950334965465611
 41.9041779959393992 35.2364469954825452  7.7018532513029303
 18.3111495961487982 46.1587382392845953 10.5850907351067871
 15.5824824461988563 47.9553299482175532  7.5540075693015023
 44.4949428971745959 33.4558417216840596 10.8846789981267946
 15.7629691764425957 48.0558947301700172 10.6714076580889525
 44.4679316788370542 33.3477758604422689  7.7650790476280704
 13.0346195868639114 49.8520520526038666  7.6392647186946405
 13.1995604528643984 49.9511766502719681 10.7564018381240452
 47.0721572267036521 31.5250937489572678 10.9161227475164875
 10.4887992560097558 51.7445073082631453  7.7078121236947279
 10.6266926647318769 51.8426480898774500 10.8257934385435313
 47.0346736245704662 31.4588557302671532  7.7951685227367236
  7.9437343791353516 53.6356320265222308  7.7545100656007593
 18.1356667783132437 46.0505739715715521  7.4674197085402580
  8.0490725230824101 53.7289740948074979 10.8740325561922013
 30.9524610916505338 36.6665759505399080 10.7366577887107830
 55.6955228195830045  7.9719328472253741 10.1551227940433044
 24.1310097489341828 48.7324737631881462 10.1497454747994809
 23.9564947348455988 48.5511510690648507  7.0333388668066918
 51.4435281520978407 21.3698418353635340  7.7191851432336573
 51.5681477254459963 21.3141463818797945 10.8385683943463587
 26.6492773873129423 46.8397026354151222 10.1459851639409155
 48.8775613092477457 23.2580897700629627  7.8343151142425143
 48.9887399939901513 23.2420954077350750 10.9537435051105074
 26.5238578294427967 46.6313169596198165  7.0288340237413012
 46.3127094296628741 25.1471100473592486  7.9147432780628586
 46.4073528599641136 25.1687554270883922 11.0343819248942143
 29.1661312471610614 44.9441371771890275 10.2012676713715411
 43.7496660317229171 27.0351370574612417  7.9587411550552707
 30.9668100189183839 36.4839069539627445  7.6201669165102972
 43.8239365866207251 27.0930746817089734 11.0782588473634895
 41.1895941833176167 28.9228805430416536  7.9635231146627641
 41.2395856313140428 29.0155072019901183 11.0824433969233915
 31.6897326849218857 43.0442510897702917 10.3085478098726675
 38.6332269872962542 30.8101911184334760  7.9277072745927049
 38.6563385300291031 30.9344504800873352 11.0458490742234279
 31.6634830500617177 42.8043386592309218  7.1928140674335177
 36.0790532793531540 32.6983611298128594  7.8528100066031712
 36.0769718114548397 32.8496778817950243 10.9700385478234796
 34.2267049828315564 41.1394578992630287 10.4487216653399333
 34.2281327454078053 40.9044095363046409  7.3328968654595412
 33.5246435580055362 34.5878926296857898  7.7451649405844520
 33.5068069666972832 34.7598914554881659 10.8618347261962356
 29.0944018435370637 44.7140773742491788  7.0846064050844699
 54.1440682878176887 19.3849007089353478 10.6898829226903143
 49.6492703813907070 29.5925871441287640 10.9152106123150840
 49.6039851583954103 29.5698031050585257  7.7931871861209725
 41.5798048809419001 32.2023829266542378 10.9649229176359349
  8.4223655560093480 56.8848860642956424 10.7756137048242664
  8.3117990019170875 56.8076126202897171  7.6552744265305330
 38.9867614657357606 33.9683978073158386  7.7815614799234956
 39.0010176279069896 34.1239103160980619 10.8993967473061204
 36.4313822313356184 35.8571928899863650  7.6819746926139327
 10.9985911269280106 55.0049395372365240 10.7133263032408212
 36.4275740960116678 36.0411199550070833 10.7988862230043221
 10.8537669406865973 54.9134910641231073  7.5945991757052633
 33.8753354420336521 37.7475833664164142  7.5555545086326390
 33.8659742020356518 37.9525670249346376 10.6718383540545716
 31.3141198458395991 39.6453998394131446  7.4218272535524719
 41.5448044469129414 32.0801340651978464  7.8461926402417452
 13.5703686657826239 53.1216285793187453 10.6346402063620236
 13.3959981525611962 53.0179200887753979  7.5171658596718540
 28.7475727950609574 41.5519200696491708  7.3076738096322522
 28.7889688249762656 41.7596218161453052 10.4245795252766023
 16.1351842943414141 51.2337223831357207 10.5436698165503664
 26.1778778239500340 43.4666636133666771  7.2357089712070497
 26.2677619182625683 43.6574269689341392 10.3533288079565189
 15.9398684828936830 51.1196132993941106  7.4267545148772021
 23.6083005714574092 45.3854290664875961  7.2193907803143036
 23.7487002217584546 45.5529270494169864 10.3369638108937743
 18.6872075891069969 49.3419972922406700 10.4505068173938618
 21.0440833684106927 47.3035594134205297  7.2569464996537336
 18.4878305076193890 49.2153553561089012  7.3333514017789510
 31.3201709888569262 39.8588340057099018 10.5381200270163440
  5.3999362616986684 55.5274527594677423  7.7787896824262868
  5.7710127420123971 58.7019962569473748  7.6963147124718869
 44.1063453986023148 30.1911423017531675  7.8741228895413506
  5.4692376673447214 55.6118035010639886 10.8996360114756285
  2.8573146208294573 57.4197304459333253  7.7794463335485045
  2.8875077704370891 57.4920236017708532 10.9013799443030184
 52.2253824901047921 27.6590867114027290 10.8826330276576950
  0.3168988689116666 59.3126089253413866  7.7557797830284612
 52.1747988320770446 27.6811275208192242  7.7604019133733706
  0.3054542671849564 59.3701912856400114 10.8786100676896442
 -2.2225921494006675 61.2076336014582765  7.7086587094754062
 -2.2770012289994148 61.2459915223880174 10.8319488030306665
 -1.8996830342075413 64.3826577524964705 10.8234736867564383
 -1.8468921403520333 64.3907071955033672  7.7005722269615369
 -4.7621044017801566 63.1045412390212377  7.6408871981146209
 44.1603466288917943 30.2762308238168707 10.9935978678261677
 -4.8574459788496229 63.1192243891345299 10.7636611759936862
 54.3768384641355027 22.6376034834877089  7.6394712769805642
 54.4727004777386696 22.5544246724790689 10.7598038000449296
  0.6923671187881388 62.4938133215692915  7.7188373383630760
 51.8078577599940004 24.5261466809343531  7.7465838913149394
 51.8972034346009750 24.4866822007766345 10.8675682536126530
  3.2633321733044118 60.6373761442260530 10.8408003938597037
 49.2392363103800008 26.4144979479724142  7.8222016737278111
 49.3199199785116278 26.4179621278686838 10.9433652256874048
  3.2311178630538500 60.5968279825604981  7.7175619583254651
 46.6716437574486562 28.3029862530784548  7.8653595819364366
 46.7410737878281282 28.3480928254808688 10.9859642821179797
  5.8437490650119548 58.7627944709614880 10.8183877049802248
  0.6819140267582868 62.5105636424070639 10.8426469804204917
 54.0091607521518213 19.4814069142575939  7.5710005740420518
 56.7153295670145354 17.4551026450727740 10.5098442131738761
 21.3968855635794100 50.4695458859540551  7.0907444543659839
 56.2007911363407828 14.4365803525856293  7.2767319147301883
 56.3817383485123997 14.2905282342999858 10.3925427880454393
 32.0609128065933007 46.2195569241965671 10.0555022249625630
 32.0172750784839408 45.9632739325115409  6.9391592721553144
 53.6417879870773220 16.3242017544454328  7.4936772928121451
 51.0810783550622745 18.2126486705905144  7.6783284956238642
 34.5882957704912926 44.3167283327464716 10.1980941784132124
 51.2357947097325450 18.1410207342297802 10.7954895943600970
 34.5851713464890125 44.0600851816236769  7.0825886458159468
 48.5191848721891716 20.1007302596584232  7.8279584285403851
 48.6549222363469980 20.0647645524470128 10.9460759408654429
 45.9573502636345950 21.9894723027654955  7.9409434752430217
 29.4458256807979382 47.8763857054195796  6.8410895527232247
 37.1308120678553166 42.4062001689945731 10.3617587811049390
 37.1480429653755735 42.1660425066037305  7.2456369642772431
 43.3966628757915558 23.8778794018163154  8.0153918112129041
 43.4847244096996306 23.9074422628497274 11.1343493414895889
 39.6884128154368625 40.4871386337102948 10.5190084844848730
 40.8384142969577368 25.7653288201453172  8.0490326557030993
 40.8971432711268292 25.8251458461260626 11.1678429445201441
 39.7078754713581645 40.2779152736752835  7.4020556482798732
 38.2817850125744883 27.6517830675490934  8.0401776300307475
 38.3097991177440633 27.7405051472591708 11.1582611703313948
 42.2558223907655801 38.5608590741997901 10.6525821098713802
 35.7279618406785247 29.5387816188545891  7.9892393748571937
 42.2688106859005686 38.3907751651674403  7.5342466730880950
 46.0709639846884897 21.9872887679230828 11.0593949310307629
 35.7260911590593651 29.6543055519362504 11.1064385749273544
 58.9439565622505057 12.3670326665416788 10.1465221963816035
 29.5439329737277205 48.1169013695070262  9.9582440084707162
 16.6694879812742833 57.4625250506828280  7.1735700935542992
  2.1483384966808257 51.1678307539218835 11.0793183288548072
 -0.4243364956554579 52.9688707199413855  7.9146669145393309
 -0.4376655304782828 53.0589896771046980 11.0357205955347730
 19.4441350738564402 55.6665293584528271 10.1547894744496929
 -2.9695585036148566 54.8581373742151115  7.8386939809573120
 19.2089512846693822 55.5544464727372755  7.0392223569350749
 -3.0232062978491623 54.9477081084349663 10.9595569807386610
 -5.5125588629398257 56.7483894448674562  7.7320471516982989
 -5.6073291137581425 56.8333971098294128 10.8521198027178478
 21.9858420469785401 53.7842774489483162 10.0344112622660440
 21.7549355454842299 53.6397206447599473  6.9191600526261832
 58.7567846297452689 12.5485605249828236  7.0310148413204629
 -8.0525994174442381 58.6413997594376752  7.5967625251664295
 24.5135789811292391 51.8989074867992528  9.9509255035729680
 -10.5902430419762279 60.5377963491599758  7.4373010077851429
 -10.7674988954175141 60.5956149217225288 10.5554982382649811
 24.3104815028914096 51.7196778296253612  6.8350401426973901
 -13.1255728799704716 62.4380880828550602  7.2584989047666335
 -13.3425388489518966 62.4716427329779549 10.3758790787901560
 27.0307790128333707 50.0095790205849724  9.9222799257039842
 -15.6587644022499699 64.3419489396518998  7.0656342386214002
 -15.9112542855632721 64.3461334457150684 10.1819347068238688
 26.8746572377525972 49.7964155695728294  6.8054501678352608
 61.3124771512797437 10.6564276122329957  6.7659169078486583
 61.4937017201968601 10.4490611970438074  9.8814442703489860
 -8.1887930879041502 58.7165384528760086 10.7160278418325206
 33.1746490326123009 31.4263497598123678  7.9001886492538018
 33.1490606554973155 31.5643042702999281 11.0172163979351829
 44.8277622610414355 36.6311886763083052 10.7565593108323760
  5.0339210732111308 52.3580899256840695  7.8767085784329618
 11.3741469892330986 58.1548053696015685 10.6168708058411454
  5.0986132437999210 52.4497075672381854 10.9968585611600904
 11.2233600268319531 58.0877310606527146  7.4969096539779301
  2.4880031740552702 54.2473896180907218  7.8653119315295630
  2.5153486156625919 54.3362417651990057 10.9865230601476078
 -0.0562114729400670 56.1378195328578116  7.8266432748432200
 13.9456036202281801 56.2771626659107014 10.5181206139921883
 -0.0684818008923121 56.2199720616356799 10.9483393784897789
 13.7626284648131438 56.1892037029289995  7.4000411740781553
 -2.5980556108171919 58.0299843223817504  7.7603580621679633
 -2.6516698463463526 58.1020540779226380 10.8823579349941983
  7.6809460150193463 50.5592647760008376 10.9790538683258703
 16.5105209526153516 54.3958565111127825 10.4096052946750266
 -5.2334551337812902 59.9813170939472755 10.7896567179678087
 16.3028491587491224 54.2879873376029778  7.2927775018966816
 -7.6772920034518677 61.8194572430761298  7.5533125112461796
 -7.8131790273499604 61.8572926517825579 10.6743772481033883
 19.0646962523411609 52.5115435127063535 10.3001311639655029
 -10.2148389445653844 63.7190875427001231  7.4218536080217250
 18.8462275424965888 52.3818808717598188  7.1841401879143350
 -10.3900293591543278 63.7307905938019275 10.5417132667184905
 59.1347473523808773 15.7053281857446514  7.1844589951578364
 59.2808307309689297 15.5260925477033229 10.3011582891083506
 21.6044282260233125 50.6235785024042571 10.2065044614619698
 56.5731391735326739 17.5931306626260415  7.3920425473036087
 -5.1381310729051508 59.9232861360835471  7.6677701230556359
  7.5814614200599406 50.4696130569337242  7.8599492727566327
  8.6843245852162454 59.9849165649077065  7.5793285618556885
  8.7985104118199917 60.0302967652862804 10.7009068378296739
 30.6190056527481147 33.3193843418888704  7.7851444225772850
 44.8334756404879968 36.5036243077557927  7.6366016362525038
 30.5863908899405601 33.4709578623616864 10.9024209103781899
 28.0575805808392253 35.2203773274153491  7.6672001960920184
 28.0406947605758567 35.3731013196634052 10.7856049433927694
 47.4017179594724638 34.6983913848075787 10.8294940876265322
 47.4012871030622946 34.6145330050388509  7.7082077410351904
 25.4906400628174481 37.1306836014440478  7.5730230646698242
 25.5094067490564598 37.2731688168254678 10.6927219409278038
 49.9773372973784902 32.7652119383299691 10.8716489266293515
 22.9204991452826334 39.0477671709616985  7.5224686626358954
 22.9863361518388700 39.1720143309051210 10.6430156309848254
 49.9720604829265014 32.7252695015482260  7.7493304641387875
 20.3517227906504203 40.9673056997173290  7.5249328708821741
 20.4642852145762184 41.0701664578772423 10.6449127622649229
  3.6405510271004196 63.7750095520467468 10.8201575204665073
 17.7869330242428738 42.8834437704457372  7.5757712869774920
 17.9343926153996200 42.9680253734995290 10.6942899687063004
  3.6061093001528075 63.7804230062794204  7.6963321161893319
 15.2299910450388634 44.7917608631751776  7.6571440169406966
 15.3914157450002698 44.8668627263644737 10.7750401892610785
  6.2203973253467808 61.9034697136662828 10.7688581923711357
 12.6787643388835711 46.6901930104134166  7.7439408749202618
 12.8319285137481511 46.7661982195009145 10.8618902248355553
  6.1453859594262497 61.8827113950766972  7.6460302076816031
 10.1297984781792110 48.5810719581459409  7.8150727731637932
 10.2597933323016033 48.6644159477655336 10.9331013264570682
 16.8881535828785481 57.5455468307480729 10.2905477646831152
 53.8115923973191883 16.2157732856122045 10.6100013721234969
 25.2756217623621460 58.1869007687114603  9.6028935936029871
 58.2472982911187813  6.0675797178207844  9.8631347812701176
 -13.5660078903662331 35.2433163918782029 10.9160629619450642
 -13.5012283859725279 35.2562873423026133  7.7941330632074637
 -10.9875544932754092 33.3135331771547030 10.9525494159461196
 -10.9323920833384012 33.3657585084656816  7.8314381384817287
 -8.4081883778284592 31.3853543846152938 10.9556869276835407
 -8.3663004174511730 31.4751425793559427  7.8353630200502726
 -5.8284860591533283 29.4595414898974752 10.9234286905650251
 -5.8036687719400719 29.5845501643305973  7.8039027721730889
 -3.2508118451565200 27.5366005205741544 10.8547195188413337
 -3.2451461258912166 27.6935205690900936  7.7360499694535330
 -0.6786021174837161 25.6189606076353442 10.7522978540122072
 -0.6895924139065203 25.8015487038336779  7.6341171868547466
  1.8814824592872903 23.7075390811320084 10.6268495291976368
  1.8666010446463639 23.9050265059028391  7.5090774270866056
  4.4258945302904955 21.8022939516256642 10.5017727956427311
 -16.0710520153526417 37.1455895299990289  7.7254300850657964
  4.4282724279844414 22.0008937307238810  7.3837226616528318
 -16.1428870712589578 37.1742166341374087 10.8473780013574608
 -18.7181240570349772 39.1061616659767068 10.7470463389228481
 27.8149786582818912  8.0200169813627582  7.8139483175424074
 30.2832070360977070  6.0372677187630899 10.9488179719813346
 30.3623721482832849  6.1322059969736245  7.8290918366170121
 32.8653008996409781  4.1569512939539770 10.9392123409395303
 32.9083107539228195  4.2414626095728671  7.8181132954218429
 35.4479390936886531  2.2795404725438764 10.9048408558022913
 35.4515535314645760  2.3487948112482155  7.7826501456269028
 38.0303973500883998  0.4031912313476924 10.8461310897034942
 37.9926122227502461  0.4539990490428890  7.7236221689809543
  6.5985492054244057 65.0390105784030368 10.7653640635456647
  6.5203113951367628 65.0669677854886430  7.6425231840883576
 45.4897067438161855 42.9688575381792646 10.4550734975057917
 45.5768442233994406 42.8104571647345367  7.3367004549800097
 48.0594053837913222 41.0377102183606013 10.6159314839767021
 48.1423153978365690 40.9224139681003081  7.4960451971529611
 -18.6403767001226370 39.0346133597272242  7.6259861675123171
 27.7020128041462890  7.9215125309853613 10.9319434002882883
  6.9559934970543367 19.9012114116040557 10.4033936950010393
  9.4766730341502612 18.0034401617739626 10.3510758960984841
  1.0596117000686456 65.6479258063082227 10.8519718865297143
  1.0670294914798086 65.6776939323623310  7.7285961680675506
 50.3044731657236497 35.9360901478306616 10.8154379945030445
 50.3405622118902443 35.8806635271835148  7.6934856812231036
 -16.4707512422131757 34.0024592661206526 10.8716194933425232
 -16.4389122669546808 33.9908282632074901  7.7490314590438834
 -13.8947431930071197 32.0696363888962352 10.8975402018553549
 -13.8675233134966476 32.1011345459141992  7.7750359791603509
 -11.3181243340468498 30.1365967617977972 10.8927368433105709
 -11.2973311568333141 30.2106124864013879  7.7709569674021255
 -8.7416938059402121 28.2055720685545062 10.8559770475390689
 -8.7296405449157533 28.3209149515999172  7.7351502106828214
 -6.1665234536247491 26.2769540781299078 10.7862125022298834
 -6.1652475430404321 26.4306074394595960  7.6668440986045630
 -3.5943220670758902 24.3521592201610204 10.6843442993955478
 32.5388278880669830  1.0636114481928713  7.7393869496126850
  6.9957500958575931 20.0887272224523592  7.2841398927389482
 32.4901494274541491  1.0116569228290588 10.8622680190276650
 29.9096943224534755  2.8866223843621199 10.8510579225448875
  9.5667852342591981 18.1711392762950830  7.2317028252220412
 11.9953843819718315 16.1062687936917435 10.3542325189165645
 12.1377523845577571 16.2512069219294979  7.2360598822650211
 14.5201140547023630 14.2096704486867136 10.4092783993897928
 14.7042141704673384 14.3348928875606791  7.2926931085422400
 17.0574002371704871 12.3138752284538455 10.5002650706652663
 17.2628526755319953 12.4264582168271875  7.3845866121456938
 19.6111972874146936 10.4196676868925184 10.6022785798939196
 19.8141235605398371 10.5273435302435434  7.4869888301442664
 22.1780027392592167  8.5293357849862481 10.6945501451868044
 22.3604654197137833  8.6338007765687319  7.5786515888526695
 24.7520137191892999  6.6442791772501764 10.7681473576418263
 24.9065536185196450  6.7431102932722542  7.6505686753431705
 27.3297863765199196  4.7634937992283009 10.8200641392763863
 27.4519621578290618  4.8517736900139390  7.7008499432120665
 29.9964045284288439  2.9583472176283130  7.7300896268326458
 -3.6051339292775904 24.5395063083098748  7.5660884659317746
 25.2672473660881671  9.9072994371541565  7.7710028332961754
 22.7189338775239698 11.7955450966142603  7.7015899765062343
 28.0707100927442816 11.0946256999983923 11.0413040956867299
 28.1741585410800894 11.1817724839325656  7.9232408014412368
 30.6534865656010780  9.2026483857632044 11.0565569066880602
 30.7234793166076159  9.2964191191362922  7.9376405658204172
 33.2375833462106343  7.3141222187142869 11.0394114641075181
 33.2722282681306964  7.4109174362102470  7.9194767687351151
 35.8216626632349460  5.4289979853457435 10.9906746877905324
 35.8196418528750371  5.5232175744994354  7.8700563681369893
 38.4055067435891146  3.5473905937802446 10.9124785438436831
 38.3643733062170611  3.6322061718098260  7.7913335519676350
 40.9877713368713685  1.6685505548041737 10.8076666421373169
 40.9065300853689493  1.7385525550003447  7.6863408621811260
  9.5545892374117365 66.3021806317191960 10.6804003892949329
  9.4339290131105020 66.3515657037034003  7.5589132693709553
 43.2652397850966040 48.0543886112325254 10.0674701259963175
 25.6234932013969292 13.0676781093130145  7.8776720273528493
 43.3945703189952710 47.8521100572247988  6.9497051457715679
 25.4905919447719072 12.9889438877302901 10.9947827695808780
 22.9162050366218857 14.8867829479623843 10.9203948355003710
  2.5700574957956892 30.2265093193945482  7.8442835650222733
  5.1576555042505419 28.1876919587683048 10.8539688539909172
  5.1250665634602530 28.3282007513337284  7.7350241512559998
  7.7023081739616615 26.2854742204005412 10.7491839026141154
  7.6862616329300728 26.4215281734744742  7.6294951247881917
 10.2333712033070245 24.3854229085291330 10.6733367163533774
 10.2530057070235028 24.5070780731432407  7.5523646729814686
 12.7564501776394046 22.4865642680729430 10.6431128165376805
 12.8233237543439422 22.5875877840847394  7.5217124001714080
 15.2791630482213652 20.5881866229104347 10.6653134783669010
 15.3938731308960453 20.6682959056602620  7.5448503585521802
 17.8095272017511199 18.6883966127996324 10.7331078335677308
 17.9597579948252886 18.7543339979632684  7.6142317248579596
 20.3543128626296976 16.7876244558860641 10.8268063401517267
 20.5189252458462725 16.8504412091666431  7.7094529063766117
 23.0722542884503525 14.9559995231288383  7.8039317013907405
 25.1232909513284071  9.8100208158537008 10.8878972793532043
 -23.5280850954630374 46.1307848008113979 10.2934112340398869
 -20.9613657952489127 44.2030210165863124 10.4949823759106984
  4.7926450926843378 24.9928381962109931 10.6936732050967347
  4.7771100567934210 25.1634499738444184  7.5751136725368609
  7.3299227535677005 23.0910760839692024 10.5906863011876400
  7.3409818803964120 23.2538984299735887  7.4714534390768801
  9.8558251823489300 21.1921712068398627 10.5255865832186046
  9.9102738705027846 21.3376230885483977  7.4054004504117010
 12.3766154826032064 19.2942905003214378 10.5117200515641809
 12.4815717073006969 19.4175939167532263  7.3917369102109269
 14.9001457027683841 17.3958855342048899 10.5505814846395261
 15.0505170407929256 17.4998125376770659  7.4318956478843408
 17.4340251445031313 15.4969746033980336 10.6299843852325040
 17.6132608189244273 15.5891095963671749  7.5127348257702398
 19.9836916693144460 13.5984408722871564 10.7271896666169848
 20.1684197426631009 13.6883765526887977  7.6107912585334381
 22.5491308037344638 11.7021902534753810 10.8178651969649149
  2.2191531343050381 27.0643178859593760  7.6931236181822067
 -23.3963397515126559 45.9648532877835265  7.1756272793735372
  2.2399348193494846 26.8982748591270706 10.8117667650783300
 -0.3277437734486167 28.8098887917465341 10.9186561604411434
 -20.8346780015895519 44.0771170111592667  7.3764699512999261
 -18.3893490819567340 42.2746215042837363 10.6675949039088707
 -18.2704493992905128 42.1887438970266686  7.5479353946522130
 -15.8135459976363570 40.3464679377813340 10.8093565210036875
 -15.7041137945269558 40.2998764425873688  7.6887721998516101
 -13.2353228093275153 38.4189778055073532 10.9188150650429119
 -13.1373986609020292 38.4104945811487823  7.7978895353373074
 -10.6546107789702038 36.4928995935097049 10.9942375430918950
 -10.5711079166926520 36.5210073396211925  7.8735940447937161
 -8.0720386951374987 34.5679452713966242 11.0334074655844887
 -8.0067238325393522 34.6306747841150226  7.9133150440627107
 -5.4884247801611084 32.6456580457489522 11.0344248219952927
 -5.4456139115663911 32.7404749596022171  7.9146755993003373
 -2.9060294991953075 30.7254761068902056 10.9956685683597772
 -2.8886533641135368 30.8497748002529733  7.8764046069300546
 -0.3343737774897832 28.9590597807470793  7.8000130725482473
 -1.0292826282488308 22.4335278583139051 10.5548139783071999
 -1.0475150839577680 22.6461605364626628  7.4370609134286907
  1.5219821429902964 20.5225761018022546 10.4122641506621161
 -4.7152856648363040 15.0798646702120731  6.9342500499700863
 -2.0867316748275617 12.9261175156646786  9.8417101589000904
 -2.1503657861359553 13.1821323364856973  6.7243431482382476
  0.4348808675744308 11.0220083659160935  9.6605632313710608
  0.4206953350739070 11.2737871079392580  6.5417798916493046
  2.9446187039940206  9.1262337776643143  9.5347204220435895
  2.9981973581097399  9.3559251181066756  6.4149578355306556
  5.4483904559246312  7.2368129803852028  9.4857065415278985
  5.5792339269278202  7.4306010249741110  6.3652755550980880
  7.9546232684997289  5.3520105842007082  9.5194537659846041
  8.1558998654161616  5.5027070154652664  6.4004906845998848
 10.4698178563165474  3.4696438814702826  9.6268509231315278
 10.7220974869819763  3.5768153581225479  6.5098767090178020
 12.9982900982911502  1.5898598013987455  9.7885343218792045
 13.2752070461631266  1.6558110354189777  6.6730317351267310
 -4.6232260525590370 14.8390018838732427 10.0510217038073932
 -18.4697562730246432 66.2222572831395553  9.9811438478847254
 -7.2770244868942306 16.9714347573226796  7.1443029405672327
 59.5106900684352738 18.8598960907302704  7.3360179458972468
  8.3333307521153781  8.4933840319051441  9.7164285054828383
  8.5162765640604654  8.6771141958137186  6.5986885242589901
 10.8491125797793195  6.6066900701474891  9.7890035191020051
 11.0845265377590856  6.7533862283846666  6.6726462807466165
 13.3771292107820283  4.7229751249029324  9.9141478305509363
 13.6412953510714132  4.8345934259699623  6.7993654315570753
 15.9212240091902029  2.8437779956411542 10.0700870870720571
 16.1871452907039277  2.9218031022987114  6.9551720234043346
 18.4799868618916854  0.9674909252786551 10.2347263828946247
 18.7251097331601457  1.0137680898547836  7.1186969247740643
 -12.9633507900882989 65.6034545015268264 10.3939438503840371
 -12.7508440968095229 65.6200925167375004  7.2765955785034393
 57.0454615584153757 20.6222531561899274 10.6211123722171621
 56.9451012964132772 20.7490957463353034  7.5021760790456469
 59.6139642454878427 18.6901798308907310 10.4540080276446385
 -7.1743591829664144 16.7614518731278288 10.2613475203867548
  5.9402832399361438 10.6019995688185205  6.5948850096552736
 -18.1942291856358018 66.2511294805480304  6.8656413809104677
 61.6946193185818643 13.8161255008011512  6.9528733909269356
 -2.9086523163914375  6.8472644716142677  6.2677461681307127
 -0.2993465251134341  4.7494496845807719  9.2211949084925031
 -0.3297464272613868  4.9262780543572351  6.0965707610950117
  2.1997730766721877  2.8649531207913381  9.1416045171531710
  2.2559510563882492  2.9967272033432040  6.0144903529989877
  4.6975517745912398  0.9831206129435212  9.1614628794148611
  4.8403390896431953  1.0627019687496981  6.0353126140904809
 -26.8109536396794894 65.6118312381198621  9.2758646285001873
 -26.5961135724685249 65.6401563116656206  6.1534298899706554
 66.1798781483130654  3.5144697935025611  9.2224326125147993
 66.0602485444743479  3.6660421080134400  6.0986684291523989
 -0.6697477445955291  1.6297895917653071  9.0814232690778134
 -0.7090127510163422  1.7382107882026467  5.9539075432469435
 -32.1853506784377643 66.2570723821234964  9.0396361160586522
 -32.1336742957053474 66.3129700485683742  5.9107387782898950
 -2.8051739613173021  6.6401493204265707  9.3889185255848115
 61.8374048880724345 13.6011166569533781 10.0690906344569768
 63.8728689728319878  8.7569521268142623  6.5017893551515336
 -21.1087251972788579 64.9815086478357387  6.5998773066811527
 -4.9708795932553871 11.6843927501285378  9.8274830248499185
 -5.0951107360893886 11.9220003223581958  6.7108161270791129
 -2.4440592163239199  9.7775912009871107  9.6017789338302677
 -2.5281472967278988 10.0191093680353589  6.4832713861204523
  0.0689673209464382  7.8794318843425915  9.4215029128535708
  0.0470453803201117  8.1050876159183609  6.3000655737753357
  2.5723533779523740  5.9892943135109320  9.3130262999319324
  2.6293468116111933  6.1814736876566121  6.1896088157105922
  5.0727505363488241  4.1042460249867769  9.2942158804900679
  5.2131391664929314  4.2509625621269542  6.1709898258537565
  7.5767936455126819  2.2235896833954003  9.3663557763796277
  7.7890890845201017  2.3202484467241087  6.2449543351291661
 10.0919572922481127  0.3431304268900137  9.5143370731661232
 10.3528422506766269  0.3923984934029308  6.3963965729279977
 -21.3911836440371452 64.9735574266900500  9.7163303044936651
 64.0272080494356857  8.5399743238987966  9.6189316995749508
  5.8253636957464776 10.3833100347349490  9.7131572997588229
  3.3628106668981501 12.5230379434181334  6.6660264759996855
  3.3164765440742632 12.2774864691710608  9.7841304290570292
 26.9546299603378046  1.6185976378272144 10.7293228770636659
 27.0833483584088555  1.6748028489123410  7.6090254590771007
 -4.4792999547225278 66.2554608709521204 10.7852292334841859
 -4.3872818031806515 66.2879520266336897  7.6630394830339998
 52.5527750193634375 30.8307786370564401 10.8833879471037260
 52.5434630727481888 30.8353758604921566  7.7608297190107178
 -14.2222241477616436 28.8968245093564846 10.8651475049677284
 -14.2356017393144576 28.9464628375237609  7.7428069946814473
 -11.6474678616104921 26.9623912873014611 10.8162351206789964
 -11.6651073607621214 27.0571484941757738  7.6945242000166063
 -9.0737933872689300 25.0298719871745341 10.7360115122706361
 -9.0963622825601504 25.1678011911099340  7.6159908034897006
 -6.5028996513438413 23.0995211993764933 10.6258974588627009
 -6.5312546032667083 23.2776994830652555  7.5074944446625285
 -3.9368157721535040 21.1740811147670236 10.4887790538352217
 24.5417989180286895  3.5711396059055587  7.5384785801987126
 -3.9696308799589213 21.3869894620338634  7.3707356201785075
 24.3778649969773582  3.4940904556021231 10.6569557178332595
 21.8039589764108825  5.3719075136767698 10.5676033347594451
  1.5122037403747159 20.7477702290909605  7.2947265542007313
  4.0573729811559955 18.6177785990941125 10.2823667763918074
  4.0772695128357270 18.8411821037829021  7.1640303964163454
  6.5798901065421207 16.7176654149901793 10.1897027563891722
  6.6476855030818855 16.9270693340398815  7.0708209468803824
  9.0959400214060846 14.8205760625587679 10.1515707783696971
  9.2211036601616456 15.0074675040037260  7.0331951332538836
 11.6126998445738394 12.9259592866241295 10.1732132095086580
 11.7911720683904448 13.0872301693621989  7.0564174967764162
 14.1385456984702209 11.0331062410858003 10.2465762479833860
 14.3546037881868642 11.1713259135334422  7.1316979913439145
 16.6790817316792577  9.1416713535392233 10.3517114397973682
 16.9087633140915230  9.2634828809097112  7.2376799102844869
 19.2363482291651060  7.2543094571712450 10.4639956718193190
 19.4555628330868302  7.3631122834455685  7.3495058489860892
 21.9990361294212775  5.4663343101732842  7.4514953379635900
 -1.3806434767326692 19.2556144136142287 10.3314050509402371
 -1.4096415116461978 19.4925961130933878  7.2139360563510486
  1.1607660378947995 17.3450973988638282 10.1729453446331526
 -7.3016242358775676 65.0027432181415179  7.5563029245809652
 54.8002496610270313 25.7250983987493065 10.8188354415979084
 54.7457476722424161 25.7925187853779292  7.6975607581225542
 -11.9765789796547164 23.7912874665180070 10.7243283635887856
 -12.0350603517426045 23.9038604908668333  7.6041821278776789
 -9.4050753695500369 21.8582153916763566 10.6002651725293173
 -9.4666446729932670 22.0142168747682270  7.4813455972144869
 -6.8382977761633130 19.9277781549815494 10.4489925900978005
 -6.9017787658192695 20.1248029634842567  7.3310929977620773
 -4.2789389832726297 18.0030062006532390 10.2749672690251259
 -4.3398230553930324 18.2344332892847163  7.1574755047794465
 -1.7330500369346271 16.0860652570148304 10.0899205429377687
 -1.7775673990941467 16.3388239176933574  6.9729034103342125
  0.7982110568267120 14.1777332751392287  9.9174954410939780
  0.7894738234138871 14.4352830242111683  6.8001089158714967
 -7.4353295298345952 64.9913711619984866 10.6782243092898863
 24.1714243310317869  0.3917575802786474  7.4575087519317087
 24.0011141932730609  0.3545411640262575 10.5769984103569659
 21.6325538948122080  2.2912174787438166  7.3442354257507114
  1.1533440590558079 17.5918276552010298  7.0554915313761679
  3.6874419963537033 15.4416017600918742 10.0396192937675490
  3.7222998748968603 15.6832395740230037  6.9215559736355399
  6.2030278525457163 13.5438363647361744  9.9549179256505465
  6.2966751676175718 13.7665433790648173  6.8366971221894781
  8.7140595130965277 11.6497502474298251  9.9344077436460765
  8.8711799012609767 11.8443835915942621  6.8168248332644987
  2.5970180854974774 30.0935202310474210 10.9630753282753695
 11.2297780358337551  9.7585501334287770  9.9786588884349499
 13.7571353182723115  7.8701324780664663 10.0746549188307668
 14.0007735855969049  8.0061334313911239  6.9604228426295673
 16.3001128897316754  5.9854058922264421 10.2003757033267082
 16.5504668953250089  6.0966061441657970  7.0865858255461482
 18.8589674989139766  4.1045703677069865 10.3334667137662208
 19.0932053852094334  4.1917925229119994  7.2188486745944473
 21.4274709146229050  2.2288541739025902 10.4611892510769273
 11.4406682596009848  9.9228597063627539  6.8627612094421302
  0.0177964047101489 32.1191089756377082  7.9327361054464953
  0.0222239303190922 32.0043228994848974 11.0517358954431213
 -2.5357921857481380 34.0081837834692067  7.9853688856373672
 -6.5968770369259468 47.2587555948183251  7.9522339216843969
 -4.1061386577110346 45.4092264379269963 11.1648292160286626
 -4.0432997926323795 45.3710512961565726  8.0461793745080943
 35.3190569646619750 50.3799459946643111  6.5500406202346824
 -1.4884653875217939 43.4849719113280742  8.0983159537123299
  1.0763291159511399 41.5983942793640082 11.2281813153974337
  1.0663613471948814 41.5996991898470867  8.1090515814389246
  3.6631469266889147 39.6916427652566313 11.1985981430516475
  3.6200812813564820 39.7147071635043361  8.0789964899401276
  6.2421223300956621 37.7841548230609305 11.1320055150875739
  6.1725981255814135 37.8267236022019162  8.0118862850203669
  8.8072178951795106 35.8792211923282238 11.0397792551982921
  8.7261496309292941 35.9314929863106585  7.9191258550284909
 11.3559382901939472 33.9772566470907336 10.9449544052409795
 11.2846151582300198 34.0250841892764271  7.8232098491004312
 -6.6972759883928159 47.3149271471399473 11.0704799533684923
 13.8909936635394171 32.0787247306881937 10.8735863958787089
 -9.1489528249101593 49.1471481820432885  7.8170572032309344
 -11.6981253398113783 51.0362741304690388  7.6425436068712918
 -29.6885233693329411 64.3755397829990841  9.1024705733124271
 -29.5492570147826328 64.3777450677361855  5.9756288535221236
 -27.1836961491846232 62.4943855513232194  9.2597429735327683
 -26.9746760752076824 62.4489559106591514  6.1368198648142016
 -24.6665659119127589 60.6093870494232831  9.4871976232918325
 -24.4147167638456466 60.5288283935564877  6.3686287380783986
 -22.1332352574109024 58.7200451735830597  9.7541381041209405
 -21.8672047510986758 58.6183097458908691  6.6385612704079646
 -19.5844176557031204 56.8264668661314047 10.0324475619269275
 -19.3256028899329628 56.7162784361407333  6.9181666405763176
 -17.0225740622139767 54.9292194249819588 10.3017102971091141
 -16.7851956333757997 54.8198062358952640  7.1868055601086196
 -14.4507941347163733 53.0280513162043050 10.5470309482141698
 -14.2433702498680415 52.9268859321207827  7.4309629776496262
 -11.8710324289704943 51.1248192771789860 10.7594338420054356
 -9.2860742353760841 49.2200816264381302 10.9348460343057727
 28.7145132705131125 65.7208722135206074  6.1298743244390561
 13.8487774946127491 32.1103401058930942  7.7507524349969339
 16.4170497069144723 30.1893228934938875  7.7211125811323011
 41.9984069063198220 11.2378347328799144  7.9443554853936842
 44.6811315961637661  9.2561587905671292 10.9117924064955325
 44.5471259739687255  9.3516125686312588  7.7955363929168113
 47.2648299608284930  7.3584746722141050 10.7224991448518718
 47.0926372123071602  7.4644683252365169  7.6065867185126343
 49.8420536060223682  5.4639977836566436 10.4967045011478834
 49.6333577514773623  5.5734218921119565  7.3812018788288718
 52.4110767614572239  3.5736013905190225 10.2416967604596891
 52.1703653190778738  3.6774390744364158  7.1264036745809216
 54.9689188324993765  1.6870650936971106  9.9697436312573764
 54.7053400118403772  1.7751281764639304  6.8542108651373113
 23.5007220496425795 66.3133914145786463  9.6994082465397025
 23.2313954660385100 66.3745860042831168  6.5825221289753753
 36.7918743654946354 63.1421682299363951  9.0186790546537061
 36.8370074882550185 63.1154568178411139  5.8894310138451376
 42.0928935231298738 11.1555131069837312 11.0616103048777141
 16.4179111372318758 30.1800688894580595 10.8440182241804237
 39.4463044670238432 13.1234701774218259  8.0527888483484258
 36.8913158324448673 15.0086259057097386  8.1211563002081331
 18.9428513872860087 28.2813505926366062 10.8644514169386230
 18.9863975710920272 28.2685385848677058  7.7420952489532207
 21.4734966420392617 26.3821360053336242 10.9303115293748050
 21.5533547096695060 26.3534787080341353  7.8093851210474492
 24.0157204806072748 24.4805286342008301 11.0259991720441679
 24.1148193333638545 24.4473042072560212  7.9063766573552963
 26.5749543045805900 22.5764664869206158 11.1267232796866331
 26.6709751833387045 22.5515816133157188  8.0079094731227087
 29.1497634886692225 20.6714902926262027 11.2080974378407046
 29.2250790756775132 20.6635026413237206  8.0898869905013466
 31.7337508625284421 18.7659685144650794 11.2570569999699721
 31.7798956142293818 18.7781942476735786  8.1386958565818333
 34.3216884439265471 16.8608050735822133 11.2680543239105226
 34.3351185013611726 16.8932084800633540  8.1495644172668786
 36.9117171211580484 14.9575598143511463 11.2393814213540644
 39.5025966544440408 13.0557027258787759 11.1708613339999197
 28.9207497899941757 65.6709245820342886  9.2529604283928997
 60.1677567017657609  1.1341149554120640  6.3645323992944673
 60.4153735983760640  1.0446292694496828  9.4840585057176146
 -8.9280245094832758 52.3974502832417528 10.8658538825207671
 -8.7898818515068271 52.3062441682082877  7.7479885576628913
 -6.3405376723494156 50.4992574942259580 11.0114229880537771
 -6.2426538880260365 50.4181217953685987  7.8933194794877721
 -3.7505293600858955 48.5982941737264227 11.1176928187369342
 -3.6919327906469435 48.5306793276669666  7.9994210948624360
 -1.1598012041876442 46.6964331696503976 11.1839922699696981
 -1.1387521530226059 46.6449828660446428  8.0650010662500318
  1.4303251559602876 44.7935228281791069 11.2103934520360262
  1.4154389034565176 44.7599224972912850  8.0910858076811714
  4.0176448752663383 42.8891776291883673 11.1979212922482638
  3.9695981231640594 42.8749595263638383  8.0784751391324487
  6.5997081513795806 40.9840830269594960 11.1490825699749561
  6.5229411420594987 40.9887217967189628  8.0292654261288359
  9.1715125592554809 39.0792256963493330 11.0699517409734653
 -11.3333959127180108 54.1966588185664619  7.5661380071751330
  9.0754939313839156 39.0974595776450968  7.9497246661596099
 -11.5111903428626565 54.2930219704576587 10.6833224648144611
 -14.0889128015167930 56.1861867780595290 10.4679933177361022
 57.9991437750049883  6.2209151304385948  6.7487025869441881
 60.7829252299679510  4.1701965945322117  9.5735641829094771
 60.5481650789028052  4.3158849986967702  6.4560319883175818
 63.3028919540368946  2.2809720984641704  9.3159423608928105
 63.1066004676949461  2.4016866094271001  6.1937343338886111
 65.8100723008934096  0.3957426427116498  9.1212038617140472
 65.6786429039821513  0.4757059512746818  5.9948690039808383
 -24.2957650654897854 63.7316054853303697  9.4665343235109365
 -24.0346197637112091 63.7146506729232129  6.3472312537797633
 -21.7650186380885593 61.8495848690828893  9.7055571955986917
 -21.4860540044750827 61.7978602436855695  6.5896212758126982
 -19.2187772380133808 59.9648884627225698  9.9662126253164747
 -18.9465322958431344 59.8895673060884519  6.8515134423845128
 -16.6589667937405785 58.0770005454632923 10.2255967495170879
 -16.4099814925247927 57.9874052356735916  7.1105885135690787
 -13.8733995359115507 56.0900846500659327  7.3519912205441402
 11.7277355356222319 37.1759796195242060 10.9767961004266574
 11.6306210026611758 37.1959769321592546  7.8561830257253007
 14.2682939785995408 35.2761414300058433 10.8955810952901508
 39.7956787790949704 16.2839241127997560  8.1018761771750007
 42.4483269658532123 14.3398025278871444 11.1230716937829825
 42.3508665979861547 14.3980127006399901  8.0060786662571299
 45.0383025399438566 12.4352757894628230 10.9847088131432375
 44.9031468952021484 12.5112900656534549  7.8681398466884032
 47.6246468205537425 10.5306532400276787 10.8048473298424792
 47.4521760838865276 10.6241069709664586  7.6893053380974488
 50.2049170322636087  8.6256497797990530 10.5856539966374328
 49.9977923934028681  8.7359921124827551  7.4709690331798271
 52.7765586633246073  6.7220222588589769 10.3304320979614221
 52.5400351921027280  6.8453884304993995  7.2163551170626894
 55.3368937421178799  4.8239089818775724 10.0484837133858758
 55.0799641265083366  4.9499996617321944  6.9345795196133446
 57.8835858262547873  2.9317390948112543  9.7584326393805263
 57.6209795445595674  3.0467636978268917  6.6423814667559515
 39.8563775873414912 16.2450722551190729 11.2190621758656661
 37.2397015915951926 18.1699499037676624  8.1549887055497994
 37.2645397259931386 18.1514697180955764 11.2726964621398054
 34.6834632347681477 20.0546799464368704  8.1661309546379837
 14.1916752533340240 35.2846293983473345  7.7735625899898153
 16.7979476815593465 33.3781266299404749 10.8488553590410852
 16.7580722051549849 33.3658163708466375  7.7259808894209971
 19.3225645177496261 31.4799901213148061 10.8499337925807868
 19.3269481447012446 31.4440883470023174  7.7271842279094516
 21.8497876440766134 29.5815614972403864 10.9002204046561921
 21.8953109905535861 29.5262691775245472  7.7786994908841756
 -30.0601874769817705 61.2595063006707576  9.1241071640107609
 24.3863813776926897 27.6807303151617923 10.9886435118317518
 26.9375119992295105 25.7772934677443502 11.0939215425693458
 27.0186128762054416 25.7166317263025554  7.9746137272503779
 29.5058316587465015 23.8716606227879993 11.1891318430744473
 29.5732550065204514 23.8264904990674964  8.0704001578860183
 32.0867688169510004 21.9648988905456903 11.2551448238039118
 32.1276656355405521 21.9402480244374232  8.1370205222273153
 34.6740510023130852 20.0577493110170231 11.2842474045727812
 24.4599001722366438 27.6161049240920988  7.8686820590392728
 55.4540647891688963  8.1165941639505910  7.0418795942977148
 -29.9302769816406915 61.1835445721281630  5.9984502628124376
 -27.3580931860813266 59.2606869118453687  6.1962252119850030
 10.6090953333675646 27.5818666115680280 10.7923605483807599
 10.5962195506083141 27.6785820099963225  7.6709055581439083
 13.1355981207060761 25.6825329173057249 10.7476224663688402
 13.1651215671626627 25.7604268808080583  7.6253726578840357
 15.6582930077607454 23.7834950405479937 10.7526921234287656
 15.7351644751899329 23.8399967718255681  7.6310930627737319
 18.1863383693719065 21.8842632306912748 10.8062433777284088
 18.3035610399617212 21.9231034584954081  7.6865349630748971
 20.7256421705278910 19.9833643433153583 10.8945038796799096
 20.8660164548707208 20.0147007151121841  7.7760835950696556
 23.2817520032234633 18.0812867088689124 10.9926913350229665
 23.4224560330333240 18.1176396239296267  7.8750314195994671
 25.8532604123730145 16.1787274910287877 11.0754753892858933
 25.9747476721139101 16.2277314814848239  7.9583156136352020
 28.4340107880099211 14.2788617551164130 11.1300118306004983
  8.0318149613367158 29.5913681600758771  7.7567338891154938
 28.5274474308039991 14.3417824914336123  8.0121762280608948
  8.0726250114285207 29.4828013248075358 10.8767787619171319
  5.5208860366648604 31.3850737182771979 10.9812383429645912
 -14.9745310784135679 46.6112368558604402  7.5804016361414899
 -12.5647531153388954 44.7720851703131970 10.8717779987269623
 -12.4164415105153125 44.7213927284553350  7.7538696395443276
 -9.9802409782368144 42.8554142198527188 11.0094125679678196
 -9.8577235191290118 42.8313885070145446  7.8906710754079077
 -7.3924853146929044 40.9404351765377683 11.1085786724310775
 -7.2985898049251210 40.9423553299622327  7.9889462563306353
 -4.8031150823779356 39.0265801953706202 11.1660341375486407
 -4.7412133338323725 39.0543078248233826  8.0462675783916389
 -2.2133934534152511 37.1133206827914037 11.1796220455048196
 -2.1851425844355368 37.1670351003028543  8.0602245870310387
  0.3728938992627538 35.2012767112977585 11.1495025694621788
  0.3681351764570401 35.2798991520636775  8.0305256973726600
  2.9531348702773155 33.2915875632306921 11.0795242704443506
  2.9203397337651689 33.3905026363385176  7.9608007671001690
  5.4733966360233381 31.4949434074680603  7.8620681525544818
 -15.1455185915415314 46.6896606564330980 10.6976212152963832
 31.0186599322232261 12.3816214876991761 11.1515208170178557
 33.6050598913177936 10.4865338248062407 11.1380993353377864
 -20.6282664768709694 47.3656077224513226 10.3710208100078560
 -20.4598369867250369 47.2328284679067707  7.2535490022226261
 -18.0578352812390506 45.4416099855597579 10.5805881566133699
 -17.9005710123089123 45.3440856064898412  7.4625708911038178
 -15.4819689193359658 43.5182401370172371 10.7588893943505859
 -15.3388099639161677 43.4551043867185243  7.6400671999921350
 -12.9022549145155949 41.5953803070718422 10.9036595939198442
 -12.7761373270541476 41.5650977952044656  7.7843022503945143
 -10.3192641066348116 39.6740727915787019 11.0135648153652372
 -10.2131845435905557 39.6757047287806657  7.8935188205496347
 -7.7337489815232647 37.7535820370538815 11.0855715271707744
 -7.6516656624742723 37.7863319303511389  7.9653832832663110
 -5.1468080628582884 35.8350354853187554 11.1165866903814319
 -5.0919372829084768 35.8976728098202358  7.9966464814884937
 -2.5606734300066050 33.9179160446306440 11.1049318984035441
 -23.0159752485710420 49.1210287302240047  7.0157282907648693
 31.0800602955544640 12.4569604673512710  8.0327596275705488
 -23.1912984440966952 49.2880152697292147 10.1330105834302859
 -25.7412024642067294 51.2045527648761833  9.8752531609688887
 33.6318093640580926 10.5729079084738533  8.0186653691897671
 36.1912410588480498  8.5932823831864766 11.0889900329416378
 36.1817274192275988  8.6879013053365739  7.9691706690609561
 38.7771730350693815  6.7026380638459857 11.0044189800323160
 38.7306748339439437  6.8020790786450371  7.8843059203420687
 41.3613482201393126  4.8159927588109150 10.8857985959645998
 41.2762738575492634  4.9132750309795838  7.7657570300433187
 43.9428224014409423  2.9336004922243220 10.7375741482120066
 43.8189295622688775  3.0200663031223640  7.6178468152406023
 46.5202705489361890  1.0546277119440657 10.5649636776494997
 46.3572558132084680  1.1232691341284424  7.4456435814549762
 15.0815407347656372 65.6882375240125640 10.3722641543591934
 14.8803577716816733 65.7327190609416050  7.2541458285552931
 41.0754926474701634 53.1124709989228165  9.6186099874831363
 41.2190396894507387 52.9067089519945952  6.5000216634634667
 -25.5716995150244948 51.0109265195334984  6.7579438824321176
 -17.5303979104072347 48.5003356925909941  7.3722782817080130
 -17.7209421582887892 48.6076209762692599 10.4885889445875744
 -20.0824973420836912 50.3898206611442347  7.1317356761641895
 -1.8364253726564770 40.3256919774417355  8.0976929300902345
  0.7246574674720972 38.4002857000295847 11.2087524150593723
  0.7177025055646765 38.4398684851265386  8.0898167764709292
  3.3088834680118864 36.4914987484085458 11.1590128599117744
  3.2704349008776274 36.5534865184141680  8.0401050348198364
  5.8826991137508751 34.5836834431698819 11.0749199762522199
  5.8228254241605155 34.6617411845059991  7.9552855073793411
  8.4410760102883948 32.6805378513832068 10.9741106596587183
  8.3786632276391764 32.7621168287478213  7.8533964638673481
 10.9832746152703216 30.7794509533549778 10.8827620287684947
 10.9400315923564566 30.8517343300892612  7.7608622458533167
 13.5138965942887967 28.8805733576395092 10.8241946299035501
 13.5070460518460074 28.9348164750264623  7.7016448632806513
 16.0382223599036493 26.9811651043025478 10.8124408852503571
 16.0766131003262771 27.0135786182423665  7.6899176659218362
 -1.8649364174897878 40.3096016552873095 11.2168602371062089
 18.5642058074450063 25.0822384824592852 10.8502679969818683
 -4.3917596421828984 42.2119313798169955  8.0622292490737681
 -6.9477676600386706 44.0999791101904677  7.9843623736345712
 -25.0317757379884291 57.4815090263098867  9.5704153097550133
 -24.7991978462354332 57.3489750233263251  6.4527771507426559
 -22.4941878798314292 55.5831487920402481  9.8502619082871981
 -22.2494331266350827 55.4458473430840257  6.7348798577658648
 -19.9416671568150967 53.6800395794614147 10.1311390370257417
 -19.7039612707318383 53.5499214441075750  7.0162396055255094
 -17.3766650330038388 51.7718071363686434 10.3936435330451697
 -17.1586547026723011 51.6582155382657788  7.2785658789943639
 -14.8024294448356546 49.8606909475462601 10.6261742508490737
 -14.6104982397561116 49.7681747999906676  7.5103756460246807
 -12.2216136449068564 47.9490481363270149 10.8237013695969537
 -12.0580432069489873 47.8785079735739103  7.7065863294164982
 -9.6362929857366471 46.0376035188194024 10.9833280767048187
 -9.5033246226271331 45.9888792840921923  7.8652141972083482
 -7.0474136173437465 44.1275186254068572 11.1030779915223814
 -4.4563527574003370 42.2182896094954287 11.1815366899650463
 18.6456410456405663 25.0947394502729928  7.7289870362364050
 21.0988426285033839 23.1822888375515674 10.9287174101538742
 21.2105603839499253 23.1827004368687959  7.8090548662355657
 49.4700584814443047  2.3165763385760982 10.4180416079877300
 49.2648364819022220  2.4024507365698917  7.3010121048195309
 52.0376949767248931  0.4356117072280933 10.1815317791707187
 51.7978226199221936  0.5005468124279920  7.0646589879368324
 20.5821175618234271 65.0663042202559296  9.9358000605497043
 20.3187161896853148 65.1022258173779562  6.8185237345970613
 38.9218491468208612 58.1396355676321690  9.2242289339221202
 39.0364229215836218 57.9933588576511383  6.1005364079641637
 -27.9170849828424998 56.2463420369455420  9.4419295131934149
 -27.7447127055013176 56.0792292552009073  6.3223585446979964
 -25.3898836466113131 54.3463463551800956  9.7042327437356644
 -25.1850846709141400 54.1758674168208429  6.5872395052589789
 -22.8469878177588548 52.4391981787141148  9.9812386118442991
 -22.6324971681794658 52.2801469687160321  6.8650372084649449
 -20.2893560488179432 50.5254225164946646 10.2477750440932738
 46.7279159156783237  4.2983035035938189  7.5170560060122567
 46.8953476040777417  4.1991157625522977 10.6339473301647836
 44.1861832927613278  6.1905461054394513  7.7055530002143184
 44.3151472456580038  6.0866591027963270 10.8230054478001207
 23.6477717133606582 21.2802597983727324 11.0279716314827905
 23.7692832733797239 21.2810347064774170  7.9091206077800038
 26.2142232892773208 19.3760437050290157 11.1209058845665947
 26.3235872944944411 19.3885733919830621  8.0027791415391398
 28.7932237915259464 17.4725159942041550 11.1879899845360562
 28.8770470599061042 17.5019432684411704  8.0701676155187130
 31.3782680987654068 15.5698860121723168 11.2209719146626572
 -27.5531051825923399 59.3734869779414396  9.3178461319171202
 31.4310093609400099 15.6169663777317567  8.1026073960779375
 33.9858357863645892 13.7327208328955965  8.0981889699674277
 36.5548875356673619 11.7710649013960218 11.1760994805981273
 36.5397802420486499 11.8482509249589079  8.0566198897531152
 39.1432069686523931  9.8738709609127060 11.0966700163566028
 39.0910949005516599  9.9636277322766418  7.9776712194099009
 41.7306296531694443  7.9784696845013379 10.9786340835523006
 41.6401065437472582  8.0780071734251653  7.8605022040545363
 33.9660699215545492 13.6694985098364530 11.2172256456567148
 -1.5139368237843909 43.5042464705696759 11.2173193804230635
 34.2497301269759191 65.0515202049689094  5.8877663885218761
 32.7438940468406514 52.2932430675771158  6.4168280645766682
 25.6536125895786355 61.3126689469867401  9.4953333626365932
 22.8566320804672714 63.1868184130789885  6.5811803489956118
 23.1250106494620553 63.1895048822415077  9.6988342850774263
 38.6513057271024181 54.8118662564964012  6.2695398923816770
 38.5565454283025986 55.0126033557834901  9.3910309355297947
 36.0743403791724830 56.7293931710365840  6.0977172165264024
 36.0500826871912210 56.9053141636568114  9.2221285450153569
 33.4916793315900065 58.6579461587842346  6.0117628080407215
 33.5504965219653428 58.7919913623090835  9.1381151361343296
 30.9099852274576463 60.5921279261686792  6.0269542774926030
 31.0510149808448830 60.6741325455494689  9.1523698415756467
 28.3375526343290218 62.5267312284629071  6.1409406386836594
 28.5461387755740041 62.5543019289848630  9.2637078112907520
 26.0301230895713900 64.4325543352407095  9.4548475648355090
 36.4560701585713431 59.9194905754685507  5.9539019784049856
 36.4202305238943609 60.0269339404440387  9.0815934580878803
 33.8701168553974270 61.8533549669793175  5.9073345279276337
 33.9232109741886205 61.9094334680673057  9.0362694321973347
 31.2867347904140480 63.7893228870714992  5.9688175740732792
 31.4252017824325023 63.7897570957809776  9.0964070188552668
 35.3150937926109023 50.6340344442646568  9.6685170338830861
 25.4040880452420268 61.2630448262205505  6.3761223055363292
 28.1696698465244886 59.4344752566301935  9.3504186509897362
 25.7781340479850343 64.4546938810412229  6.3354319274847590
 30.6758888735791722 57.5527609795817412  9.2849699892245159
 27.9641046090143277 59.3331010694090111  6.2289335246522306
 30.1674178300856681 54.2172363460557207  6.3580612753125481
 30.2995301021215440 54.4200521371666355  9.4775326979310819
 27.5952553224290895 56.1461665584507301  6.3832175754974134
 27.7919036779769790 56.3055189204743485  9.5022163644333428
 25.0339829499963571 58.0747660280248752  6.4847269425462519
 34.2964453282272501 65.0232856187035537  9.0174982138332798
 22.4848452938911727 59.9985942414078153  6.6444319136561161
 22.7467837169696878 60.0650251234037142  9.7618455742000645
 19.9461817980123328 61.9159951096443848  6.8396083003799726
 20.2038479910872830 61.9402792338846027  9.9569798931479685
 32.8043532346938775 52.5300725875603405  9.5361003513380016
 17.6476648621937109 63.8137855817500395 10.1664642052292677
 17.4128336145456508 63.8272676682947449  7.0482485158297195
 33.1776669847433467 55.6667435200382315  9.3108346441282421
 30.5362857297852237 57.4007307256581285  6.1625299191382483
 35.6816371792418749 53.7751958381575363  9.4248223303931500
 35.6948261115744714 53.5496517534993117  6.3034513088129822
 33.1159849485393138 55.4708619036793849  6.1886038361524385
 38.2676465564315436 51.6404738293226160  6.4876670710651521
 40.7224368661594838 49.9699609751697196  9.8304890463459582
 40.8335690122868016 49.7426796022893782  6.7124740918562011
 38.1950279596759046 51.8764995920157830  9.6070322819223541
 -18.3542499368401266 60.1614005491982979 16.6755107373502511
 -18.1198423429341453 60.1079075860358572 13.3299652572897909
 -15.6464143678855603 58.2410420162775893 16.8931139397393579
 -15.4233177236637697 58.1719615137717767 13.5451657029537049
 -12.9357811941010628 56.3170129955548475 17.1025906621699306
 -12.7366782065044770 56.2377424798279719 13.7513682161791486
 -7.3811139527114449 52.3760230155466076 14.0966906608486795
 -10.0569856439735243 54.3057831348588280 13.9381902617101598
 -7.5070539867562580 52.4579674070794866 17.4538695094855356
 -20.8287995897261204 62.0450393601875660 13.1200841508950177
 -4.7902166086623366 50.5242277130655069 17.5802174959813371
 -4.7067244649509696 50.4483950144967039 14.2206131029722567
 -2.0734741922017572 48.5881202626697473 17.6674231781135447
 -10.2224509460924260 54.3893208678447948 17.2925356183797199
 -21.0582832988687976 62.0779184038231193 16.4638209406710665
 60.4344076998271760  7.5340035707871591 16.4649673438598256
 -23.7589728491489858 63.9909571631759562 16.2757107995721633
 -2.0336633707514262 48.5226496716729443 14.3062016941087684
 46.9323875169597642 17.1658252464800825 17.5096698303452776
 46.8023879868681050 17.2261698412550714 14.1511415364064082
 49.6366734177996562 15.2285163812536233 17.3511542997783756
 49.4810934240309237 15.3185460996474578 13.9957518396261591
 52.3389645672639858 13.2948912934024239 17.1578510389936874
 -23.5519278511647343 63.9848098689036817 12.9328495550088256
 52.1630619944744183 13.4121330724570758 13.8063434010953756
 54.8503644794551590 11.5054502184893721 13.5890201104315640
 57.7376027926253386  9.4470667994154027 16.7000820379629324
 57.5464284587841988  9.5959859545908142 13.3548948862913708
 60.2562945579638694  7.6816464281836652 13.1213111213524236
 63.1294903580846736  5.6257401390707455 16.2532907391004500
 62.9836740165014604  5.7602326574747202 12.9103726371555680
 55.0392390156144558 11.3673287924164175 16.9369460515793477
  0.6422757304072267 46.6500950923470228 17.7130945799581667
 33.0662222369291356 23.5677370046664940 17.7409773923029057
  3.3566138407849158 44.7110177443434011 17.7167468999954245
 30.3624582615583911 25.5048174412242261 17.6788644659149945
 30.4083681542632043 25.4426672453259819 14.3168636000807812
 44.1262540329974939 19.1362120844005368 14.2681996467561802
 33.0927891999788812 23.5231412501958168 14.3783625859296968
 35.7741556223077524 21.6264029732870000 17.7699663677740816
 35.7701895889374342 21.6049809025094497 14.4070925519541877
 27.7121958994325794 27.3636742704737586 14.2378038513491578
 38.4836391188210101 19.6832535617402193 17.7574234305380116
 41.1931770560018791 17.7404106307750773 17.7003732622876733
 41.1177166033500114 17.7704000107848010 14.3389189033107733
 43.9021643651119717 15.7991776515975193 17.5994359985769044
 43.7914356150558604 15.8540491098626326 14.2397173264882557
 46.6104013696425525 13.8603142529594070 17.4565781982423687
 46.4667145615089936 13.9390715536317753 14.0995095999899043
 38.4443461916417775 19.6873280656026104 14.3948646763553754
 27.6631816548601606 27.4344659061688319 17.5992604009309801
 25.0011476002329474 29.2862397610057599 14.1611960512293820
 24.9658785996019610 29.3556503114069862 17.5216017721818140
  3.3142487274594026 44.6778679076651031 14.3547955712968633
  6.0681292711769128 42.7744078745403300 17.6817349178600409
  5.9931716420000569 42.7565979026077443 14.3201509083589116
  8.7746779917090993 40.8433822831974851 17.6185305960708902
  8.6799029481894969 40.8338523004906833 14.2575017877472234
 11.4764362127860320 38.9204007903169398 17.5447545335730588
 11.3792686669926049 38.9095397397328639 14.1843160086534272
 14.1756158259159104 37.0046463889515849 17.4803234198580171
 14.0934406861935155 36.9841527465884639 14.1206529165015269
 16.8739466121217241 35.0927648918054871 17.4408483335086792
 16.8184705148062363 35.0585992450282617 14.0814485758885333
 19.5717846916666112 33.1823397020283650 17.4345019327531787
 19.5485635588544824 33.1337179823451962 14.0748925660388320
 22.2688679790758712 31.2707172726097831 17.4630543493175026
 22.2781063896812555 31.2095725443826844 14.1032545874951829
  0.6394813858246085 46.5995247445140208 14.3511879658491868
 44.2273364674577607 19.1064750371857777 17.6287990153366572
 11.8121868854497123 42.2217748966279629 17.5144595411257953
 41.5209555974251501 21.0493814876024423 17.7056691620051545
 52.5053430052608121 16.7092166109313638 13.8960791270099637
 55.3549322721729240 14.6695148740427452 17.0535379789374737
 55.1915405616388668 14.8091731861275928 13.7034841708788182
 58.0522950384014322 12.7447540929855503 16.8341838971108402
 57.8844710392686892 12.9077030911767849 13.4872451661704265
 60.7473233014412486 10.8276773514039171 16.6061252546899496
 52.6553682412494908 16.6001053035406017 17.2496447668598307
 60.5882891005854063 11.0022802401729720 13.2610517430227404
 -17.8099323748951477 63.4385213577427720 13.3177091902970943
 -15.3390004408902563 61.5315834624694205 16.8620314741950423
 -15.1123051644321720 61.4966950201603169 13.5140285163739922
 -12.6256073072948531 59.6082583994158455 17.0555586537281023
 -12.4230428349987410 59.5559414340403919 13.7049251985399483
 -9.9090066973916997 57.6822946826631480 17.2334643695916974
 -18.0479934261786603 63.4516905910391742 16.6634674622019894
 -9.7400880270902217 57.6166321204998582 13.8798932676460911
 49.8224717171110782 18.6099028424501931 14.0573541325874203
 47.1420522818860306 20.5121918667102179 14.1829221484864316
 28.3393901650201663 33.8992649961187382 14.0457857650774027
 31.0345674856102391 32.1144399389825708 17.4929043795864061
 31.0498810052565553 31.9799741474663719 14.1333598418521582
 33.7338704256374342 30.1833464034951682 17.5810029335028126
 33.7459388480589553 30.0631800747790550 14.2203682792842994
 36.4364281070891352 28.2455423878217715 17.6494267736986465
 49.9545409667586000 18.5352529005546138 17.4140366830910445
 36.4308520881595683 28.1486500621886186 14.2878202097072151
 39.1099588637567805 26.2361331562295135 14.3222074079285449
 41.8454945685935584 24.3596742279049927 17.6791182036947845
 41.7869598892883900 24.3254903525039516 14.3168637909727909
 44.5498038745963498 22.4161117512563131 17.6315578219802589
 44.4638998317889431 22.4175206541966503 14.2701054650504151
 47.2529742724547006 20.4740598031537928 17.5424312653487640
 39.1407804025076587 26.3034769244808473 17.6844089229281032
 -7.1900293154377026 55.7533398401326110 17.3872932955537109
 -7.0616987317691571 55.6790114668138969 14.0309188534303342
 -4.4700562628012284 53.8219157526788194 17.5107901017373457
 22.6071106774636874 34.5692391134240538 17.3922029245094940
 22.5821556239495358 34.4763131365634194 14.0338256911123036
 25.3041570072871806 32.6555629579132116 17.4435635825907234
 25.3095287964348827 32.5532892133182798 14.0845561803641672
 28.0010104774888227 30.7366422375759534 17.5193552931593253
 28.0269552292553179 30.6316765422855823 14.1591318033188571
 19.8504733735388008 36.4012393173949889 14.0165061951652756
 30.6993128725873987 28.8103674973477197 17.6046690594480744
 33.4007779622018290 26.8763510699807746 17.6803265008767063
 33.4198394380904844 26.7932016245697930 14.3184246668541242
 36.1058521982469713 24.9364919255494755 17.7288237914156177
 36.1004282162179351 24.8766019686720519 14.3663547584929443
 38.8133637508305966 22.9933594750484396 17.7388914663952733
 38.7765409473450902 22.9615715611934981 14.3762289371727991
 30.7302407750421445 28.7115804082001596 14.2434583499692629
 19.9094111726734475 36.4800253007112616 17.3746242984245818
 17.1209814540857970 38.3275752805931518 14.0353215659057255
 17.2112322640269575 38.3906426984903035 17.3932465402956673
 -4.3858228516063997 53.7440723558585702 14.1518897113027666
 -1.7502460100560653 51.8882036355139178 17.5994209937484385
 -1.7107100046515891 51.8115097732349881 14.2389487023298269
  0.9683383772540478 49.9531626334899386 17.6513524143513081
  0.9638742582786736 49.8818291602848589 14.2899529699996783
  3.6851701775354551 48.0168050423858048 17.6650028459173072
  3.6384963269753992 47.9549463651459362 14.3036021091698924
  6.3988892991266964 46.0809392200462753 17.6415479555757244
  6.3156641239843943 46.0305774440734012 14.2806036280391861
  9.1080603215140297 44.1480552713590413 17.5867961872816814
  8.9985538547673229 44.1065072274902263 14.2267569683481074
 49.3165601330813175 11.9247912341435569 17.2756171441027959
 11.6916790932388537 42.1810523642982815 14.1550413168655123
 14.5126550794819753 40.3035889528453808 17.4436856006016754
 14.3995635722873843 40.2546091800462307 14.0852929970767775
 41.4511041906788122 21.0479533415975553 14.3436777343146105
 49.1440521505156056 12.0251183885600810 13.9217560189632241
 -15.7429247141390061 54.8538190844418168 13.6069415547784196
 51.8255830117664331 10.1109548478183431 13.7123954322564732
 -16.2691027636402552 51.6515708197555838 17.0419197061844940
 -16.0721655152325553 51.5439291453330810 13.6920291816174213
 -13.5648817664654278 49.7218041960012371 17.2523712678104779
 -13.3897740612676266 49.6288101738690628 13.8988382292899963
 -10.8584381428638466 47.7881600054122870 17.4323587068121952
 -10.7120525303169405 47.7140778118667370 14.0756669041344935
 -18.7617645980237846 53.4610820922606109 13.4649009874618315
 -8.1504040512812175 45.8509493039903262 17.5753763735840742
 -5.4405353339866549 43.9112797069555043 17.6768909028142822
 -5.3628060257170320 43.8837329560019143 14.3159081009596605
 -2.7286441043725502 41.9706480376203714 17.7339358374474756
 -2.6887833921582875 41.9679667813604667 14.3717643493218912
 -0.0164718023322126 40.0303672871620648 17.7456554215530993
 -0.0139824955051108 40.0517331445008864 14.3831912066824650
 -8.0368945721400777 45.7992200054388618 14.2161838426917129
  2.6940180884226703 38.0926602015951588 17.7152082754912925
 -18.9710154739149601 53.5761431538338257 16.8118802713556477
 -21.6707737589967415 55.4947791733130416 16.5759805138596192
 57.1118663620213809  2.8643092760614741 16.5034095831485033
 56.8942142845191441  2.9503831932153068 13.1593936848541553
 59.8135937828992681  0.9540172135466777 16.2879332776333641
 59.6147193659768178  1.0180298344254743 12.9452361309377046
 28.5009409586328779 65.5561528671322975 16.1116889247091422
 28.3400522623207110 65.5895398108742143 12.7690684198855209
 -21.4630173445196810 55.3816458692224813 13.2315911549655301
 36.8942396640265073 63.1325411292685459 15.9382615253759585
 -29.7617065211170591 61.2270592789103461 16.0148331477230847
 -29.6624697977851639 61.1737677405128650 12.6715610893865485
 -27.0662900135609306 59.3193537195578457 16.1584152840201867
 -26.9130376053922760 59.2375957673962361 12.8156599827970048
 -24.3692147601183500 57.4087710232354951 16.3518919358111425
 -24.1798028483809624 57.3069842342040801 13.0090564713190897
 36.9280733269932711 63.1144304571089165 12.5946683545676326
 54.1884850085300798  4.8786814556610523 13.3913174030304649
  2.6639415315472190 38.1343557124905317 14.3529562985657009
  5.3493535796493852 36.2154614598462672 14.2906556105898250
 32.3973114104120086 16.9504442818305243 17.7462030941565807
 32.4382697200601768 16.9801186107407744 14.3835254754838093
 35.1084932833317964 15.0095484264645354 17.7406711402502388
 35.1126435777969661 15.0568812019223017 14.3781547549783930
 37.8214949911635259 13.0687244709021542 17.6935964350780424
 37.7861437908149895 13.1325548402991892 14.3321937406156596
 29.7603610721466971 18.9026366601106730 14.3510906849976756
 40.5351710479728453 11.1301686794827841 17.6050996563754900
 43.2489885740237554  9.1942909013067933 17.4771397628837413
 43.1338540646389390  9.2794057303611854 14.1193665894141436
 45.9630816916529099  7.2619419974617525 17.3131566141192330
 45.8091547541442736  7.3509452097469827 13.9577089726614165
 48.6763261965142462  5.3334169230049016 17.1184980545459453
 48.4887350960679342  5.4208886781595975 13.7658885393785244
 40.4598169749434433 11.2068829977334570 14.2452986649385949
  5.4007552787234108 36.1604711856538614 17.6524184219877505
 29.6896656037820463 18.8899695227684639 17.7133375185975339
 26.9860555024464830 20.8252523479198608 17.6507443949882692
  8.1028355174815569 34.2359749654680314 17.5749892942998187
  8.0472185482683010 34.2947952280724522 14.2138554228708163
 10.8015327987372007 32.3186560365675390 17.5031146574493874
 10.7596123213309323 32.3727790795971586 14.1428502240188525
 13.4988445739494303 30.4058298481120808 17.4530842946625313
 13.4831337648275547 30.4491436109169555 14.0932197621613451
 27.0750672115293547 20.8249463912378481 14.2890463685418752
 16.1958835327607353 28.4957280463385345 17.4347562578898803
 18.8926904363256121 26.5858977783902901 17.4518432669756294
 18.9423933989790854 26.5986039702583632 14.0922438887823223
 21.5892934548037871 24.6729452925443375 17.5015510192554018
 21.6662172962046142 24.6731385218316888 14.1414501962315509
 24.2863941932265881 22.7534711129655243 17.5735835698402276
 24.3781365533020562 22.7483575261947522 14.2125081404349629
 16.2126686849632939 28.5242452669390687 14.0749209855903583
 54.4080619205346281  4.7793609307705553 16.7381398202950891
 51.4954089947397904  6.8035056845595179 13.6237553133182026
 51.7022328225133592  6.6996667697455701 16.9736233714127351
 -18.6613004086643777 56.8699291356547647 16.7267606311013992
 -18.4360133481311053 56.7812856908713997 13.3808001366061937
 -15.9567094920675210 54.9484787107719725 16.9560489799972842
 28.3375962459146464 34.0375742253720830 17.4037222439162278
 -13.2495705387834697 53.0221730730658507 17.1723500290858695
 -13.0591964550038977 52.9287930358119141 13.8201119202511808
 -21.1423583167023317 58.7108304387147726 13.1552820653360278
 -10.5396515609363046 51.0912494198989933 17.3638063573987580
 -7.8275211257018054 49.1574523453090677 17.5214975545778877
 -7.7064788823324220 49.0839376611224125 14.1633165027004555
 -5.1146358411399229 47.2205221108194024 17.6400933300975282
 -5.0332261219835086 47.1630258563232516 14.2799685918542849
 -2.4010539205029136 45.2813116942142813 17.7162680682984472
 -2.3603514485859534 45.2432433625846144 14.3544917280088384
 -10.3813978898900885 51.0056223771144204 14.0084399993361153
  0.3131671604808733 43.3412434931050115 17.7474774359418568
 -21.3639684570969770 58.7865993799693456 16.4988157275407836
 -24.0642040355671760 60.7001795112901021 16.2891519639632705
 54.7224214753032641  8.0710691294649237 16.8278972227955776
 54.5148972248068375  8.1956336643449426 13.4810798375078864
 57.4235566727066171  6.1543688073086082 16.5865879996434664
 57.2159505493081113  6.2766296088671298 13.2418196836999780
 60.1232307548468441  4.2430743822323453 16.3561546970327889
 59.9317420565130945  4.3527181949895253 13.0132438082260364
 -23.8631526815769348 60.6443463707064154 12.9466299043656932
 62.8205959395444822  2.3354967088966401 16.1579047677422238
 65.5161036657229801  0.4307667367808247 16.0130608441273878
 65.4144455664622910  0.4874568054885698 12.6699450081747091
 -29.4569997419890193 64.5171874847610383 15.9997611900595356
 -29.3523366927465190 64.5231704320897137 12.6567826029157509
 -26.7618220088718850 62.6101823528057935 16.1162726699630525
 -26.6001433809929253 62.5816676643186298 12.7735630778844325
 62.6647732076069204  2.4230032046468897 12.8153366208609203
  0.3132253329528296 43.3242895229001732 14.3850547339488379
  3.0260940828041285 41.4020970993592030 17.7351366159844588
  2.9892913541543424 41.4051170542519884 14.3729052321047117
 30.0846455339996020 22.1732046826522406 14.3527014104836041
 32.7318770355024213 20.2585030592017183 17.7624401862457084
 32.7653391587659186 20.2526563169154166 14.3996082833702701
 35.4410402570659855 18.3167389836322840 17.7729693540966665
 35.4407929565961908 18.3325452190101181 14.4100379061978146
 38.1521482199974500 16.3747207473799499 17.7409567225653397
 30.0257277348888998 22.1975914802996961 17.7150776142019666
 38.1139751340486157 16.4117669745856851 14.3786483618494572
 43.5756909695523902 12.4944880457396206 17.5464433659687202
 43.4607182206352505 12.5697545708212797 14.1879676122184879
 46.2861790963194153 10.5582916939226141 17.3877237538335407
 46.1351951958289632 10.6487522457702681 14.0321045161341953
 48.9950728626469072  8.6263142586281223 17.1939534719624874
 48.8122544579902566  8.7267713991631695 13.8414038620080770
 40.8640498176055900 14.4337088155723912 17.6650530397220642
 27.3947770200440743 24.0947036225261577 14.2811898858355697
 27.3241356214022275 24.1306568483131691 17.6430815630735012
 24.6909669005855505 26.0178801924571452 14.2035771848103956
  5.7352270790362390 39.4671983355906235 17.6862133167722746
  5.6709503630407943 39.4851801567573872 14.3243483325641030
  8.4392402836543177 37.5392053811791584 17.6150382736529210
  8.3627553478330459 37.5633350656507616 14.2535238831153297
 11.1395461248263619 35.6193075287319658 17.5413280067866921
 11.0689558724325092 35.6400808950331083 14.1806594737102465
 13.8379395639496217 33.7051053350962206 17.4840126509281930
 13.7883929869421280 33.7159790740682013 14.1238486710731674
 16.5354140854360558 31.7939444488128089 17.4551784108088057
 16.5157906082496098 31.7914164513742534 14.0950219904511176
 19.2325919821227522 29.8837371686380600 17.4603155967507675
 19.2459145507439224 29.8666926917041700 14.1002623606617412
 21.9296986856072671 27.9717294310769091 17.4991003159331520
 21.9730103166129318 27.9420082145222501 14.1389780999755530
 24.6265564487747852 26.0551588247696024 17.5646448825760011
 52.0204155424605830  9.9943224362673728 17.0624984075802537
 25.6161023844735389 35.8206561172639510 13.9745890251480276
 -6.7494770777180673 58.9926973758287758 13.9812291447878074
 22.8848537633341422 37.7446768527570171 13.9324306599982748
 10.5589126820255181 60.5934942666482996 13.8578666300173285
 13.4283671205798960 58.6977309172426018 17.0914153184177309
 13.2463896602066757 58.6475065489495719 13.7393709855948121
 16.1435783554315648 56.7744611249206272 16.9604383981312488
 15.9397185303896691 56.7017867975399383 13.6109651661318551
 18.8521975065328178 54.8554445038953773 16.8333611758616506
 10.7081180822048871 60.6230973249463645 17.2131997374641230
 18.6426180526090057 54.7566084959767920 13.4855498225631099
 21.3588154886202908 52.8131965258414127 13.3805421548833348
 24.2544855496997975 51.0319201269907694 16.6598121732975955
 24.0884337245113755 50.8728971333078164 13.3130091532793511
 26.9528427758817024 49.1242708440889402 16.6397187121115593
 26.8274803675336635 48.9371632315069931 13.2928996043473564
 29.6492886598398400 47.2160638186847024 16.6713179994279344
 21.5549129758775351 52.9415600883395783 16.7277415352259986
 29.5694814352849349 47.0075083557798550 13.3240295784708120
  7.8752764865667366 62.5394874868670954 13.9587339134191755
  5.1940109108509356 64.4856903813566049 14.0364814742966217
 29.8748816885281556 50.3080958350388840 13.1206325083011368
 32.6611111461461618 48.5945132001608044 16.5325230349051679
 32.6203188350840847 48.3804337633811201 13.1863127156845295
 35.3549915906170185 46.6819616715037853 16.6460902466732179
 35.3580432728069098 46.4606122636289953 13.2984712638118268
 38.0470733733459454 44.7643328493624821 16.7930203337267869
  7.9843238155105114 62.5500435194320303 17.3168411811798144
 38.0837588849264890 44.5484364208813801 13.4436066385593147
 40.7952095281653442 42.6442821717029759 13.6046164804668592
 43.4337710724207895 40.9114826305182007 17.1147872649275818
 43.4952203912313067 40.7460220917976699 13.7614990577706990
 46.1294472915854286 38.9784782400935015 17.2549786351882197
 46.1878927109486028 38.8509968920308495 13.8991428683351383
  5.2586206084694984 64.4779989882885332 17.3962378385709258
 40.7395063589418953 42.8407178589865865 16.9557284674264110
 29.9658523773223564 50.5032006266128946 16.4662540229021879
 32.3444082053571691 45.3045180063185455 16.7503050186090690
 35.0383327572521566 43.3881811445942560 16.8663845095353331
 10.2550626246603702 57.2755997818143499 13.9138246183717342
 13.1179277590609402 55.4091875274198031 17.1682486935262304
 12.9417185828776553 55.3322523876914047 13.8156903275809810
 15.8298979156918307 53.4858747021760905 17.0588283387111979
 15.6349030403103519 53.3899228928753899 13.7078149211187945
 18.5348758688286210 51.5675451892966095 16.9552761846085431
 10.3994690062717723 57.3353597080722039 17.2687560007247072
 18.3390409417359379 51.4490834477339334 13.6051281705304365
 21.0572231696678891 49.5110320084405942 13.5257144649878516
 23.9338571468113805 47.7448525475077403 16.8312203713767268
 23.7880972644130857 47.5766351360451836 13.4829422503681009
 26.6312932030376999 45.8359651658151819 16.8328421486774111
 26.5257618703231159 45.6460027547401168 13.4839411049729758
 29.3276278107776065 43.9255059663302845 16.8799558787860668
 21.2352742854883374 49.6545856910398129 16.8747087823610080
 32.3082240471258757 45.0844858801774606 13.4021876649936669
  7.5716625392618919 59.2206605636826851 13.9935576913885598
  4.8898725841695079 61.1668494128977116 14.0494632712336447
 35.0377615235504933 43.1672658315671711 13.5164255667369755
 37.7314263151391884 41.4655116654383846 17.0045815839359271
 37.7538914393178118 41.2568151751105958 13.6525782327732887
 40.4256329951047988 39.5364366745239977 17.1459191379847766
 40.4574204546158356 39.3533018301618824 13.7921029399363331
 43.1211431607071276 37.6029799559225637 17.2733882744634322
  7.6764164901678056 59.2630450751467208 17.3507794402227482
 43.1521427752991187 37.4548402450034104 13.9175757506330715
 45.8409219157016565 35.5592343226203056 14.0178797663917560
 48.5132063102712365 33.7277926606144192 17.4463320633037746
 48.5263370401731891 33.6655500107416827 14.0867080889452421
  2.2232777054701063 63.1203148253807527 17.4398959662655315
  2.2087561247871155 63.1128541862571737 14.0796092272768245
  4.9503903083736800 61.1917904080926931 17.4088100646380965
 45.8170799461188381 35.6663952253974301 17.3757747636115951
 27.1282948141173037 52.2436768994915042 13.1114917220625973
 27.2688822963634472 52.4098650557983845 16.4565782804805210
 24.3880206335717880 54.1845744910543132 13.1592872937387373
 19.7768268370970404 64.7139382914547667 16.6547721224344869
 19.5497190158796847 64.7344958110793840 13.3082263842978890
 22.4841672142120004 62.7995281593586085 16.4611525465914283
 22.2611389279414347 62.7914395047008114 13.1164570913890035
 25.1874978316083009 60.8891948163475050 16.2981919387427752
 24.9879995580689389 60.8459474610720932 12.9549156397576919
 39.0585987147503388 54.4888772378269763 12.8711206812537871
 27.8878212783042123 58.9817977519066119 16.1849816845200571
 30.5866310068586778 57.0759315103676101 16.1347405020023302
 30.4827100265554911 56.9563199486070673 12.7917394411144976
 33.2834302759761869 55.1709276790627499 16.1540134019251802
 33.2410482523207023 55.0173567919607649 12.8107856993899638
 35.9783771459943225 53.2641025106556896 16.2411113692059672
 35.9946582332007310 53.0855849847387660 12.8973861952053355
 27.7297205870771677 58.8998776490783840 12.8421552233082661
 38.6720126806735678 51.3541731741539635 16.3842564550548815
 38.9800258488297899 54.6461484195846197 16.2147238899754065
 36.2854251952455300 56.5536837092716596 16.0871097215950556
 31.1979318468451154 63.6514861563038465 15.9948952533398039
 31.0933485750545593 63.6478412088977592 12.6520507334091405
 33.8941476636150583 61.7473994818686336 15.9509222035927785
 33.8554492862801126 61.7050796500732233 12.6077793802396183
 36.5899441141112547 59.8428986799169351 15.9834589418352557
 36.6188593178774227 59.7636194769862996 12.6401695864962722
 36.3083717144749798 56.4189884341474723 12.7437599397816239
 25.4939697713481905 64.1757289332634997 16.2669242194825046
 28.1942476697549083 62.2689393458184313 16.1201750282685019
 28.0331283457005433 62.2434271744556256 12.7775789782958498
 30.8925725646391491 60.3635888693312381 16.0364236032199550
 30.7869125305972986 60.2988230891343804 12.6936076581218167
 33.5895348512387315 58.4587015156872241 16.0249547208405261
 33.5479886379223586 58.3564212473842261 12.6820403518497891
 25.2924565415170726 64.1873476077084320 12.9241133158305264
 38.7370089026155497 51.1622764291222865 13.0396535804938871
 41.3640096917203834 49.4407576320011941 16.5675007312759597
 41.4654281752903486 49.2483043068679720 13.2208528858676946
 41.1315946209145196 45.9417090514418263 13.4107599361687626
 43.7448858513988057 44.2180096652202224 16.9446046313029264
 43.8375153346891011 44.0415936238279286 13.5936841968759747
 11.0145400829781490 63.9085378843634260 17.1895082826084327
 10.8626617683198425 63.9146474791710872 13.8338896108405862
 13.7350224383758626 61.9838754425688521 17.0451252563800715
 41.0521086754952691 46.1424125082211205 16.7594155951329178
 13.5493902290111397 61.9693927877961173 13.6924371302862262
 16.2420619791854932 60.0231200147352268 13.5404316413836021
 19.1633174639879655 58.1424102481638698 16.7362271217802423
 18.9441980855280789 58.0762099234515858 13.3895235066590566
 21.8686992547910890 56.2277049804257345 16.6017812416058916
 21.6589917359426956 56.1293374722796514 13.2563498272047280
 24.5699340150337733 54.3173829430452741 16.5040752674227171
 16.4519092814526786 60.0612312714188121 16.8897949609471603
 38.4115055755498673 47.8492706507834171 13.2354254035384713
 38.3608577897429086 48.0605778134438921 16.5820839951554539
 35.6774028060273736 49.7659907117647435 13.0876950749113536
 16.7580955163915561 63.3469145180612969 16.8551841933544360
 16.5451621613339981 63.3491342355736009 13.5057623792747474
 19.4704324906735948 61.4285184561922364 16.6747325907708479
 19.2454592400512894 61.4039538121206547 13.3279324155272008
 22.1776007544206095 59.5137297173431321 16.5098938960049040
 21.9589126261692691 59.4567957445633795 13.1649598464667150
 24.8801477348417137 57.6030827421985805 16.3798341466536108
 24.6872887148781466 57.5097863018561455 13.0361863562657998
 27.5803080039544604 55.6954733506382738 16.3003791915307588
 27.4287138262238983 55.5654623134660213 12.9571965899821517
 30.2782633545777564 53.7894158455452569 16.2818128956754506
 30.1791233900555440 53.6251490380692175 12.9380620115513914
 32.9738714697239601 51.8828258142288519 16.3281356158823030
 32.9317017459823376 51.6912631151658672 12.9837311880057946
 35.6683288628696502 49.9736211062609925 16.4328846281990693
 29.2639064331683976 43.7203323618614306 13.5305138567783168
 32.0232784825563996 42.0114618766660826 16.9665173968772756
 31.9959258552021204 41.7993996809234716 13.6159585760543482
 34.7176488847157216 40.0914375787036263 17.0805808281209792
 31.3676654751025659 35.4164443366811668 17.3459990332666578
 31.3672529295214986 35.2493324853471606 13.9890499737690064
 34.0648942593445270 33.4886322524849973 17.4449865504333204
 34.0706583275326480 33.3336972063189165 14.0863994428229056
 36.7643620862919889 31.5535315526043867 17.5331377940340580
 36.7617041227542956 31.4211759994600399 14.1731776464073675
 28.6493952385102588 37.1684430682108768 13.8998278031510090
 39.4658894659591155 29.6133370958764175 17.5948816019811822
 42.1679204927993823 27.6703873985499875 17.6205914397938344
 42.1246027493230102 27.6041236409589956 14.2587475865162343
 44.8693549812736663 25.7270821799643983 17.6068419845672572
 44.8042670007057708 25.6998771482383290 14.2453251627928150
 47.5702799427969794 23.7849555760339477 17.5531662892167724
 47.4849387362696831 23.7986255756757927 14.1929596584449076
 39.4448513546410311 29.5114210578481355 14.2336682991607884
 50.2705615165845572 21.8453016417045056 17.4606205957220375
 28.6709280416552552 37.3364032668522583 17.2549616080256492
 25.9739360712359364 39.2503405717694278 17.1879529945293150
  7.0482342438029963 52.6801609187084452 17.4909037836695056
  6.9540225515742167 52.6031918293525038 14.1322626959947133
  9.7649237222207699 50.7502597545317968 17.4383999519314621
  9.6349322746657791 50.6684531712173438 14.0808910538532679
 12.4762260392993980 48.8229939480196720 17.3648973127199895
 12.3208963113006664 48.7358401567299282 14.0089029512150898
 25.9206015564765586 39.0908760126603596 13.8338799380978212
 15.1811452656365677 46.9004147475313289 17.2830766119605741
 17.8812568796835123 44.9834778852394450 17.2107467797104547
 17.7279165252697695 44.8743989066919582 13.8569361553934307
 20.5794480290488977 43.0711084180355428 17.1649494596917442
 20.4535522224015267 42.9447530846949732 13.8117178972827439
 23.2770879174459324 41.1610246701114448 17.1563564518001392
 23.1866287068687100 41.0166674910088602 13.8028314154686296
 15.0167688697503969 46.8048454722513299 13.9283703683155426
 50.1667744680227869 21.9001202759152207 14.1024619343565725
 52.9700229542452234 19.9086747999740901 17.3313759225753721
 52.8503360801541291 20.0036448247688590 13.9757048308312566
  3.9598302421089393 51.2417747674884509 14.2315924906663298
  6.7261414098720076 49.3833835522629769 17.5729725922998234
  6.6369583481712278 49.3111687999653157 14.2129605286935945
  9.4388636561134476 47.4515434177358699 17.5233004624290132
  9.3177082540942511 47.3830667743636553 14.1645788755289423
 12.1459956369175242 45.5233955128074541 17.4526820292819949
  4.0090044642912073 51.3165068454473499 17.5923395705152430
 12.0059653885918944 45.4554427098747169 14.0949826074537530
 14.7071470702029767 43.5276309156176779 14.0199000957785458
 17.5476191477256549 41.6873920429387113 17.3150397402043694
 17.4241547637617806 41.5991619521954448 13.9592216262467996
 20.2456385522911084 39.7762476501821070 17.2833364369265325
 20.1522030127705563 39.6712106675125824 13.9275660287460692
 22.9431102159456692 37.8660630371913669 17.2887157404032479
 14.8482537248060567 43.6021932354841724 17.3766313232091498
  1.2833056423614526 53.1755088911972322 14.2173996495963664
  1.2889909989411326 53.2500798467378544 17.5778974903446503
 -1.3934317145773856 55.1122683554858597 14.1700512158605161
 55.6684618294090043 17.9756631514371499 17.1683484620985354
 55.5363626396361454 18.1082306578472014 13.8154483608434244
 58.3655028775585549 16.0475962483271530 16.9770754679787714
 58.2269555899607099 16.2124049949512461 13.6271840401975339
 -15.0318315856654650 64.8203501343686952 16.8678697884274378
 -14.8055348028454841 64.8242348681251030 13.5194582730855277
 -12.3180912652888903 62.8975737011357339 17.0400705852427734
 -12.1155147744022020 62.8794813167778841 13.6888561993792450
 -9.5997299451613447 60.9720772132240612 17.1994691467225387
 -9.4307654962399941 60.9356503444492361 13.8454784108955096
 -6.8782823112583760 59.0440343375361465 17.3375716033374871
 51.3879829751451496  3.4096280889598214 16.9024314074544826
 -4.1554830932507505 57.1146063921660101 17.4487393963475341
 -4.0706714072952961 57.0514930170012704 14.0904716676207400
 -1.4327445295487293 55.1831715783826624 17.5294946383667458
  4.2752122765920646 54.5406782310402534 14.1563860841833975
 25.6404543652867893 35.9540030553669325 17.3312558357827342
  4.3275400978384946 54.6116012043835823 17.5156308797918996
  1.6041278509650279 56.5430495920629781 17.5098750500713258
 -0.7763174537759913 61.7408058452376096 14.0836921978618044
  1.9148611277377345 59.8326211895467637 17.4612516246916734
  1.9044314623435505 59.7951070719768225 14.1015759297455325
  4.6409444563983113 57.9031426276476395 17.4506046916619937
  4.5850343821125819 57.8503187011101190 14.0919622457542051
  7.3650182745407653 55.9733709280435505 17.4120620869093088
 -0.8122527150606673 61.7621598266063430 17.4437475055548425
  7.2654035917661082 55.9070609474275102 14.0548850302821950
  9.9474397260078806 53.9662828180262721 13.9923670332033971
 12.8005385118074599 52.1177954437224713 17.2643710547519298
 12.6333628588822187 52.0276873725673923 13.9100768782575059
 15.5088257843355422 50.1952221443592919 17.1719366088114711
 15.3270010816101934 50.0907704707996473 13.8190057374616941
 18.2109827053512703 48.2775323379026133 17.0866977829617532
 10.0855430366819476 54.0444954092118337 17.3481679379177756
 18.0333594317590880 48.1558060839856665 13.7348493827788012
 -3.4567426408579052 63.6867171318882512 14.0386660128070879
 53.5444530517752071 26.5889645385208908 14.0895614429172706
 34.7165419823892947 39.8832949305794884 13.7280014252023914
 37.4125499513423634 38.1639713168348749 17.2048055103834798
 37.4234365236095528 37.9729662352273749 13.8502338909396929
 40.1090199522470741 36.2302017347409517 17.3205513054676246
 40.1192649196654401 36.0681301247996373 13.9637602932795808
 42.8060966771650300 34.2923932121467914 17.4139368509536574
 -3.5385506399073350 63.6908604123981021 17.3980599326849763
 42.8084167470950732 34.1677803989512654 14.0553830324595896
 45.4939489528405261 32.2704147451546532 14.1171889827102870
 48.1997844048247046 30.4124467006732715 17.5050063815826533
 48.1775191147711723 30.3752413959782146 14.1446794562416418
 50.8969444572953904 28.4727147380339005 17.4958536760331569
 50.8605346645713396 28.4815335008864210 14.1355933589688849
 53.5940381559395576 26.5340965858666280 17.4490542768383889
 45.5029562222562163 32.3526181586392880 17.4768143101029452
 20.9097656445416504 46.3645639571710575 17.0257490706963921
 20.7549603912007079 46.2232053913471077 13.6747060121496329
 23.6074853076686715 44.4541051585253086 17.0012556754484727
 50.5841569300064862 25.1581146771970126 17.4886226428806317
 50.5129306696757467 25.1905735932116350 14.1291084595107748
 53.2825449134093176 23.2204623508306582 17.3989307315154207
 53.1968886122913318 23.2965345370571058 14.0410657702688813
 55.9805284287016107 21.2852008253395404 17.2739938209071120
 55.8826856399493082 21.4034645568806816 13.9184148160399435
 47.8300687916935630 27.0862805286060535 14.1803861368753132
 -9.2922672736660719 64.2596964760351028 17.1975031777766496
 -6.5705281280986343 62.3323705669798684 17.3154320866820939
 -6.4427714135471650 62.3123596632835728 13.9582285451332968
 -3.8462437638438018 60.4036764487528615 17.4085866723476919
 -3.7621238998214315 60.3676819723416358 14.0499287070882914
 -1.1208248962881602 58.4739419749530427 17.4738120844547851
 -1.0821600352808727 58.4236588168785289 14.1147369222131456
 -9.1248015596165857 64.2581285631886345 13.8427472148534747
 47.8857227130997387 27.0977903408688761 17.5408108312344737
 45.1477391635280014 28.9840241917979213 14.1939381689754889
 45.1871132189613647 29.0391811774401845 17.5549030859855471
 23.4874348037500162 44.2929995655778086 13.6504707607418716
 26.3046974998572765 42.5442086919979872 17.0191968121514847
 26.2238565960645040 42.3654823683197961 13.6677948555150053
 29.0012649908580578 40.6322511261911572 17.0777463723254144
 28.9573662126232385 40.4416077773184810 13.7256943506297784
 31.6972062064124778 38.7154786392710122 17.1683443554822794
 31.6824249206378852 38.5217426408769228 13.8146164564633551
 34.3929265773844222 36.7914880148090262 17.2763942761255862
 34.3944058359669356 36.6062724361082203 13.9206574012981470
 37.0900853381353457 34.8598795039718183 17.3833012483293139
 37.0925521041899700 34.6952321730713678 14.0257609785022730
 39.7888305843241810 32.9224163662926372 17.4720093701329766
 39.7814554680091064 32.7881182105570446 14.1127223162724480
 42.4881182652033900 30.9813370859749675 17.5312429627810680
 42.4654855560452447 30.8845251068145537 14.1705576778883309
  1.5968251857939935 56.4809031454665771 14.1503566902764053
 51.1752229820913200  3.4886701955813888 13.5529944787335292
 40.7869212861714345 14.4908370665361304 14.3042713947340854
 11.1818712961057063  7.3488997319733764 16.5296526900293088
 17.8771675500635752 16.6930030065569959 17.2432548588809702
 56.2300396725873952 24.6968282454456336 14.0081367771450456
 15.3049197804760908 18.7127532397234155 13.8320005340044787
 15.1817798319495889 18.6065712092922908 17.1868929963119079
 -10.3626744801854542 22.6630348742483960 17.2492603609822233
 12.5732270285404972 20.6401028275585467 13.8102072038326114
 -10.4329863716611175 22.8047470472474885 13.8939159262351168
 12.4862479223560534 20.5159497755456677 17.1652465365975040
  9.8398103010402469 22.5658524145805437 13.8285750297471299
  9.7905018077701662 22.4243477048612370 17.1836710340629786
 -7.6661394513729668 20.7327291623024017 17.1039202542628317
 18.0279663443491103 16.7843888955561162 13.8877471760841953
  7.1112970021760029 24.4890237342228438 13.8844059117487681
  7.0946174493417420 24.3346379646002866 17.2399007246922729
  4.3927629053086221 26.4089388067579307 13.9674291882583859
  4.3982391439232034 26.2492957942510863 17.3238937262797208
 -4.9717436299604909 18.8079379689471899 16.9401032136447149
 -5.0408543654815805 19.0147670180034751 13.5899431916841014
  1.6879810834354696 28.3252720953347144 14.0621827182312824
  1.6999671383684936 28.1708043217638178 17.4200639930087995
 -2.2801025130367454 16.8901418947587949 16.7746778140569681
 -1.0037067880033361 30.2379689487449532 14.1493807253220822
 -1.0009232652291986 30.1004848959233584 17.5084674056991929
 -2.3285414230269423 17.1112474069750142 13.4260916034838118
 -7.7407486396299809 20.9113822581465953 13.7513427384307718
 56.2911067230788191 24.5972156514598019 17.3660163234411478
 20.5737017516299865 14.7727392285227168 17.3217226274142284
 20.7364788822018049 14.8546928132790175 13.9658496292474759
  8.1801944502853203 65.8598149839726688 13.9571139692655954
  8.2914707736785243 65.8348787880868116 17.3149707321256479
 17.1112637714199920  6.9046515110430677 13.5214139755944824
 39.5120419120094439  1.2954199584404407 14.0563572880255947
 39.5797827727355482  1.2540056935357067 17.4157867443670114
 19.5995644933405764  4.8872836071705947 16.9931045060944896
 36.8322370812516553  3.2382515646505050 14.1283319821256690
 36.8558177815176222  3.1833561955389613 17.4887417966819854
 19.8122763650241716  4.9611960139156359 13.6434004523441619
 34.1530898296906429  5.1796737698885691 14.1713866974521157
 34.1324040997268554  5.1147056633512458 17.5316052248014458
 22.3110808571571546  2.9628032552202748 17.1171684356806431
 22.5047533241522224  3.0163793323073116 13.7648092996990989
 31.4747379705877570  7.1195955499366477 14.1837426032478771
 31.4116920975745693  7.0475212891390600 17.5434866489703722
 28.7967933841393311  9.0572302291715587 14.1655727365447337
 25.0282014464143572  1.0366623667568688 17.2306723163683415
 28.6945959250808826  8.9807725266708704 17.5242288952181227
 25.1916029789061291  1.0706967077254843 13.8756314690744560
 26.1162847767523303 10.9922061516475029 14.1187461842325135
 25.9821728809496406 10.9141000357405069 17.4762780540978362
 23.4310089426154100 12.9243484174266801 14.0485837601210211
 -6.2627550522321220 65.6186274535998706 17.3259329761417114
 23.2749579877179791 12.8455822028055273 17.4050439467764839
 -6.1375633146896922 65.6331972400597436 13.9683884835978347
 -3.6878377321765008 32.1469191422345162 14.2113553775937564
 -3.7038319663989414 32.0364192313884146 17.5716994037752983
  0.4100270440661557 14.9783906523194492 16.6290658080733387
 -6.3690340056657151 34.0523397966042936 14.2383168936648161
 42.5004434311966932  2.6688875182601262 13.9892029169573000
 42.6133341987316498  2.6108931492268725 17.3470205690344805
 16.5804943471715163  3.5188014927118645 16.7653545265951855
 39.8213648859559939  4.6088548515779575 14.1052338458069570
 16.8092022571843600  3.5864758608436484 13.4184046332736866
 39.8916598164363023  4.5412440987405489 17.4648374002647380
 37.1434394097712755  6.5468088744453121 14.1908868885364434
 37.1708511309236442  6.4733995001200375 17.5514399930724636
 19.2883293710323400  1.5984991654931746 16.9131391694428395
 34.4670252077090566  8.4832965413567987 14.2440970621361060
 19.5097990709464035  1.6409169347347894 13.5639392685410929
 34.4520224355946354  8.4075450348723244 17.6048683277890099
 31.7912582838514481 10.4173018680054899 14.2634369019491487
 31.7357495760187014 10.3433094780714896 17.6240222962277251
 -12.0100808068115619 66.1848143237616142 17.0605744699787110
 -11.8104203845331384 66.2042804386589836 13.7089387179533588
 29.1142750802236350 12.3480277291910205 14.2483643325223390
 29.0223407987319995 12.2798171336536033 17.6084086473202852
 58.6775495180275044 19.3537760518575332 17.1178694553048523
 26.4339306666045495 14.2768532467986837 14.2016918693730485
 26.3131756027956030 14.2155634024913784 17.5609932770226500
 58.5719475865261430 19.5108823240612921 13.7649985642750536
 23.7468323394722667 16.2044330367427527 14.1318370429527036
 23.6092039958414155 16.1474608885000706 17.4903079572885432
 -7.9782345828762029 17.4275236459558052 16.9378396802225346
 14.0968888995256005  5.5308993315965482 13.2862431832116741
 16.8947015867047909  6.8089665855658374 16.8696157640277313
 45.3340819510815720  0.6837749659247615 17.2013763746867916
 13.8789428295044193  5.4356045397506270 16.6322342490755908
 -6.4068264858363406 33.9757088524917776 17.5995129335552676
  0.3988821403445378 15.1988846234430390 13.2819729866144449
 -9.0493523001094331 35.9547495011953941 14.2270745732294301
 -9.1083401624813174 35.9162446847702412 17.5882394479016853
  3.1009405422165641 13.0705659804822236 16.5222542474004186
 -11.7300369824803496 37.8544247509695424 14.1771249827741315
 -11.8089002889216861 37.8561110542834669 17.5371942440890649
  3.1390459857839779 13.2776435314531298 13.1762388500554692
 -14.4117278233886505 39.7523452041579901 14.0886742795310234
 -14.5085475852992172 39.7947566954146126 17.4471266059425716
  5.7930798477208922 11.1647039507694359 16.4680597243436218
  5.8862749604554150 11.3484872695409109 13.1224626313563988
 -17.0950279851864444 41.6495795545537248 13.9639529688400241
 -17.2071265438094834 41.7315602919326736 17.3201710432174458
 -19.7816704182499699 43.5464856640213398 13.8068635722809425
  8.4867748697241812  9.2581739911379461 16.4718031512825931
 -19.9049871057089689 43.6655912027376516 17.1604676685705257
  8.6328082910952730  9.4136103446370551 13.1267524098874357
 -22.4732618883754327 45.4437219721437771 13.6229664421359082
 -22.6011239431611024 45.5961821421263664 16.9740065029368949
 44.1778709553986388 47.3430716483755489 13.4224008375283788
 44.0560557304851343 47.5216541011863498 16.7708570326624802
 11.3711558211029296  7.4738977928476951 13.1845331889666948
 13.8538747477899822 65.2931549638309576 13.6822326565131007
 14.0413280064602475 65.2684456420434742 17.0346176847804323
 45.1810791578559474  0.7272950992335989 13.8462323187527847
 21.0478796848869401 18.1316159620821757 14.0526755010358233
 46.4399254655082458 42.2883412033235118 17.1191331200130108
 14.3987291967416056  8.8459038705184749 13.4137929893284298
 30.7827076272153910  0.4677628853237533 17.4196755028104384
 -12.4237342847611103 31.2784180388266613 14.1353417175383047
 30.8599088622656801  0.4967034365106953 14.0606108468863820
 -12.4364798815963908 31.2258060572915888 17.4955101652136520
 -15.1069322568111168 33.1716096642758131 14.1292940235261355
 -15.1333469140691061 33.1647348320874187 17.4897534076537013
 -0.5036865549231466 65.0487325942232673 17.4434619188489606
 -0.4717053401997215 65.0592814980251433 14.0830897868355702
 -17.7905664088152697 35.0642680315462840 14.0865073450941960
 -17.8297534061453327 35.1038783462138539 17.4465155845385596
 51.2091353409300609 31.7882949606477894 17.4815216741068049
 -9.7387907963456488 29.2878191045411000 17.4639030555036605
 48.8755391631855431 36.9572840012017991 14.0089370429266822
 51.2102474919206330 31.7729928941116277 14.1209425893791085
  2.5136637998245868 66.4314990564061247 14.0888896619689667
  2.5324973879615733 66.4061556615912707 17.4489189554961506
 53.9053814159057865 29.8490104298195895 17.4796761242533769
 33.8454677582824530  1.8675551751705282 14.1143708376518369
 33.8190171085308933  1.8258009895139389 17.4743702618190717
 53.8938593530299883 29.8807911010950527 14.1192640443571680
 31.1652069255716846  3.8117746016597867 14.1119186693453447
 31.0947347542039765  3.7557651286417659 17.4713747919413720
 -12.7488224565828663 27.9107459091794787 17.4408481626137046
 28.4849217212926789  5.7542597646962426 14.0819065531578858
 48.8251840450542005 37.0421704769394324 17.3672874676274880
 -9.7398853445809461 29.3845666390198126 14.1049585523414844
 -7.0405967890562975 27.3514842416172250 17.3968791285844482
 28.1788033811546335  2.4424760825165714 14.0123034048795194
 14.5190789413827748 12.0180044405887507 16.9069869187714161
 17.2159317881722025 10.1013911183846794 16.9944504805949350
 17.4158192053406857 10.2106264034016654 13.6439986677963461
 11.9724441463169118 14.0804839508317663 13.5019793193024267
 11.8238356706032750 13.9293158119248215 16.8514595634085502
  9.2358342708112477 16.0114190411913526 13.4892441858172187
 19.9171105226208738  8.1789966046177440 17.0979683243776499
  9.1296121235671635 15.8371792475263078 16.8391745775906259
 20.1173126741180788  8.2717477380842119 13.7467623547816729
  6.4976764229039068 17.9380337259639013 13.5230523764256763
  6.4358055623702040 17.7443398173114204 16.8734064414816025
  3.7642964821809981 19.8594687519497626 13.5987179748741394
 22.6250551272115139  6.2531646070917368 17.2022225571523215
  3.7421364904344454 19.6539099332193175 16.9496422648793370
 22.8093697428302882  6.3305986270748660 13.8490802932464003
  1.0415528064103239 21.7755523771537192 13.7052257127886588
  1.0486100709493476 21.5683119147628091 17.0574970055272352
 25.3392087812109139  4.3251091296024073 17.2954415550926051
 -1.6668673581195321 23.6858788532745059 13.8267591523878188
 -1.6461397822652970 23.4896944582250882 17.1807570721119305
 25.4956668718865913  4.3872546192230599 13.9402628671925282
 -4.3638213185454005 25.5899862998891727 13.9435959020730440
 -4.3427150917397048 25.4180443515726999 17.2991846315621345
 28.0592011039967240  2.3960939046967469 17.3698792336626049
 -7.0538217393368576 27.4889873521399650 14.0395795917758530
 28.3732860092674599  5.6863902194854594 17.4397856635451767
 -12.7726947186218514 27.9884556641935482 14.0815859626522943
 25.8033860906384298  7.6955563763808499 14.0259211134293746
 25.6569428469189340  7.6174280601983027 17.3819805832633314
  3.4195693806883023 16.3608673227814485 16.7364636741645789
 -1.3355161744879074 26.9637958605926613 14.0020258048402031
 -1.3251833416645447 26.7940303102397195 17.3584216087160179
  3.4516499814373551 16.5751574454350781 13.3881659918251170
 -4.0255677537216403 28.8705819659629412 14.0913303031618735
 -4.0248658759136644 28.7266186350898955 17.4495379709983993
  6.1119525821072145 14.4534181200854395 16.6683074551377111
 -6.7107341935589409 30.7725682706924601 14.1520658545607940
  6.1920100516773031 14.6503754584102843 13.3204338780161518
 -6.7249586341943122 30.6633724940165244 17.5116877553400769
 -9.3938014210237242 32.6708999876407944 14.1782974171417013
 -9.4243740987664211 32.6021446458633264 17.5385475446842989
  8.8051953333829509 12.5470178798153533 16.6507347091805613
 -12.0758173845361849 34.5670385039197541 14.1674633993182475
  8.9345296165849799 12.7195393866322792 13.3033240496270277
 -12.1228019388439758 34.5415670543735445 17.5279622797923480
 -14.7579728849699432 36.4617858894998363 14.1190855637326447
 -14.8210371553993703 36.4804585654728086 17.4787939936369696
 11.5000221282456252 10.6385943599011021 16.6843100140652254
 11.6720469299895697 10.7842611826689154 13.3371334835126110
 -17.4415892134903601 38.3563433760640464 14.0338302030957518
 -17.5184671148703401 38.4184186212947480 17.3921423808973117
 14.1959913557023842  8.7262031731767742 16.7615066408728950
 -20.1275582263181008 40.2509017694384070 13.9144116777289764
 -20.2149665195296073 40.3548364883785950 17.2707511287615070
 54.0968151135706279  1.4909790943353485 16.6774135147088280
 46.5334480939261681 42.1456332797325999 13.7653717360016330
  1.3727028250536912 24.8683693037224565 17.2517547169003436
  4.0681999189963403 22.9502540776540194 17.1483988642154905
 -10.0515300174759634 25.9745571420517543 17.3661513429865515
 -10.0864380263311126 26.0957880236178745 14.0089491294770614
 23.1181693490026312  9.6341031036548088 13.9490729649150573
 22.9464203691011868  9.5470173210246099 17.3036997533871784
 20.4258234029510248 11.5692270094870135 13.8596888945626215
 -7.3540953964229709 24.0409422260283101 17.2590894280300731
 20.2422099737749761 11.4741024246818455 17.2130416070651506
 -7.3971655072295741 24.2019346828436568 13.9039954443513754
 17.7217811790488717 13.5027667587809095 13.7708629506350384
 17.5435851301470862 13.3962951752353607 17.1238606230821766
 15.0029422820627580 15.4347002633902033 13.7011380798679117
 -4.6579674007338401 22.1114574576153693 17.1269167391300599
 14.8482275998373403 15.3116156567662607 17.0534947607429181
 -4.7024800742493102 22.3050409822003637 13.7739472316251153
 12.2725560638684073 17.3646218835932729 13.6641649077150937
 12.1534405120558286 17.2217245248438822 17.0165210385364887
 -1.9640731868998158 20.1880920459083981 16.9830842433040630
  9.5371735103082376 19.2919066833394020 13.6681415097040677
  9.4584814610981613 19.1297143121286375 17.0208736656618242
 -1.9982049722249675 20.4026501712040300 13.6316743233311790
  6.8035434778394439 21.2159561287440255 13.7140552410784178
  6.7632528560205865 21.0381868635012452 17.0671696886770263
  0.7278230200552899 18.2718500139578524 16.8462928218694969
  4.0777070595294553 23.1361917075553691 13.7945879353346417
  0.7198835609377084 18.4926247844493332 13.4966885264700434
  1.3642596889262921 25.0522937206930365 13.8966049215971932
 20.9104378562460056 18.0728629424974017 17.4106850494260712
 14.7008102467169763 12.1466795055032080 13.5570466570441734
 -24.8355352243557022 50.6536531371268381 13.2583257510008234
 48.1743697858179516  2.1060020208333241 13.7091364377712619
 48.3627496120305409  2.0449350036918177 17.0611467562167505
 -5.7124436959064937 12.4084990698737716 13.2139253243921200
 -5.7641334032399891 40.6000677462911241 17.6834280147240825
 -5.6947711674922834 40.6064189015439325 14.3217890057332031
 45.4916242911502167  4.0438977075561837 13.8909268961994190
 45.6458462271500096  3.9704711380529307 17.2464171048214574
  2.2075992766547992  3.3026654048899324 12.6847831438985885
 -2.9078509489645965 10.3021757195908581 16.3750282514069561
 -2.9826732460674150 10.4945911182278753 13.0309130183134485
 42.8132105614635705  5.9793741466804322 14.0476880794539287
  2.1665639800737386  3.2019363403528409 16.0279699851072444
 42.9274011025925120  5.8999927111835380 17.4056925578469617
 -3.0552383893275925 38.6590045127501796 17.7161798482807775
 40.1369454674369521  7.9133510650094951 14.1730591834839945
 -0.2167990803015062  8.3963475209483676 16.2351241619535465
 -3.0192504461458887 38.6940252715586297 14.3538909536522876
 40.2095586178460636  7.8329418377802993 17.5326752673911095
 -0.2381856109538925  8.5717296537257308 12.8915589025709139
 -5.5983924230379207 12.2110777519275207 16.5595847342095546
 37.4620701081670617  9.8454642989135674 14.2643415153648387
 -8.3707757777592953 42.5176023846425011 14.2460934348360091
  4.8605860736467452  1.2970437393060656 16.0441901978607362
 -13.8808553578034442 46.4165758542345586 17.3296695810085879
 -19.4376897171597882 46.8451612549097050 13.6907369570687703
 -26.4560562831976291 65.8997953528461977 16.1300117529098657
 -19.5937747313827586 46.9739569996543977 17.0415538871966490
 -13.7267991525444462 46.3349864151671298 13.9745116922568862
 16.2713032455374602  0.2305890020671426 16.6938531448663419
 -22.1310985105551836 48.7472859410447086 13.4791113033884145
 -22.2902605274118777 48.9004775958809219 16.8272282735494336
 16.5073032023215589  0.2601216576254733 13.3476948220621150
 -11.1776535241139836 44.4798764353734839 17.4872467847151576
 -11.0477083531177431 44.4270590252582949 14.1292522057023948
  4.9678753635109683  1.3617707976071605 12.7009257386645800
 -24.9846597475411869 50.8210047301994621 16.6045124083763014
 61.0604639360222450 14.1255376803576631 16.7680455526340850
 41.7952431930396386 52.5672329840903814 13.0485614835468606
 41.6735418101390991 52.7358281403717726 16.3931352567665591
 60.9257755832676651 14.3134864282723662 13.4208342010912389
 -8.4719886809536256 42.5407445775631103 17.6065135740689023
 50.8632445342105370  0.1662685716390033 13.5111364260674822
 51.0770621064005965  0.1228383624919093 16.8601427922719154
 13.7957911841062213  2.2051771498544657 13.1880387262958916
 37.4932409064799614  9.7679456676692737 17.6250219807240107
 -0.3459655150617273 36.7192931078199223 17.7048676277043100
  5.0289791763039196 32.9471833240004699 14.2189898905777490
 -3.2190988937244875  7.0107461940726692 16.2108933317669219
  7.7655901232278550 30.9336168124376094 17.4982290623473453
 21.3578254224545638 21.4033051654029904 14.1122719045233680
 21.2492200909525764 21.3732955611875397 17.4716255262936109
 10.5602518640964469  0.7703777575960751 16.3141779480923077
 18.6381397452132482 23.3293689238166913 14.0525473865650916
  7.7332738185941929 31.0273892901167478 14.1384400007802054
 10.7666421520342670  0.8159238744178068 12.9709266939649321
 18.5524416827639200 23.2881774855865160 17.4112396372446590
 63.3083854617494097  9.0899876138679385 13.0467338314946169
 15.9096581137014503 25.2557004083716343 14.0224104942172794
 15.8562440541623033 25.1987483486467241 17.3810872334817859
 -20.7520416915562720 65.3673953629134985 16.4748169013277241
 10.4633038906125790 29.0188593581828265 17.4293864578413817
 -20.5200636242442869 65.3811010766337546 13.1305146426450428
 13.1786997095116405 27.1813672795517576 14.0287934948239226
 10.4513090887093956 29.1055322646702201 14.0703695603680572
 13.1600753820378724 27.1079298832169329 17.3875094737712423
 23.9472857620858406 19.4505895654085172 17.5483783813955974
 -0.5530316369050342  5.2392843033237506 12.7419249666220580
  8.0261716950887063  2.7600401527218041 12.8561810430001486
  7.8630523953391229  2.6793145793105131 16.1992174279404715
 -0.3426540687621370 36.7803005241922634 14.3427946311244359
 34.7877056313457018 11.7752948046238899 14.3188589045335366
  2.4750417981447161  6.4917059511581066 16.1552926206612533
 34.7782713142528621 11.7056178769342818 17.6803207290620428
  2.5170549080263407  6.6403156971237856 12.8117173557914334
 -8.0838258154148459 17.6162421097668442 13.5878487171800515
 -0.5263614106175757  5.1061174226205175 16.0855797976939705
 32.1128646051317403 13.7028741491451296 14.3349647858251359
 32.0648065090409844 13.6447905171910371 17.6967130767995364
  2.3619693090715903 34.7836186210226614 17.6550853770701046
  5.1681956365303758  4.5862392809985222 16.1437252434323781
 29.4360292991663215 15.6286189796281043 14.3140012848149158
  2.3385156182807352 34.8648470387484650 14.2935487068415839
 29.3544860486405490 15.5835777147152612 17.6754908003137352
  5.2747561273846806  4.7024445334589116 12.8003533006104924
 26.7543379385449533 17.5534682195472342 14.2614099556887926
 26.6486596976325174 17.5196807462263955 17.6222278233747076
 -3.3048064947696103  7.1687748056298393 12.8673977632955019
  5.0658627600995318 32.8546605782924956 17.5798343729220576
 24.0631903733021346 19.4778709698936829 14.1883670556355668
 -26.2912868853810657 65.9275740805764201 12.7874525683117319
 63.4401689850184809  8.9172611890591806 16.3905778694144999
 -16.8955479721038415 45.0423572329703177 17.2339507978060311
 -0.6724413025570223 33.5093962322815102 14.2641319243677760
 -24.5037020549816908 53.9755794015694832 13.1156459532248189
 -0.6738916540227968 33.4090170593129230 17.6250904717996200
 -2.6570881578306333 13.8085879250788590 13.2213612941854244
 -0.8337012179582668  1.8165899580729086 15.9833540412836808
 39.2853912973540318 57.9368376932149758 16.0881914199737714
 10.1448372752804410 25.8367344774677044 13.9643003562511225
  5.4789911878626123  7.8760935557997112 16.2890320979501233
 -2.5947273720323025 13.5951799012101517 16.5671993951815679
 -21.9799021095477052 52.2001570564290276 16.6895249486413562
 -3.3804054369782217 35.3472704625839995 17.6615933626633392
  5.5805533786251029  8.0320039512613715 12.9451022500795183
 -21.7933074962587838 52.0595055330563596 13.3437624448140149
 12.8753952045722784 23.9117434172083563 13.9329934053505955
 -3.3523649610975528 35.4206110795811071 14.2998475695158813
 10.1261456906242238 25.7206989775482988 17.3214540516914290
 -0.8654227259010633  1.8961664845401571 12.6400963351501456
 13.5678352336873349  2.1463160370970953 16.5329255542036044
  7.4292787169786330 27.6329331615866813 17.3853993268003499
 -32.1515610329486847 66.4219750949324776 15.9538282745356597
  0.0794256281812568 11.8916138200560191 13.0757839522029329
 -27.3707084517555970 56.0280899643025379 16.2529196911697902
  4.7098732362675131 29.6788747654119334 14.1104330380793730
  4.7309981066836757 29.5505766649593973 17.4694310606238226
 -27.2314296901167481 55.8981409519262371 12.9096751293724594
  7.4213456225649717 27.7591944326014222 14.0276409206827601
 39.3758896552961346 57.8271032869294928 12.7450648505762860
  2.0132063302988938 31.5957151962619633 14.1958195864101153
 -32.1138395504631333 66.4652055332443723 12.6103691726698859
  2.7863842304394546  9.7814101483337428 16.3241043710255482
 -24.6756918905663944 54.1165303004643121 16.4599049561340074
  2.0303300549140539 31.4759223935117873 17.5559184883452239
  2.8273075134256720  9.9656102394288411 12.9797862577414325
 -6.0300277179097606 37.3297287707546488 14.2956837195064796
 -6.0863756136851110 37.2880540887786580 17.6577190544981377
 12.8219461263669654 23.8113701844597792 17.2902133707678942
 -11.4940455931956684 41.1688243805132146 17.5231303704144956
 65.7281552983338884  3.8317582234106760 12.7438409809027799
 10.8690475921100713  4.0591606073032844 16.4019833772031234
 22.5682510022659599 66.1274254981768479 13.1154610501024145
 22.7908196412380022 66.0858293324120751 16.4595595177200877
 -5.2852008597511766 15.5080353382280407 16.7471376509355210
 -14.0678932881049317 43.0433265826694296 14.0394678665634665
 11.0694151539043659  4.1499901889284576 13.0581080130345679
 65.8234662005363020  3.7202655203989390 16.0869855239087904
 18.2140602324753971 19.9904712090835162 17.3408039600914208
 -16.5822335083451655 48.3494385400442965 17.1386915514231042
 -14.1955171738841788 43.1069453948729162 17.3961341870405697
 -16.4092473505923735 48.2416575771634228 13.7869728873269413
 34.1636062851599576 65.0562758689894309 12.5938939288397176
 53.8712516949569320  1.5547786653945250 13.3311861563200171
 18.3333852393569785 20.0585183515758878 13.9836128104089426
 -16.7509282832923212 44.9445274728584252 13.8800998811623195
 34.1990106818193382 65.0364681316816160 15.9373167507411164
 15.6070530354886756 21.9854086944086689 13.9404601584924492
  0.0953118563260633 11.6869345673466736 16.4204476418208678
 -19.0967997122828415 50.1491707503509971 13.5731949420676461
  8.1733031328505934  5.9688782043205171 16.3169787684236667
 15.5177715225863206 21.9022392045229601 17.2973448848385694
 -19.2821064104776703 50.2777069867504096 16.9215592955655154
 -8.7908949602026318 39.2291430973899224 17.6111513792234824
 -5.3782154387316217 15.7165273917570207 13.3995837004293961
  8.3299042089080171  6.0928334910157638 12.9734386750667916
 -11.3872579271559111 41.1408082609296528 14.1638611830707895
 -8.7079427318571909 39.2365897575535811 14.2500700478774203
  8.4224695422119087 57.4980816635089198 15.6687133124202482
 -0.0418508603099672  0.1090542380145483 14.2640872715494638
 23.8265800862001988  7.8474928578011651 15.6222729395438318
 51.6642422955444331 26.7348765853304577 15.8002963989053438
 28.9212025606827794 60.5088927322010619 14.4237377886114881
 31.6485280607953072 58.5837676767837081 14.3738003650675896
 21.1287692645611820  9.7799779442710513 15.5311235888881107
 37.7195569192415974 61.3749598949920880 14.2852394202886845
  5.7192790288853184 59.4354324601835842 15.7274452864579839
 57.0472393833032712 22.9057208427388765 15.6188283542752337
 54.3553410772672905 24.8196458207456665 15.7269195114934295
 -3.5634040525194046 23.7651420478920201 15.5253563598859419
 34.3772688680979286 56.6609657877762416 14.3972785345038883
 -0.8636979390638045 21.8504515630962430 15.3956586229588712
 11.1248242452767059 55.5621447994620326 15.5871009656421737
 -2.1448338356199126  8.6568424632940761 14.5855106618640935
 34.9901211571357749 63.2982053092404158 14.2478121786023557
 26.5254146312351580  5.9130144826737823 15.6983312453983146
  0.5774312955199121  6.7408475492757089 14.4681427149174322
 31.9538229678583683 61.9018515056683540 14.3009274255213032
 -14.3352089462276009 31.4255218816923332 15.8102895343970005
 40.9022108833611284 34.4096416883369756 15.7266678980777108
 31.9276380879859865  2.0403526052422776 15.7790797423252762
 40.1344806954285502 56.1358404254452950 14.4961714981826333
 30.0979989881428942 42.0872656299723431 15.2964226829395091
 -2.4585329102105620  5.3457813810635582 14.4370940736508597
 27.3828736736211766 44.0050943802066712 15.2315934946655602
  1.8423549196993938 19.9361999575498459 15.2716136396772129
 -17.0251423066167895 33.3414464026257349 15.7943532902135235
  8.7507073401229842  0.9730286791522720 14.5268382281741744
 32.8078044649885001 40.1692753945172782 15.3945155491508938
 37.4119329947329931 58.0559168837217001 14.3609406263191079
 34.6835810309742740 59.9780642028110478 14.2929486039478011
 34.6303837389978426  0.1030238966065105 15.7786622197729933
 35.5108420143165944 38.2503914360292754 15.5113056971470868
 38.2083894614145478 36.3302594631656177 15.6276889599673314
  6.0286199916112304  2.8981593636682685 14.4390734091411250
 20.7708824533662337 66.2883836842333523 14.9167341367302217
  0.2668652076697172  3.4270484571592292 14.3394083024648538
 -6.2594535608612833 25.6798867832843598 15.6418520697919483
 16.5304895317405283 51.6964176780395093 15.3853866717771410
  2.9950736105454427  1.5051280007618102 14.3155791206833616
 48.9739265849561107 28.6514354346013569 15.8366927752666307
 26.5045767624543807 65.7498571069033630 14.5353583266494812
 26.1978665482762167 62.4350284429611548 14.5411051117576964
 19.2371377173943792 49.7686881852200429 15.2940955302105159
  3.3031871591057205  4.8210754111230161 14.4179249301404049
 -8.9528964049694029 27.5947003242677589 15.7321980961767558
 46.2839311164132994 30.5694704786150560 15.8353904280951703
 23.4810827996429374 64.3615435172870320 14.7121096219107343
 29.2263320220998573 63.8259798499685047 14.3846982997354882
 21.9491655087064217 47.8448592669641357 15.2316950086863461
 29.2257008973714818  3.9766520603779782 15.7520817553844079
 -11.6446749896087063 29.5098521313193594 15.7893133198410496
 43.5935144531428449 32.4890320737395726 15.7977338041750066
 24.6655798125491792 45.9240065817038925 15.2092878120886184
 13.8272939456872273 53.6279991546157291 15.4887375590753518
 47.2742356058487445 40.4757853588465650 15.5371141113179405
 38.5344766115275945 39.6231030804696474 15.4412700755784407
  3.0156009735328797 61.3728131135972319 15.7599972634011607
 33.4433555668924853 46.7493843036275649 14.9605323970519333
 28.3117601726511268 53.8868628990892233 14.6598479098440713
  9.6747628366067175 10.8940833982822731 14.9198994623579182
 36.1547526451721239 44.8331810931104400 15.0872836295507025
  9.3648233077081997  7.5934243745280314 14.7552066663988768
 25.5893209057142741 55.8120237547031977 14.7098789721414622
 38.8589264344225853 42.9177916733746159 15.2383552078538447
  6.9565530451222539 12.8141885506489430 14.9121055390927193
 22.8720248110998874 57.7403741268947783 14.8140862531052573
 41.5575644115520291 41.0028885991697862 15.3942491117642906
 12.0797131281511358  5.6675673963461897 14.8390356954315514
  6.6455862690643928  9.5160391001833879 14.7237938607512433
  4.2381746745847755 14.7312261015223189 14.9589109343578475
 20.1599498791348957 59.6713400313459132 14.9595991304581553
 46.9449774582717509 37.1730449236598375 15.6550241843401938
  1.5227519307951169 16.6457336541867882 15.0549071932559695
 14.7892204837399497  3.7387641291368987 14.9634682850670391
 17.4523331410887366 61.6040013175454817 15.1279582202264145
 49.6357954649789050 35.2573917066824905 15.7419430459951624
 -1.1866455575687180 18.5584571253017536 15.1872790809336298
  3.3219086368208650 64.6752215097529870 15.7511801471229393
 14.7468306892352228 63.5373639961254284 15.3006489734607367
 17.4953116512856646  1.8078885311554143 15.1126215594984341
  6.0256148425637752 62.7384188337155280 15.6970571426703227
 44.2525376572060551 39.0881377556598437 15.5369710760545878
 12.3888454939770689  8.9702060485577615 14.9776695760539997
 30.7257464830902762 48.6666696939590366 14.8730561162424770
 -8.1034813525710341 65.8188434445566202 15.5745685411707449
  6.3320035996503439 66.0404314262453198 15.6983959106170428
 -4.2142236054282538 17.1731714616017790 15.1398792679975820
 -6.9144098333592989 19.0828177968799046 15.3155333652115502
  9.0346977277808147 64.1039186692675429 15.5965296364273147
 44.5801937638746182 42.3894874692461769 15.3814926209663696
 -9.6102245185834665 20.9936152567879724 15.4794449445066444
 11.7382765274522480 62.1681951083239568 15.4721374153043953
 -1.5083180794977709 15.2628581013233493 14.9735571722455081
 41.8831940971619971 44.3022204148620133 15.2072748317128053
 14.4425016269889408 60.2326056731745325 15.3315533405773063
 23.2066629344431981  1.2453881882487703 15.4597447901164315
 17.1473134609770099 58.2979460488161365 15.1840898271550895
 39.1818459351417872 46.2150524110067735 15.0299626430453710
  1.2052699610182684 13.3506265575913226 14.8386334224499219
 20.5046156737035723  3.1800669046157024 15.3314139801412015
 19.8551157168622119 56.3653247005753499 15.0439253240449595
 36.4733428588983628 48.1294641340603775 14.8700650285678542
 22.5670724083243961 54.4354128266086761 14.9292590564664707
 17.8016537407129398  5.1129160434041498 15.1988577450700948
  3.9242414912032140 11.4348608813984516 14.7518163770956221
 33.7573229094625020 50.0459005892279691 14.7457277118409866
 25.2846242198796070 52.5091345709049619 14.8567574748205153
 15.0972302230197055  7.0431521750230219 15.0754759921968340
 28.0051504755854275 50.5863830185673251 14.8367113844268559
 31.0356491669544390 51.9648200343110958 14.6718776887142592
 -3.8894803062309737 20.4700054532755509 15.3380005330789988
 -4.8597213920672768 10.5697565127870021 14.7565179023120443
 12.0438398008631484 65.4712859608835629 15.4645672000300607
 -7.2410325502753841 15.7825225966979428 15.1378994821128146
 18.1130520553118757  8.4137073290748372 15.3112841673008653
 41.2305488654831223 37.7053643913603054 15.5698984037719335
  6.3363226657231069  6.2103285496022487 14.5622369754792853
 15.4095939858697353 10.3418334283569866 15.2097557637274967
 23.1757343459593095 61.0501062528943308 14.7391285307501452
 43.9236190264076569 35.7878667089976048 15.6775341332088143
  9.0572449838633062  4.2857579016819853 14.6200692725112376
 46.6146002297185262 33.8707253131123665 15.7557296230874240
 12.7009671876177244 12.2663827027060268 15.1347503256544087
 20.4641642936175749 62.9801151273196851 14.9159186078856170
 49.3047387253920206 31.9541545765659158 15.7998203898894971
 25.8934987437561652 59.1215824383344071 14.6010902904885267
 17.7570534226134278 64.9101331377480193 15.1114981945250157
 51.9946654797361063 30.0380854011126672 15.8074628512929589
 11.7732407043637473  2.3589321762947950 14.7326323386907614
 54.6849867708345911 28.1225187356759285 15.7783474949603288
 42.5305527664793530 50.9086094259109245 14.8380669932250289
  7.2700816767568863 16.1055364912523657 15.1126496695191577
 -2.3919562268778636 65.2474420438622076 15.7433418150229762
 14.4835873239918271  0.4302141201329489 14.8860772498057141
 39.8206548481708182 52.8235607038103083 14.6439953773202500
  4.5543683282786427 18.0214459640810354 15.1727370313185315
  0.3114898928497228 63.3102518292161704 15.7653000384767292
 37.1020970461233190 54.7408923953337663 14.4916011661128898
  9.9866085250093040 14.1874426147905641 15.0997819911528435
 35.8339352437451879 41.5406349440828251 15.3054199515177842
 28.6164360603699741 57.1949341559059050 14.5182965366418539
 20.8137016017652456  6.4820930756769863 15.4226441070834746
 -6.5871443774112413 22.3817457830140221 15.4858132953437089
 11.4329062097659726 58.8644688148603166 15.5149523108017853
 44.9070277580903934 45.6915143831954111 15.2176077402027072
 14.1364586196224451 56.9287644649829474 15.3972225576432873
 -9.2818723179755267 24.2942727561926546 15.6142118350947108
 42.2080468014314079 47.6038006420916204 15.0180916638641726
 16.8410725944263113 54.9947714117170108 15.2735864103931345
 -4.5383816183747374 13.8731438344315645 14.9416715158785287
 -11.9747861949025030 26.2078354460456104 15.7132439938533270
 39.5027228508647923 49.5165682079087190 14.8272810683458189
 19.5481623233406552 53.0636516702111081 15.1595910300479915
 -1.8277188653001486 11.9625776354717512 14.7685137959684383
 22.2602099316636064 51.1367567576741777 15.0733641090245971
 28.9173672875955603  0.6753352106518848 15.6953716048171241
 36.7893418475114871 51.4318460871523087 14.6663912475196625
 24.9768959397852868 49.2135889767966361 15.0290056763467366
 26.2154165303332078  2.6122884619461915 15.6230175396644011
 27.6955058762772168 47.2930569535921421 15.0334343177618752
 34.0685468143634580 53.3499219791620192 14.5525315269286768
  0.8899539863095791 10.0488750500000297 14.6387485971432554
 30.4132355487147947 45.3749983736289622 15.0867549752562251
 23.5140608669854778  4.5479660858809670 15.5297910384877031
 31.3429289969913754 55.2709584295197800 14.5006914077269009
 33.1269294334801856 43.4578933078602887 15.1814860233966513
  3.6127484238786058  8.1314405070652072 14.5675400925311944
  8.7294333078578887 60.8010675334120023 15.6171219065611808
 55.0943743572942708  3.0866829504811775 14.9599876933342433
 29.4585666207021859 35.5171336992192153 15.6589463141959673
 -5.4015081103868541 63.8818974456636468 15.6694069909410434
 -7.6334446011263823 40.7875833824756597 15.9609686782375935
 -9.3478661590742433 52.6051052461661399 15.6973860372499079
 -4.9414188829459862 38.8618965818417124 16.0140453442310964
 -12.0432564375872673 54.5342028736238476 15.5149721990589633
 -14.7397443345842678 56.4627032920760641 15.3078738391339435
 -2.2488040346090132 36.9357932874601573 16.0232286480849346
 -17.4396467092665759 58.3899645451508675 15.0869880484170658
  0.4452358632648957 35.0101317317764327 15.9905772318363493
 -20.1436795735277911 60.3157604413791830 14.8652077157495057
 -22.8528605918879784 62.2410347249070028 14.6587251027615757
  3.1413364835497575 33.0859145879807528 15.9244037770688784
 -25.5682104928882268 64.1657968317109209 14.4857273769476382
  5.8412107684866141 31.1641771733429280 15.8410562928629375
 -28.2901658610554172 66.0909197760717291 14.3664924155591880
 66.5809434896221859  2.0302114351946359 14.3354111784258222
 -6.6527239500787907 50.6752536596114496 15.8468184650211690
 -3.9580372520685110 48.7449128795712028 15.9585246409166164
 -10.3251358405756655 42.7115557287145649 15.8652840346211494
 -1.2637384156369691 46.8142376833248974 16.0290308657530574
 52.0781580585933668  1.7066784587833741 15.1354352614691621
 23.0733370069594415 29.5052649383933563 15.8172674898835091
 -26.5014512722010203 54.2183427910253073 14.6828059591591842
 20.3617676657935114 31.4235240134434264 15.7744717029260269
 17.6480618774203215 33.3410888118640045 15.7652745382528909
 -23.7951517830720896 52.3024850920768571 14.9027489137090896
 14.9349369442909570 35.2592668975101020 15.7906763524857361
  8.5469433082250639 29.2451732255595047 15.7610067078042171
 -21.0955475570633375 50.3871495926629720 15.1343941692828743
  9.5209273587417300 39.1007263608453712 15.9184973277066657
 -18.4005954242478360 48.4710405563445548 15.3576857066906438
  6.8220761860297108 41.0262258468300374 15.9903801047715444
 -15.7080035236088111 46.5534341157664926 15.5589017554120126
  4.1259544422880143 42.9542385782771490 16.0411299998659693
  1.4308013811818894 44.8839712163276516 16.0562343257334419
 -13.0165572537843381 44.6337197262667900 15.7298662573332848
 12.2251524501205608 37.1787789964861943 15.8456287621314207
 25.7798066235692787 27.5849503591306302 15.8859237494462899
 63.8579729168943828  3.9488758663135894 14.4769965190214389
 61.1424770328095306  5.8655323147543781 14.6732724452409204
 26.1049603899798477 30.8691744238924741 15.8184412186520298
 35.5735547833277082  9.9982192596486339 15.9643277601086453
 23.3957122799792003 32.7882223169307210 15.7553793873548500
 38.2695482298488230  8.0643278599219475 15.8960503927803920
 20.6824257616139988 34.7061998614597087 15.7222041136098358
 17.9680028112936014 36.6242171477275917 15.7248943499114464
 40.9670299440856027  6.1308489360261165 15.7932602525235453
 15.2555281737967015 38.5432520223870796 15.7619828350930025
 43.6654117816121428  4.1971935853116227 15.6579291503711016
 12.5478542838946332 40.4642588056714487 15.8256274138859450
  9.8461410829226228 42.3884822584926226 15.9003423233209471
 46.3644361274366616  2.2646317054258409 15.4935977776609626
  7.1485698876046726 44.3159333867305278 15.9657047507999597
 49.0658149241453003  0.3324997314561948 15.3082740993330439
  4.4527555566763644 46.2453695278304551 16.0040516466487901
 28.8080072487197647 28.9476643552773716 15.8998557276171777
 32.8788280619115838 11.9320531135810359 15.9958124522321015
 31.5051765589397057 27.0228611232803644 15.9823523469812638
 30.1846648971836977 13.8648231152662778 15.9895867534050122
 58.4349178639624256  7.7802998056916080 14.9031899980929872
 13.9709457445279082 25.4100563416408818 15.6742516648716830
 55.7341894638878017  9.6955209673973659 15.1444322535772002
 16.6842223675129340 23.4923128129605274 15.6851204395870791
 53.0387243690007182 11.6122883894108213 15.3774856170020868
 50.3464989003235175 13.5325186086094913 15.5878601844638673
 19.3944942715116255 21.5730167347737343 15.7312355975962515
 11.2576580912328250 27.3275259351795761 15.7013968850362904
 47.6551700422300399 15.4551953472346266 15.7662090322000452
 44.9640483372230548 17.3801997094929455 15.9071060483813653
 42.2733843919950871 19.3075458719587303 16.0069268990631706
 24.7966516512170685 17.7251218679689018 15.8816048495454964
 39.5824459174229517 21.2364320911336222 16.0633946698502825
 27.4910391131382994 15.7961159261602972 15.9486694669320457
 36.8910541713365987 23.1660694092079211 16.0756649463453662
 34.1987860480583308 25.0952197175559384 16.0460252519959425
 22.0986331165922536 19.6509810711720334 15.8025025583080723
  1.7573127030362947 48.1764821407652661 16.0055333764610097
 28.4795347774287961 25.6614392600779837 15.9668219322670915
 31.1747648727144622 23.7345969396273517 16.0403563134921150
 -9.9972856576498330 46.0093539008681844 15.8260728606412364
 20.0401479927527042 28.1405212043365225 15.7924072461631742
 17.3271388605565519 30.0582295233531624 15.7716134578145812
 -7.3055886479220691 44.0833741884430523 15.9482271697455396
 14.6138243383821891 31.9757887829708416 15.7859828117721701
 -4.6129621165431312 42.1561724823319466 16.0275396126091358
 11.9027098184241087 33.8942670632472840 15.8323422410447758
  9.1959802849271632 35.8144488778197427 15.9017049488533644
 -1.9197838540271726 40.2283431007870576 16.0619365241544898
  6.4949523068139019 37.7375962659673263 15.9783628353577374
  0.7741441163466641 38.3007193982325447 16.0518217811112542
  3.7980196737664751 39.6637500993512973 16.0416025710887027
  1.1029065816711863 41.5921326130402420 16.0732934271718904
  3.4695709110822124 36.3743609020887533 16.0027876937264892
 -1.5913935162237045 43.5212045211095102 16.0631785062300594
 22.7496365482290557 26.2212644599463722 15.8449052175154161
 -12.6888576300463747 47.9335176744601839 15.6646412976575800
 25.4527158854889848 24.2994466060664323 15.9188603191795792
 28.1500323635126435 22.3740763613919036 15.9973104758391322
 57.8018809853775863  1.1635268388632234 14.7341652635650906
 52.3926701917213364  5.0100726316067572 15.1944632222707359
 49.6952065563813790  6.9352127143124820 15.4207905650667847
 -28.9058523436315120 59.4527063108784759 14.3961644130846924
 47.0001401920211990  8.8620683420736164 15.6256237254881665
 -26.1870708278444120 57.5319319918327423 14.5674075874508837
 44.3071222994960721 10.7906072039868892 15.7991647422896122
  6.1679248323527238 34.4503586092980285 15.9285816898703896
 41.6143891261996899 12.7208396758939397 15.9350520701804363
 38.9215751229027589 14.6518850335155584 16.0298479379995982
 -20.7726926608522042 53.6941974188519282 15.0125930853018961
 36.2289811215514490 16.5833939503682366 16.0816525852425620
 33.5367109430017152 18.5148069985815837 16.0907010575228036
 -18.0754780648721649 51.7756978219073076 15.2481882128126891
 30.8441555380551051 20.4455399607891266 16.0597671409504734
 -15.3812387275245204 49.8555391273955451 15.4693894906846143
 -23.4758442710790405 55.6127425320232263 14.7792948625812794
 49.3774055669179006  3.6349274808264895 15.3514653020967504
 -4.2850101420097015 45.4502948256554689 16.0078885837783709
  8.8711401362730022 32.5293891631139545 15.8493343894587220
 55.4119047759680967  6.3918198935064146 15.0389789801420033
 33.2063772774504784 15.2241036029997705 16.0576773732153768
 52.7130463150570634  8.3115307855054485 15.2788774697765373
 50.0186095648614497 10.2338511944481692 15.5038010182049462
 35.8995966273049163 13.2917098308703352 16.0343222443909568
 47.3268677950306724 12.1587011469750266 15.7012667665876915
 38.5932798204124410 11.3588960949011746 15.9699602451096307
 44.6351733372302419 14.0855326910157075 15.8629888389915568
 41.9433799776084442 16.0141688400481925 15.9843640865494905
 41.2876161721234993  9.4267135109891118 15.8661240137616613
 39.2516336843382021 17.9440173794551896 16.0629328986813782
 43.9827597253847671  7.4949961238598100 15.7256824620134825
 36.5599461609478951 19.8747255808599519 16.0971638267751977
 33.8678372670453527 21.8052591839323142 16.0878625588548445
 46.6794894131617539  5.5646104371432950 15.5518226800863033
 30.5135691193036322 17.1556439070757065 16.0413424072641604
 58.1161622374712792  4.4730090687566770 14.8003060743692441
 60.8274397638831914  2.5538576640214661 14.5815155013630804
 27.8204641215222352 19.0856712057310958 15.9908004646129029
 -9.6707250447456072 49.3067483768246078 15.7672420822935369
 11.5797703053004994 30.6107400692839633 15.7842320722511538
 -12.3639066178821668 51.2332369963178493 15.5894764896780114
 -15.0580865688104435 53.1583749198251923 15.3813285262970467
 14.2922153027757126 28.6930280098732418 15.7466206227278054
 -17.7543121835214137 55.0818044167473957 15.1536825453956645
 17.0057078872801277 26.7754317353755624 15.7440748735615923
 -6.9780010673010242 47.3791215726417718 15.9081894305135734
 -20.4552077712028932 57.0039826601014994 14.9199887493478762
 19.7174662354902992 24.8570133932561745 15.7773918634939978
 -25.8766065688137346 60.8485561271645921 14.5002553626490833
 22.4244086697034568 22.9366914637751229 15.8397815123998171
 -28.5976881475264264 62.7717961958642405 14.3518860446406293
 -31.3244186258523634 64.6953035029321768 14.2700579009584292
 25.1248632854527152 21.0130057410410984 15.9175606070699072
 63.5465805448832484  0.6335744110802731 14.4039613701989140
 -23.1625642867157282 58.9259814383713021 14.6962576183565705
 18.4289469044921113 11.7094007646094695 15.4352010406256799
 -24.1183811208560321 48.9954843212278632 15.0539983233250538
 -21.4216579682254675 47.0822465526122969 15.2699039875763880
 18.7489850963153728 15.0004006898022908 15.5543632089401278
  5.0964447844135377 52.8333851134989203 15.8594085388239669
  2.3965050427583021 54.7686443263737104 15.8599201842504822
 21.4484672405488261 13.0735792713153227 15.6402287973389740
 -0.3043486563156494 56.7050861458185977 15.8288978724407716
 24.1455138982986171 11.1433617199898674 15.7229799268348902
 -3.0062676869443865 58.6419177467202601 15.7675130252510503
 -5.7083147681277913 60.5783070184217962 15.6774579306278650
 26.8419551587776795  9.2105042158942538 15.7884180271615442
 -8.4100624652998004 62.5146157398125482 15.5609626169561235
 29.5392730434380759  7.2756295446400783 15.8290816829514789
 -11.1114809928734601 64.4498145577076684 15.4227069640593069
 -13.8136525642966639 66.3842628431160335 15.2700956939409558
 32.2385077028039433  5.3400771186581029 15.8408030840095737
 59.4126360534233697 17.6923264437635623 15.3330800753252472
  7.7954284192471865 50.8999558717712262 15.8279785313901495
 16.0438626607043346 16.9232107460393237 15.4841832219127777
 10.4936954189389908 48.9687556858332513 15.7698345648070397
 13.1929096115611593 47.0399793027545741 15.6937402482741639
 40.2427017008996089 27.8221409088982874 15.9603200245195467
 -2.9074574307474386 30.3518458893440872 15.8362849865976294
 37.5514097635272464 29.7481455494565843 15.9200083938561168
 34.8581873043939083 31.6733181040061247 15.8467356774151931
 -0.2120658593968653 28.4308924277149799 15.7550244901830361
 32.1612405477713210 33.5964040361334355 15.7535694723073441
  2.4874815199602156 26.5114670826865506 15.6563981581579252
 34.9397170735693479  3.4038328307226600 15.8224006249611158
 26.7490033789063872 37.4358782462529973 15.5808613639962790
 24.0348757335495904 39.3538453519865357 15.5328861399247931
  7.9035392873711379 22.6771137816946755 15.4854685619573988
 21.3195222175568802 41.2724667096361202 15.5235776792547799
 18.6055074962701141 43.1925222410374303 15.5531915965643819
 10.6178750500955914 20.7605500599276276 15.4446272119657326
 15.8961638100496412 45.1146585698530558 15.6149568449454534
 13.3324510485063392 18.8429030867751166 15.4446689949405851
  5.1927451828455604 24.5937477867209537 15.5603566322793299
 -5.6006853752887462 32.2730808002271203 15.8865412413551379
 56.7185912226051272 19.6035709186059215 15.5097383020827468
 37.6417202657284520  1.4676739396993286 15.7743172988238989
 18.9223471879591187 46.4790022064795494 15.4307386891051443
  2.1636244106492719 23.2242154226615583 15.4752552408234791
 16.2149989978944120 48.4035740285569887 15.5051390036362502
 13.5125844578693837 50.3317202643122883 15.5929773393572386
  4.8722700107810608 21.3083314159811117 15.3766418811600083
 10.8122926994153001 52.2631602885571596 15.6767911489454459
  7.5857388659781355 19.3924925049441796 15.3080094712759038
  8.1115759032324721 54.1970917821055309 15.7432852568842723
  5.4100732331526249 56.1331214209941365 15.7847526562153053
 10.3012485905307205 17.4756175442563766 15.2796252926442104
  2.7077698255706051 58.0701304297217149 15.7980283034738047
 13.0154734725867467 15.5566945975640341 15.2952829710785672
  0.0046946328921987 60.0076759017493870 15.7830727397199109
 -2.6987391935103986 61.9450450971543560 15.7398893791157715
 15.7253278624487827 13.6349571604426227 15.3508938273650042
 -0.5387158788601505 25.1411020381931003 15.5878376892807307
 21.6353852232427215 44.5575830499506367 15.3860419572670182
 24.3515742212917701 42.6380561791626391 15.3805339611279823
 -3.2363376051730324 27.0591505736747315 15.6938918705589519
 51.3347114527293016 23.4324634488613803 15.7726649288679504
 -19.3850677291110927 38.5607233982091770 15.6654769772965707
 48.6439376185464596 25.3500406109904759 15.8509486140985238
 45.9534094844198222 27.2699725951239245 15.8914110187391060
 -16.6945231976578299 36.6447837958735221 15.7613502996486030
 43.2632120231629642 29.1920612868009712 15.8936664420351619
 -14.0040730113238610 34.7285322048252851 15.8214973909287693
 54.0260950760519734 21.5170045810730137 15.6580120501106830
 40.5725363030050445 31.1154368508129551 15.8585112888616173
 -11.3140185312439527 32.8117644924654996 15.8437282973526941
 35.1855467324708755 34.9616017463450959 15.6939393001142236
 -8.6229756506181801 30.8946893311569255 15.8284124180600632
 32.4859257252460836 36.8825661523679784 15.5878511354846623
 29.7796297839158193 38.8016404725064845 15.4900343454712246
 -5.9305751142198453 28.9772626135559825 15.7771393970991731
 27.0672209311077872 40.7197206949441295 15.4169881531329747
 37.8804863547815884 33.0389521461438491 15.7891061029875228
 -0.9384786470222455 50.1082207675474507 15.9674492366472993
 42.9331264645477688 25.8963730692509024 15.9615166708744152
 -8.2925090693294088 34.1936766214400194 15.8998992021507082
 53.3675790760238513 14.9135981689857591 15.4785540720281123
 50.6755726340512851 16.8314061493579921 15.6635666542568330
  2.8134834990908275 29.7983629788720066 15.8078429941797651
 47.9842813990694452 18.7519355235118255 15.8145065973084833
  5.5160104219211785 27.8789287500109246 15.7170435742158592
 45.2938797633761183 20.6756732657514100 15.9275401415618774
 42.6035049519436484 22.6016014119073176 15.9994811403986752
  8.2242798957886816 25.9611284459517648 15.6382157833745659
 39.9127763079882385 24.5291179884320769 16.0289619151059810
 10.9367188873435293 24.0441205089492769 15.5866527276440063
 37.2215829341681186 26.4571998579051773 16.0162187419775215
 34.5291972822597089 28.3846381761854829 15.9652047126900687
 13.6507292216268752 22.1269247234362183 15.5724326680809639
 31.8342013951415943 30.3100573484077671 15.8862536848703542
 16.3636177606507083 20.2085202967672402 15.5975682599579670
  0.1164003078183137 31.7202258894758273 15.8907606369519936
 56.0612361487074864 12.9984168847686892 15.2650870096208262
 -2.5779413090272301 33.6437552275065244 15.9473002412587554
 58.7582999602469584 11.0854947862584190 15.0341951146356951
 -3.6350356129216936 52.0407800034777495 15.8908722099346083
 -6.3320986509385184 53.9732841852933518 15.7774521891500044
 -18.7280784299587069 45.1675250217760933 15.4689240823938139
 -9.0298296455052363 55.9059746318230282 15.6303077662560579
 -16.0361733184156385 43.2510695149142634 15.6407913965659002
 -11.7280699811263496 57.8380108080781667 15.4553267849240950
 -14.4281757649485325 59.7694829964547125 15.2604468075215696
 29.1344661734916848 32.2325757022542092 15.7967494318955133
 -13.3448814825030784 41.3327967186662946 15.7798110561860661
 -10.6536557273497490 39.4128615673195810 15.8820084832802699
 -19.8352359514326793 63.6282778737393926 14.8526978916137793
 -22.5449807138861935 65.5557333401452524 14.6702667390767498
 -7.9623513296587438 37.4911280544330268 15.9447472454679300
 64.1728959484178745  7.2614340456429876 14.5973573998056647
 -5.2707401721483675 35.5677784302061184 15.9665261111757495
 61.4617071755961391  9.1740986808026452 14.8038317119081970
 -17.1301357738243603 61.6996012255117847 15.0553154317448570
 45.6236116648453489 23.9721659069944302 15.9222568856889861
 26.4283467471804840 34.1524941839204459 15.7161655217270475
 23.7163966638258614 36.0708823249402215 15.6595381188363874
 43.3538662762500522  0.8969643269122068 15.6109618352461617
 -11.4188877139386111 61.1438424717893838 15.4223962153333325
 -14.1200128196076822 63.0772413667175726 15.2463464385692653
 -21.7491257580402397 43.7786390338190259 15.4068349458124629
 -16.8228463282226919 65.0091062106566824 15.0630777524593231
 -19.0562085078217294 41.8641859104764578 15.5732875862584059
 61.7843751946735011 12.4796081011388740 14.9630442817384033
 59.0848162592796271 14.3897192428236966 15.1815668117523952
 -16.3646728294382733 39.9481983726198635 15.7096312114358785
 56.3897169514841536 16.3013079433953898 15.3897012254248793
 -13.6740410115805471 38.0309843200746940 15.8111041091474469
 53.6968722381328547 18.2150175524749649 15.5738972898965837
 51.0051078171741352 20.1312156654601750 15.7263472739873951
 -10.9833564173498228 36.1129776106568059 15.8748606350352723
 48.3141207026676724 22.0501874449640312 15.8432493645295374
 -8.7178879156650666 59.2100091783848086 15.5813362296193478
 40.6529836909172104  2.8323400152011526 15.7329324807794837
 -6.0175368173289803 57.2747099158130197 15.7160716498734647
 -3.3177958785688628 55.3398791476644902 15.8217544137276249
 21.7725635569195184 16.3636005365216946 15.7341289481250755
 21.0016735896169635 37.9888458902452513 15.6373636401031106
 18.2873189319271496 39.9076551919329390 15.6529896991033883
 24.4690828821013007 14.4356397268406305 15.8138656180265738
 15.5762003678772505 41.8281955316376468 15.7023264845576449
 27.1642484383788769 12.5048962815103053 15.8774755232653728
 12.8707148692954121 43.7511218105807700 15.7740595244483881
 19.0715170186657232 18.2877157389192107 15.6558182110721784
 10.1708236644452086 45.6776618369284861 15.8490572123492228
  7.4736040944418045 47.6068523655404405 15.9079257583331000
 32.5554354929831007  8.6375781190950693 15.9176560849305524
  4.7770276275254080 49.5379716240162082 15.9380482483266857
  2.0798087096475690 51.4708443030586125 15.9341025741072784
 35.2531669684793911  6.7025261212751399 15.8882290742493684
 -0.6185980215436467 53.4048901699850731 15.8950329833851445
 37.9525855070303990  4.7673548337193239 15.8261676687184529
 29.8594016398760189 10.5717532756303285 15.9138197746386183
 32.2604018774955250 65.2211108778859341 14.2883552300549503
