Mo S  Se W 
 1.0000000000000000
    69.3510363138542090    0.0000000000000000    0.0000000000000000
   -32.4284635303994691   65.2226154803929603    0.0000000000000000
     0.0000000000000000    0.0000000000000000   24.4856654507443388
 Mo  S   Se  W  
 515 1030 948 474
Cartesian
 -1.3942585304611532 12.6391902624719297  7.9947412604990129
  7.0343000509456415 36.0779038970238588  9.5571980848294871
 14.9989042818025791 14.5903906697752941  8.6522193191429100
  9.6068672464794602 37.9802872162699146  9.5622759025552764
 12.4455797674751114 12.6892698982169083  8.3888150202654117
  9.8974503496442416 10.7887697450505122  8.1179399014194473
 12.1801476346274029 39.8843708142334279  9.5264074531864225
  7.3530889522134659  8.8878770098661235  7.8644318399307416
 17.5584405255126086 16.4914760000671166  8.8912887739274762
 14.7537995944323264 41.7885670387841444  9.4518388385220522
 17.7328543641851510 64.5700339019182366  8.8190418571085711
 17.3267327510784241 43.6936574388097583  9.3410639221357457
 15.1786095724761889 62.6819046236340256  9.0075027936573484
 19.8974153285540041 45.5995911044286615  9.1956041098346404
 12.6208062689389351 60.7940865358735039  9.1795643430565352
 10.0587398740965437 58.9066400974458801  9.3299984928177846
 22.4659406704949944 47.5050116605444686  9.0170643970650026
  4.8109714951392268  6.9856261568134022  7.6568070333040845
  7.4930624703015143 57.0183202865486578  9.4522877986201035
 20.1231333843421680 18.3939732296911806  9.0992809043627645
 22.6914695911651449 20.2968836017512970  9.2735673173954289
 55.9517727233620903 20.8530195204178064  9.0070404193627791
 45.7803155398451622 37.4150740843979008  9.2070573115295797
 -10.8551495726139127 22.7596330211015143  8.9765564822815040
 43.2303103312923369 35.5101151214444499  9.3085343989641629
 40.6759359877863886 33.6074569020486109  9.4203908921407180
 -8.3107159428047517 24.6665395540024193  8.9990896711709567
 38.1151194577501045 31.7070590847653406  9.5163917618574470
  4.4645767268253271 34.1768149173520612  9.5107955617929836
 -5.7646751777590621 26.5722977271424483  9.0731104501120576
 32.9792984546843400 27.9055967914987200  9.6001622007099972
 -3.2156576151283782 28.4759014255083684  9.1848683640911020
 30.4074580249648854 26.0042047891140946  9.5784021825371006
 -0.6614603253752436 30.3771926250737145  9.3113310941806269
 27.8346152315507496 24.1023795604530555  9.5148586604101499
 25.2624523974211321 22.1995631425444913  9.4124109652627315
  1.8990273504670594 32.2765862471934000  9.4262379680249708
 35.5490743144218797 29.8064546409382096  9.5788748645032555
 48.3272031986421240 39.3223696079146663  9.1394847173198421
 25.0299645124357397 49.4105835680774845  8.8072264452731392
  2.3560353272119650 53.2402026886048532  9.5984473530073533
 40.2486857681685706 12.6512892299182482  9.4551469867334230
 38.4680241771010785 28.5272181558136353  9.6026217573865420
 42.8126666293711864 14.5407573767555540  9.4464733169657471
 35.8997979419603652 26.6286216867284757  9.6445139330996401
 33.3281116019543546 24.7302857962084239  9.6443021247214951
 45.3758717351264167 16.4317922966943186  9.4103066404558664
 30.7551516791544017 22.8315343113136855  9.6013500220260539
 41.0317118797714144 30.4267409456702040  9.5232862913312530
 47.9365607567517955 18.3262262638869480  9.3471916650229296
 25.6122684310867399 19.0318958233381323  9.3925871026628602
 50.4920717504804273 20.2246458371675786  9.2634733959710971
 23.0435484632291541 17.1321803947255411  9.2305309399862914
 53.0421115945500361 22.1270929582712270  9.1782316441727509
 20.4783555459921800 15.2329294279145149  9.0320550563020330
 17.9178596122036353 13.3338157662464578  8.8006457620969574
 55.5885403911642157 24.0329557807985665  9.1177539839362289
 28.1829829200146627 20.9320638097474507  9.5167154277650479
  4.9250676836700436 55.1299961850763935  9.5422773232833897
 43.5889135328400030 32.3278038702278181  9.4197518354025185
 46.1401764000158963 34.2319703322118585  9.3162628922024080
 27.5885949057083941 51.3153560768865944  8.5696321033777494
 -0.2134875801428751 51.3489745137789910  9.6206117467958805
 30.1404124103238580 53.2192979548232117  8.3141007725361682
 -2.7826434916841136 49.4567971638661632  9.6082316818498281
 -5.3500356591372782 47.5629165459725201  9.5615380620090544
 24.8822625546934724  1.3325312049846814  8.9947550231466860
 -7.9135628899347239 45.6664625738758900  9.4840687834153918
 37.6846473220270326 10.7637205502356927  9.4367394501689965
 27.4393871339096158  3.2184483995589415  9.1185428124412873
 -13.0232352011418886 41.8630523695335910  9.2908366159229967
 29.9983376416641541  5.1045223887838302  9.2289319260662985
 -15.5710232265403512 39.9565818202189789  9.2249138609559242
 32.5593284926285307  6.9902203732587411  9.3215982654033542
 -18.1166182687238724 38.0471784011341114  9.2058291544902087
 48.6881057672533757 36.1385488875666638  9.2388978696649549
 35.1215307648990134  8.8767156090089525  9.3916968819430497
 -10.4709766402829363 43.7662385065970270  9.3861417244614156
 15.3632735126209710 11.4353917314159990  8.5411038254208975
 -18.4780076647175520 41.2306986667374318  9.1211865759753845
 -15.9317235330864850 43.1396709244813721  9.1556174849789524
 -6.0674016259302066 53.9104665162209642  9.3802905542090027
 -7.9473401557941132 21.4885539017539422  8.8272388893271287
 -8.6299955442490841 52.0192542382493457  9.3207615176353986
 -5.4029098097561521 23.3946459570916012  8.8875602806185938
 -11.1888506148935427 50.1236066285732775  9.2376679003839008
 -13.7433153602398335 48.2242951062722867  9.1415979254378037
 -2.8557341143554229 25.2985252669098699  8.9935831665771833
 -3.5024644741690802 55.7992030180092513  9.4133932084600538
 -16.2928105496465356 46.3202078340505921  9.0562012963258702
 -18.8392827413324184 44.4125019971816926  9.0071894652919493
 47.9664587705860299 42.5041143200094638  9.0102320525519008
  2.2523283868896073 29.1010284732497269  9.2556123738480522
 45.4200613717820971 40.5965181338411014  9.0664981421421338
  4.8156794362559143 31.0024678826402216  9.3620937620389739
 42.8713304624903557 38.6910246560353812  9.1638548668567950
 40.3189194491873764 36.7867826909724727  9.2809257047468474
 -0.3046150734865118 27.2005161735219332  9.1251068843893730
  7.3832230501025826 32.9049367301261810  9.4337341257695932
 58.8605167147439801 19.5817672723630203  8.8223054096877433
 56.3167475823002519 17.6769491024407692  8.8678288566424879
 24.5659033406290703 28.5312789072938635  9.3917129758527675
 40.9893008174867290  6.3245718555245558  9.2695086977577894
 21.9931201794416182 26.6237841601823888  9.3175925317262926
 43.5494652217032652  8.2100664514918478  9.2353669296265526
 19.4207614359420724 24.7164651943674905  9.2110050152691354
 16.8497475618853336 22.8093205595131110  9.0732991705596415
 46.1084854402510445 10.0970140479223662  9.1841125642817723
 -0.9375083116143522 57.6864086720399456  9.4193992385741261
 14.2823931824453734 20.9027583415406859  8.9048442806362598
 11.7194971753017967 18.9975565267777320  8.7070452977224875
  9.3123370075449312 65.2278332998109676  9.2114657549988976
 51.2202706975295143 13.8790539244996172  9.0350360584897320
  6.7521350860245208 63.3423541530005920  9.2929752159514187
 53.7703285207436537 15.7755652449331407  8.9463563294829456
  4.1906882707756408 61.4572191510460115  9.3566128179015955
  1.6270814694503923 59.5722314336027310  9.3997277137007060
 48.6660870674882986 11.9866308136297270  9.1164857728509485
 53.4054217779471756 18.9485975966610276  9.0770915175773936
 37.7610016605909493 34.8847095683033501  9.3914139567463391
 35.1977128481407604 32.9827300736266622  9.4741613599378045
  9.6873297523938948 62.0683002090881715  9.2526597872526022
 35.4942566827635844  5.7150783435159545  9.3221113327290901
  7.1255327933140693 60.1815772476718251  9.3606642993710114
 38.0553772382143478  7.6008141080142027  9.3495585715576759
  4.5603994985058742 58.2951083528184455  9.4450403177719799
  1.9937600270519082 56.4081578612369015  9.5015075788584014
 40.6174173437262098  9.4866071046431184  9.3554312722422388
 12.2463982374782674 63.9542118431395750  9.1254869040517796
 -0.5732645214576090 54.5199311643420970  9.5279055872644598
 -5.7066914534817901 50.7388425712652733  9.4867140923668494
 45.7399798850498840 13.2623429042590182  9.3012866581304259
 -8.2704222796781099 48.8448056016874261  9.4206796362965193
 48.2989709395946463 15.1538191508255871  9.2417949467305878
 -10.8296853848110874 46.9471282577059057  9.3302549897797000
 -13.3827811096691960 45.0452793633078983  9.2328188703479253
 50.8546048703906735 17.0488886245979927  9.1632430884048048
 -3.1405718803625331 52.6304132579833563  9.5230036847049622
  9.9542921332794236 34.8091588007335133  9.4675098570419252
 32.9340042726854207  3.8304548750346621  9.2753017306586170
 30.3740882510680663  1.9457787802532172  9.2114645919159255
 32.6303823152207002 31.0795446232777977  9.5188748737312228
 12.5272189629949793 36.7149839039431924  9.4630542436154279
 30.0596306895047611 29.1757384488777767  9.5228023564171149
 15.1006723591203347 38.6216284157699263  9.4219608195809741
 27.4870384480933083 27.2711904807940719  9.4861966800784074
 24.9140552761746790 25.3658047442861978  9.4117827644324752
 17.6740917648890061 40.5287453455975140  9.3467926241452837
  6.9808989283388039 12.0406951978769357  8.0383747112970632
 22.3416779907146257 23.4606929244136460  9.3022128712990497
 19.7708280253030360 21.5553302679356413  9.1588912629446870
 17.2032367467921361 19.6497759259090756  8.9830815270896718
 22.8168311207924148 44.3438424609942672  9.0993599566005674
 14.6390203559316348 17.7457021781094610  8.7760360285255068
 25.3842294912274049 46.2514012660746943  8.9289906196969451
 12.0800750583756304 15.8427344971457806  8.5405720969868852
  9.5277338071395796 13.9415306550431968  8.2873101821807253
 20.2468206574538527 42.4358417099406395  9.2388771256052475
 27.1393186500818935 30.4387695816377288  9.4325524006724351
 -11.2177538116412876 25.9405733346974472  9.1024790408430576
 10.2695711107026515  7.6364235618808749  7.9921495022415270
  8.9128469702094151 44.3287148659126800  9.6539663747390208
 39.1726534916545859 22.1693103642322562  9.6516279425806726
 11.4858739064612738 46.2280122906375226  9.5700732508486475
 36.6023960377802382 20.2740313628537372  9.6557641722097678
 34.0313760049412934 18.3795130329982754  9.6214958826673342
 14.0583935721006750 48.1274409940629511  9.4451878293211582
 31.4606014489312891 16.4858376067984125  9.5485321168013684
 41.7402417137002217 24.0652584965887968  9.6105433323719147
 16.6287115961548224 50.0268536383544102  9.2802934014044247
 26.3255258980354583 12.6994897693873963  9.2881661922266296
 19.1949482171048693 51.9267775467771671  9.0775744137467012
 23.7628427740827597 10.8069145850841242  9.1047720587524523
 21.7560718631418268 53.8265227659053167  8.8401913946713933
 21.2043553548295414  8.9145612665771150  8.8910306853137122
 18.6506920381808108  7.0212303688282880  8.6532989451042628
 24.3114401278471313 55.7265105141306734  8.5723599882732522
 28.8916023615118398 14.5926176269443122  9.4369121343442295
 16.1024612652676957  5.1266287548355960  8.4015553885707028
 44.3031473604749237 25.9637166433378255  9.5362687845511633
 46.8592065598590040 27.8653959846143486  9.4414354027551894
 -11.5799215080395754 29.1238642397235914  9.1989408861550093
  0.4940058821001818 44.9955853144542459  9.7135499757220707
 -9.0340223868727136 31.0313411146333635  9.2513492626962428
 -2.0758057881908698 43.0995712693435848  9.6703328159791102
 -4.6414277749304507 41.2025624164258772  9.5925907325649042
 -6.4851308149149816 32.9361829908678629  9.3460031105371613
 -7.2007934452366289 39.3031327006992868  9.4903222069223396
  6.3391248158460956 42.4304054018069579  9.6960648693239229
 -3.9314160291762570 34.8380580733740075  9.4620828231556242
 -12.3023329298983821 35.4942791710379097  9.3060131048291979
 -1.3710139141923834 36.7367877572186643  9.5717778394429907
 -14.8482905140536552 33.5857911260114008  9.2704658853835031
  1.1951139525404240 38.6350997452341289  9.6528892315359105
 51.9572001295054307 31.6771549631831242  9.2868844420769889
 49.4099231186075230 29.7696927965476732  9.3497290910461803
  3.7658485789495044 40.5326406169584175  9.6954571292277887
 -9.7536626241524242 37.4002340675782676  9.3858153410004519
  3.0661374145792935 46.8913222869921995  9.7186259809266851
 26.8599278155923180 57.6268120668957167  8.2865172413080348
 11.0186055167176438  1.3312340821205624  7.9228325300952882
 29.2557737890941674 11.4268970271122772  9.3631167461456979
  0.8448022226631167 41.8154757014712644  9.7038282854494273
 31.8211572454265159 13.3170409900127051  9.4788244093378449
 -1.7238702094795255 39.9189027163038830  9.6418071893561397
 -4.2865887937853078 38.0208998710556472  9.5469887071388158
 34.3887032892096087 15.2077434916634484  9.5604567100159681
 -6.8431268617263044 36.1196112419035416  9.4352331467944310
  3.4168916211680642 43.7119599206555449  9.7267765362869874
 36.9579067223428126 17.0994867514886089  9.6068378797553251
 -11.9412017237156576 32.3090730143537073  9.2665626886955259
 39.5272190090206266 18.9929561985929780  9.6175032309861042
 -14.4864708695437852 30.4004805032902254  9.2492303670502203
 42.0951188928354654 20.8873099362560453  9.5926939040901971
 52.3184862779218136 28.4921493067962111  9.2832627852988931
 49.7706560000309679 26.5859627382125332  9.3574926887823775
 44.6592083321794675 22.7841903738003495  9.5344416295083434
 -9.3941794975159780 34.2156706238828789  9.3334592923551938
 13.5594254905902982  3.2303691283565921  8.1512285872592027
  5.9904694793137887 45.6085144064686574  9.7085544355784705
  8.5641316904079225 47.5050155740524502  9.6486759104871993
 29.4031132278544831 59.5277153214201817  8.0052591972203153
 31.5682127090515579 64.5840083039514354  7.6967464428051144
 31.9430110421896600 61.4301576846212072  7.7554212482010847
 29.0294069937801709 62.6813532080626743  7.9209798626790118
 26.4896871495777440 60.7817298953666381  8.1887361112568495
 34.4833824785834935 63.3346243893509495  7.5670859805896615
 23.9457500091843123 58.8833467441545366  8.4728251347401216
 26.6922906085532468  9.5371437598951090  9.2152232358601136
 16.4770558663458999  1.9731429849629789  8.4014412954109510
 18.8378352466359154 55.0899202376519668  9.0035156114882344
 19.0239791364549937  3.8665989168473223  8.6245991872313024
 16.2748396181657178 53.1935256348133478  9.2229679707970380
 21.5755012080686335  5.7576482231051322  8.8400615955515569
 13.7078186940579680 51.2976285683984869  9.4051451911571124
 11.1371803705002712 49.4014144065101206  9.5474844186971772
 24.1317489759347161  7.6476020175630550  9.0390529223917699
 21.3951634551940195 56.9862885499726914  8.7502494929368844
 12.8140763237230857  9.5361137835415022  8.2649546225861670
  5.6395089990710279 48.7856704033452147  9.6841717483384961
  8.2123799429248514 50.6796613186280354  9.6097313806300519
 11.8335309609352564 43.0550267436712844  9.5627529818546115
  0.1416440172681740 48.1738787684937222  9.6847801992253810
 14.4065577980427353 44.9573960760487950  9.4603356993797529
 -2.4287407128266634 46.2793248034763707  9.6586129180279752
 -4.9955197046402064 44.3835775656142459  9.5974171817081722
 16.9784891304347028 46.8601146458341375  9.3196181650754681
 -7.5571208498047886 42.4852403291633465  9.5073467840999708
  2.7134392861931662 50.0678070530082877  9.6739860607108987
 19.5477156820942142 48.7632770294099132  9.1420699663816229
 -12.6631686795655192 38.6792182460669309  9.3150205600490530
 22.1127767721320936 50.6657574017652266  8.9298531516908959
 -15.2099960764114801 36.7710941140938417  9.2628705343794344
 24.6724487367800549 52.5688367197781758  8.6865867191193953
 51.5952599343657212 34.8620401105876851  9.2608680921900550
 49.0489085112722378 32.9541524964576737  9.3090199060148375
 27.2258476572696040 54.4711814067638684  8.4180709850210640
 -10.1129893025818074 40.5839352852242854  9.4043279487473121
 46.4999819771137695 31.0485273375934234  9.3952757476509632
  5.2847440024666872 51.9600454899045587  9.6262097453309021
  7.8553100435716869 53.8512240411864553  9.5413236099763967
 -8.6726974595010748 27.8479268257077841  9.1404861689897388
  7.7283899920247690  5.7353009614027322  7.7488437873975329
 -6.1255026063233933 29.7535344143038607  9.2257343752465673
  5.1876101534951999  3.8316802711478171  7.5644226139853750
  2.6456674305798593  1.9255800293562200  7.4650434030381625
 -3.5741446941928459 31.6564020524973380  9.3409584492631659
 23.2016843241489603 65.1958064082687088  8.3829450420436604
  9.2596879416845166 41.1534170622765885  9.6251627718887924
 -1.0167228577434659 33.5560823557077370  9.4607173050706947
 18.1064312812221004 61.4116801567644330  8.8546661792740160
  1.5466485650467869 35.4548275302863658  9.5596957725084568
 15.5510612960193573 59.5216260753333799  9.0702329290611754
  4.1148982559804468 37.3540608198039124  9.6231745577143872
 12.9900817302430021 57.6320112494670269  9.2608116385348520
 10.4241549688470823 55.7420527465177855  9.4191949279771237
  6.6864329839014118 39.2535372161790974  9.6456063575649189
 20.6565216174793100 63.3028807284351558  8.6218551507539374
 55.2260414877983479 27.2156826336759430  9.1987038925433122
 29.7733604556295148 56.3736322227120326  8.1416149998768628
 41.3859978694582011 27.2452604029968057  9.5874789287793352
 37.3185057921366621 13.9297477942392582  9.5290369265967847
  8.1046588750362094  2.5824426232377986  7.7052338212691271
 39.8850265886659585 15.8200033178712207  9.5487420416559488
  5.5636272916291816  0.6775326189665979  7.5553255532663650
 26.1166134810693222 63.9364579234739736  8.1405741565195129
 42.4517031604672113 17.7116723396310469  9.5360871199573225
 23.5747972775464589 62.0398714284033090  8.4037328181562962
 10.6440538862073222  4.4841875232091342  7.9234123106248155
 45.0164955862660392 19.6060241118094041  9.4913957724043918
 18.4757458422980392 58.2516371657960619  8.9236608500490195
 47.5766324756689727 21.5036942994405678  9.4182546133140317
 15.9164992676066870 56.3587385985329021  9.1499307688929115
 50.1311919070191649 23.4042965924333011  9.3290159778925972
 13.3517644200981973 54.4664606307791104  9.3418972718272677
 10.7834480534320107 52.5732764667320822  9.4955235461186511
 52.6803887531725863 25.3084638478203523  9.2474373877394580
 21.0283470650627358 60.1453646212840738  8.6706858185842091
 43.9460650545130989 29.1450601017245923  9.4969493959135534
 13.1848923067733459  6.3832759362088858  8.1812924427288980
 15.7307649288485898  8.2807692505082287  8.4528227562649132
 32.3171430721532147 58.2764304778450111  7.8830729108108040
 38.8204644940038648 25.3473177060717063  9.6475325867013897
 19.3989601548688420  0.7120001084852121  8.6444643753939925
 36.2501464583450854 23.4509936800022096  9.6694599047546781
 33.6780029104010268 21.5546205806759694  9.6508150423286061
 21.9510824736155143  2.6016962146529954  8.8255278216055295
 31.1057983570508405 19.6579305408316110  9.5911072623220193
 34.7525520855075740 12.0405353482871416  9.4777511708979532
 24.5059665309513832  4.4898389907235234  8.9957964560753592
 25.9654755851525891 15.8647291024061943  9.3506363720408459
 27.0637878583444120  6.3770290630496582  9.1509766395948891
 23.4000875232135712 13.9686537989835244  9.1727457080455288
 29.6249952819328115  8.2643853276226782  9.2863322602928573
 20.8388584112783519 12.0731200622206121  8.9601011887524731
 18.2824800504355949 10.1767679552856105  8.7174245920280455
 32.1882043177406914 10.1519798882325762  9.3963389336196297
 28.5345163732627292 17.7612597594815895  9.4906781296127338
 38.4293614068698446  4.4399074721828349  9.2869227776054242
 43.1791080888457586 11.3737459049319583  9.3392700132370408
 -17.3837968324696881 55.8322972895463039  8.5955074071920325
 49.4096579555396787  5.6635574119542671  8.8913562670685611
 20.9455509518549157 36.1114390552559570  9.2971804671913443
 -4.6131145784573580 65.2826873849695204  9.1334340783587464
 51.9610045994822372  7.5526808588678946  8.7681162470496350
 -7.1714620220339933 63.3973833606516450  9.0434272481876992
 54.5092632098571812  9.4452588241600708  8.6429316838987518
 23.5185741774705797 38.0209216294147083  9.2441789988089216
 -9.7287579702501024 61.5111037645742798  8.9423213517903601
 57.0535548951908922 11.3428273222520737  8.5280759245565374
 -14.8355570326354282 57.7296652970302162  8.7120498162484541
 59.5952783452055854 13.2440539783780444  8.4431303293545330
 29.7112338708439694 32.3454921331711276  9.4372257882376474
 -19.9290903343020354 53.9297378927375064  8.5013670519832978
 -7.2151783582873135 15.1484178113304804  8.4070464192507544
 -12.2839978316578033 59.6222351082953139  8.8310197604056491
 46.8558529787270857  3.7762890212934668  9.0077352358775258
 26.0894181087468802 39.9309755061980098  9.1611694213711932
 28.6571765087002568 41.8400779529521643  9.0479358209987790
 66.5370100450653581  1.2671402958366966  7.5439694131691173
 -20.2959228313470597 57.0901727424177210  8.3057366757760693
  5.8822730185641623 21.5045480553978301  8.7336359712389111
 -22.8386854682625362 55.1857762696777101  8.2319713033962643
  8.4419726219514235 23.4077720993024627  8.9023490365890350
 -25.3814154797949385 53.2790067122410562  8.2210828015368858
 41.4262655753942113 51.3717515248542114  8.2807517310429777
 11.0069953836349015 25.3137661293266518  9.0453478854097966
 38.8807370298753128 49.4659003199340006  8.4018956108758882
 13.5757031252124190 27.2218390248702171  9.1583580972765528
 36.3321466145436602 47.5605693579664575  8.5637382533746340
 33.7792374775755206 45.6550865667965482  8.7400250052139583
 16.1475994970601171 29.1303515286805563  9.2402846364799451
 31.2214314570983653 43.7477650816096428  8.9061761488346658
 44.2989796548507115  1.8907438325096622  9.1152293426038682
 -22.4728132708969888 52.0241713520451796  8.4523191698343183
 -4.6738534862948278 17.0538120870779863  8.4320233752703206
 44.3349327767867365 50.1169152268879614  8.4630914827753827
 41.7902283596766893 48.2098591380877792  8.5360888358959617
 -6.7993120963664406 60.2389258140297201  9.1361690959571966
 18.3715224392349619 34.2019037882667334  9.3198972524121952
 -9.3587299655205047 58.3517826240673472  9.0612803541601821
 38.8054752886165701  1.2798670793228426  9.2663827168655786
 -11.9158163397437153 56.4610475152060474  8.9712345798692485
 -14.4689908974712651 54.5669938803394672  8.8696188039116119
 41.3645854569117404  3.1647604974126682  9.2169145006259043
 -17.0179441837526113 52.6674919570735511  8.7692261801195119
 43.9231672923420575  5.0495146903248971  9.1543213819915987
 -19.5639964534585005 50.7634087504483631  8.6935331816638559
 -22.1087945445670933 48.8568638154551351  8.6640157689080599
 46.4805304891541411  6.9352651941672683  9.0797772075880374
 44.6976831847163751 46.9492559431216350  8.6914758978417819
 49.0359408215930088  8.8236660085392202  8.9930409507142404
 42.1517631356304321 45.0420596653058070  8.7740823186300982
 -4.2390251618515293 62.1241144214193781  9.1961006148024502
 -17.7519470332774993 58.9912188651346412  8.4245916266919529
 15.7977714498543342 32.2925025376266959  9.3122930316820778
 13.2248142973135039 30.3839909908947945  9.2736233360593783
 -2.1302981111280146 18.9586454533804236  8.5182200505186785
 39.2430979384142020 46.3035570627718656  8.6588172034582804
  0.4159819074887527 20.8617851963206071  8.6523247891868120
 36.6924139404598790 44.3982391091886299  8.8094320208009353
 34.1369032780948913 42.4923320180793311  8.9612468860420655
  2.9671396014863793 22.7636209339161937  8.8112610257425708
 31.5753616552677983 40.5856964119729824  9.0928461779516656
  5.5241265057546300 24.6657418239059965  8.9676759303102287
 29.0097533804012073 38.6777792744107884  9.1949715438009907
 26.4405103764620080 36.7683978728595946  9.2654642380214352
  8.0870120326268911 26.5693541543840404  9.1007228466528201
 23.8682918841312350 34.8584987781500786  9.3044918411635820
 10.6540614632154522 28.4758321394788112  9.2031145758082573
 21.2946771219658437 32.9489342701000396  9.3129706709630753
 18.7209671783847078 31.0393421612058944  9.2914309049261270
 -1.6790738349616778 64.0091225353381645  9.2420114517173815
 39.6032795350145363 43.1361120590406557  8.8964789168491105
  3.3289240133593965 19.6024466037130658  8.5523321904159211
 -0.2728589298235892  3.1743903569006888  7.4832843577227539
 32.6874639946347614 55.1226258646872580  8.0627381155299709
 11.3618298306067125 22.1548972031918794  8.8778643797663364
  9.1618741810212612 17.0948086894089144  8.4845994005364673
 -18.4952237479455164 65.2999208196035141  8.1845746670573778
 -21.0364726648706579 63.4001460790249993  7.9943171460199096
  6.6104058427507635 15.1936250273911089  8.2530545199096146
 52.7110670851981666  1.2375118688265163  8.6199180472571761
 47.2318488224860928  0.6181155932405776  8.9833629924626397
  4.0640858840370973 13.2921497904823465  8.0382124679940805
 -26.1182940473110818 59.5921962636097433  7.7826863064274514
 49.7857465252481148  2.5053867325352295  8.8301926548518725
 40.6905102350777526 57.6855012915494569  7.7959934113827618
  1.5204154638095837 11.3890842605396365  7.8673183419069117
 38.1470666077717269 55.7790408092325478  7.8946088918657038
 -23.5772172767948867 61.4976973374546958  7.8535253519070025
 35.2319024613086214 57.0266850383631549  7.8437851372744136
  8.8002634333844849 20.2498680521713794  8.6936335694010047
 37.7754231534805953 58.9323034417586200  7.6854411595100913
  0.1029654005467507  0.0184180737569849  7.4659614113164032
  1.1488747498040492 14.5436279980830303  8.1150079643221389
 -3.9354838465967905 10.7333963416950819  7.9471439771778076
 -29.4074504827419858 63.9930836471322451  7.4958253476054981
 37.4006522860015238 62.0860559794907303  7.5362162592002795
 62.8751576348907975  8.8284848475675854  7.9781907093426359
  3.6946265928289312 16.4458178639162682  8.2885369190056561
 34.8587698217974733 60.1804148849358853  7.6716570981630463
 60.3363914797032592  6.9253925987871598  8.0788790393249776
 -23.9498337386487279 64.6514380982648191  7.7414563085157555
  6.2445246060304749 18.3474719956569423  8.4903797538806529
 -26.4904670863556397 62.7459317234991900  7.6318033434632717
 57.7971989611884638  5.0254118155749259  8.2322567225323411
 -29.0326292656145739 60.8393086030260690  7.6111736188150809
 55.2561314854380683  3.1295281474127270  8.4191071115558849
 -1.0221813478185964  9.4835877308176872  7.7649622666174789
 35.6019686851547092 53.8733951920347778  8.0628607464906441
 52.3358142470569163  4.3945634162433898  8.6702881298760275
 33.0552022304890087 51.9688509171661082  8.2765042395210351
 -0.6485874782459480  6.3292655482727085  7.5871824892370956
 35.9691855354821044 50.7183176485727572  8.3092864721660789
 -4.3059205418515765 13.8921760855461720  8.1830581901232691
 66.1614225808812364  4.4223130775487736  7.6062021923057319
 33.4191958561593125 48.8136517226065081  8.5074829046487430
 30.8640626988700681 46.9074594818614301  8.7082252021087090
 63.6223645577010330  2.5164465236997398  7.7169162940855918
 -1.7639405633603820 15.7971661303845607  8.2534998707598923
 28.3031549755611636 44.9999115440091515  8.8912755591511807
 61.0839399308968254  0.6137044325803609  7.9032068660417734
 25.7371941367467976 43.0913744207032607  9.0479469097646259
  0.7809563512817247 17.7002192211054528  8.3836010100419145
 -10.1019473318703294 64.6680854773846079  8.8598888712935828
  2.2691774728167800  5.0808330941589537  7.5230368148402063
 -12.6556043649974743 62.7793293107887891  8.7159131656174509
 38.5149868409388176 52.6240316326433728  8.1404356596297109
 -15.2055784395993818 60.8873504801272674  8.5674407803927064
 62.5050082072259627 11.9867984124082341  8.1826269365642919
  1.8937797432195802  8.2353144297429068  7.6626149315574894
 -3.5639049027916618  7.5776323878212830  7.7473335963469978
 30.5042038048848880 50.0639547729130143  8.5075179231794369
 54.8816997490098828  6.2862927152656729  8.5107535495783342
 63.2480156788281320  5.6719112443238977  7.8155845337333760
 27.9471590645231274 48.1584041456129626  8.7299565165139583
 -15.5780554074613864 64.0420096057436581  8.4586239521620303
 60.7098821556580646  3.7692304730351829  7.9576098987665613
 57.4244809830953216  8.1826714261559221  8.3639111495955571
 -18.1226493378920885 62.1465874842714925  8.2801270290474669
 58.1711971966744272  1.8695857806688758  8.1542847274520085
 -20.6647650875910323 60.2464851922835720  8.1287443321643664
 59.9651323403829366 10.0829708417947614  8.2481278313808506
 -23.2063972581035607 58.3429432132431245  8.0246929673583409
  4.4366948137500248 10.1391747599614082  7.8209159872785703
 -25.7485025212460954 56.4367888347314235  7.9867400816740242
 41.0591911489916512 54.5299846540519155  8.0266737088261717
 51.5891894414691308 10.7135436290789396  8.8962378116429086
 47.2181838260538598 24.6835016624604293  9.4499313569967569
 -6.4313974045802365 57.0769198238280353  9.2565753048502515
 12.8752740553399558 33.5483330147031751  9.3768498575771666
 -21.7462166031469515 45.6829646955596829  8.8514837928022452
 24.2180181929924210 31.6954720128090806  9.3546867855535805
 20.5957817634982092 39.2738256618247661  9.2727218421156152
  7.7343345348084913 29.7353733846590202  9.2800061832802410
 31.9284828057512939 37.4201671228708577  9.2610807276901532
 37.4067509798107096 38.0602338165286724  9.2299552106912799
 18.0223777710433772 37.3650324680919184  9.3390142118529180
 56.6839224377030320 14.5073492599563565  8.7032993886293202
  3.8166976296013408 64.6178484627769052  9.3004218657882483
 -14.1048365376984499 51.3983591825460451  9.0181258108341495
 23.1677914150328199 41.1826343438783340  9.1755176003816068
  0.0543160886224742 24.0284105498109817  8.9035872374024230
 39.9615073931588753 39.9639903296634742  9.1055990321035019
 29.3610450295569017 35.5126065221015779  9.3263386095421374
 -8.9927446286114154 55.1884389837816798  9.1950899225787097
 45.0592883134390476 43.7749420642024631  8.8939978099662387
 16.4984766271511276 25.9690543475022082  9.1598405566762544
 15.4488039113576754 35.4559704424114344  9.3741875171056357
 -2.4944719935804058 22.1259894744204182  8.7692655645834279
 13.9284366761386824 24.0615074433509513  9.0339563968535561
 26.7905349983978773 33.6042096542408544  9.3573105290102383
 10.3033924905679743 31.6413839438766900  9.3456421549009292
 42.5120487792259070 41.8685425859003360  8.9851402835920080
 -11.5509391564241888 53.2950716554771375  9.1135795212802488
 33.3094632804977024  0.6709527921989413  9.2731523680663557
 -7.5819356125081772 18.3152610212193778  8.6277254950283933
 59.2271023758525814 16.4098114305053784  8.6414542806016286
 34.8458523064820085 36.1564630704203154  9.3340919141172947
 -1.3061896174435799 60.8487140917222717  9.3160403843344781
 35.8697577106502479  2.5550778344583178  9.2880725941013775
 -5.0391987971722676 20.2212562469303236  8.6715765514101957
  5.1687858622817693 27.8319676746928053  9.1798732823403792
 37.0503805777863420 41.2314380149430377  9.0343213921637791
 -19.2011438297740114 47.5909278359556609  8.8646124279962741
 -16.6544064603613400 49.4965974713562318  8.9266907821662436
 32.2803897725068083 34.2511860515952549  9.4044562010553499
  2.6087150657171150 25.9296091699417239  9.0491543502405616
 19.0708992637590384 27.8776269391507867  9.2552241769106089
 54.1383943610543596 12.6079703437892228  8.7950006716021907
 21.6441457173654115 29.7868656507263054  9.3203282510566012
 -3.8689870371213320 58.9634083704619627  9.2964726035209537
  1.2557588074592836 62.7334555250499761  9.3172556898135426
 34.4921780644761995 39.3264361497448363  9.1615360525303977
 -5.0533762738297794 36.2835892587520235 11.0410012422004602
 61.3193030049285994 13.5571821566145019  6.7836797397264190
 58.7602969627605916 11.6368001259009652  6.8467287018025607
 56.2102392497566612  9.7208282865365696  6.9525454838838590
  9.1918261357277746 33.1780825719859536  7.8555728961433147
 -2.4893096974217896 38.1892854108102213 11.1465938657789287
 51.6460149400225177 26.7840811550126716 10.8557671966413025
 51.5408353493671640 26.8072247040151481  7.7343846962253124
 11.8144555494000993 34.9852641558178803 10.9953650707429667
 -7.5997227416185336 34.3798809709236721 10.9310000630317941
 -7.5437037934386417 34.4706050359563534  7.8101429992961293
 61.5091930158097639 13.3592351490425454  9.9000876294507361
 -1.3831115235211162 28.7772108085533844  7.6480476289441564
 -10.1311186332657588 32.4800630755877719 10.8435565689329607
 -2.4289837367411509 38.2636289617876812  8.0278079249195820
 -10.1087474133282633 32.5599552060798629  7.7209618674653866
 -6.4699950241890605 24.7905380036846807 10.5446849487740515
 54.1051851835029183 28.7236576747291643  7.6809708009660991
 54.1749564915235453 28.6834169953592948 10.8034429700384838
 56.4503217336448770  9.5877881322891412 10.0678882518504178
 11.7539765825575344 35.0658153647586346  7.8751206261276758
  9.2333596688363908 33.0606576988229648 10.9751901687581483
 -3.9419634188848183 26.6900990479336286 10.6418516094734557
 -12.6769620508709639 30.6428349434103318  7.6749541217496660
 -3.9435170824399970 26.8759033330842385  7.5238316080893446
 -6.5097618697094379 24.9664114321598198  7.4255879331478702
 -12.6536395075997667 30.5816233007335647 10.7981411287561766
 58.9859070784515112 11.4718611470548844  9.9622546755138526
 -4.9838359892078588 36.3722286070217322  7.9215267847249109
 52.3969425151855717 20.3914953959120133 10.7311737714570690
 43.8776527704641452 21.1080510179447742  7.9807467137132884
 49.1035483438884270 24.8834896313141734 10.9390117629549284
 31.0496282551305711 11.5866442187321894 10.9730429766021782
  4.0792222431378828 29.2220944103472853 10.8248170870695084
 31.1246923906689688 11.6743539351303571  7.8528546464743103
 -0.2958072089060306 19.0431755165304608 10.0742591939358093
  6.3084208587599413 34.3273634863542867 11.0602467589982361
 28.4656613376600660  9.6982693336412549 10.8478178744254645
 28.5801625978645362  9.7846719092474981  7.7282862983549769
  4.0785270528611450 29.4026808105446626  7.7071963165491129
 25.8834092121214745  7.8131358255237942 10.6939253962576934
 -0.3233915705316834 19.3038000432798498  6.9580150152941238
  2.2412258990631528 21.2039837735330963  7.1126702219272460
  8.8365440067300121 36.3342545742282113  7.9695275454547367
  8.8927515323602471 36.2452572705301250 11.0887497369838091
 23.3053141329091957  5.9318057083124049 10.5163123785852051
 23.4989918105964151  5.9953548270765626  7.3982724226073788
  2.2344844669594419 20.9487461969808137 10.2288913826837469
 20.7324330413702036  4.0541800938378785 10.3208616842651981
  1.5147095320805639 27.3085463164557041 10.7017844433723468
 20.9636964232973106  4.0939220841988195  7.2033797992891229
  4.8010027600383891 23.0956894318209009  7.2782636615654122
 26.0377275285256147  7.8921050899346632  7.5750966749873667
 -1.4013098497022465 28.5938754436680114 10.7655413080383813
  6.2793714809574999 34.4470426303476884  7.9413611423965680
 33.6346280290408188 13.4783421861730570 11.0662478870945371
 48.9824447330570649 24.8986209010466339  7.8184184107968333
 46.5443445241185714 22.9806433687456426 11.0279105924333614
  1.1720546766312827 30.6701277809271993  7.7722239099340005
 46.4287999233514057 22.9998036346664243  7.9083561345723457
 -5.4647543280408239 15.4780345255869864  6.7795681719716505
 -5.3277788062879017 15.2496096953049527  9.8966925481304546
 43.9719996770767239 21.0760238785775478 11.0996215812233299
  6.6544981248692165 31.1391690410095521 10.9179109842233917
  1.1563606218263249 30.5010473685397514 10.8902431927033270
 33.6713961874802763 13.5624921699791905  7.9458402437491591
 41.3911101722551678 19.1726662585917715 11.1423153845135410
  6.6338393425202575 31.2900377701428027  7.7992544020732275
 -2.8935167337101904 17.3949337331690224  6.8403829056376155
 38.8062572700615291 17.2719366961248966 11.1514052806504136
 38.7730515602021057 17.3353754128342850  8.0319263194727668
  3.7251533181850873 32.5593128252652946  7.8740124729532335
  3.7285776862890820 32.4125962008017225 10.9925081499658450
 36.2203583432886376 15.3732577445280594 11.1259866555461677
 -2.8151535989009719 17.1443294392152836  9.9573466780489372
 36.2209982189296866 15.4492418267031866  8.0058536719682341
 41.3256320073018983 19.2207190596448889  8.0233049239363794
 -8.9903444240898409 22.8930103661172026 10.4921725253172724
 14.3192413394110627 36.9530870351328389  7.8583846139902436
  0.0878660424099837 40.0969721618176038 11.2259453587987110
 25.5128248866491525 10.9697133367925215 10.7621067232386292
 25.6701566122492686 11.0583617684648843  7.6438328797976958
  5.1722667950994232 19.9417520907774275  7.0317580409340330
 22.1279584344964526 42.6986572508701414 10.7297377740005206
 22.9330131461455480  9.0796075863457837 10.5702425042103023
  5.1303522842640801 19.6960573600980666 10.1491173168279225
 23.1282651272148456  9.1654313319315985  7.4525201312541371
 44.9480120202425510 11.6248805247578648  7.7152924621878771
 20.3586516951100016  7.1931477774399113 10.3524382253708236
 20.5899983040770067  7.2687167815343834  7.2356318245380633
 22.0235980604371733 42.6147619684079970  7.6095001213443441
  7.7323450404153027 21.8289225941814813  7.2159733489152096
 17.7921819426573755  5.3089648474276334 10.1164732601055469
 45.0696724909376627 11.5247771682395488 10.8339640771772139
 18.0539585496132275  5.3668348567261761  7.0000524331038605
  7.6812216748943145 21.6144873479402939 10.3342356654974434
 15.2382149628944710  3.4268373860652543  9.8740594429589112
 15.5172274129312076  3.4591008680345592  6.7574428845864967
 47.4929709741912802 13.5173845563687536  7.6611686331696101
 33.4645960556825344 64.8236521442979381  9.1600306564671481
 47.6438325712230011 13.4124309684524565 10.7784738605138113
 42.4925310557179188  9.6422586922632956 10.8695607449642839
 33.3099619396329771 64.7830452511259836  6.0337546136721505
 42.4038022210424543  9.7327326541898298  7.7493637289373307
 28.0969338627303777 12.8633563551440897 10.9226256937677384
 34.7788174709478426  4.0484119533127245  7.7320697338580571
 41.0324296859156092 22.3679448322139365 11.1787479153217788
 40.9745036661613327 22.3792997159421390  8.0591651117070260
 37.3186309318035612  5.9452357456646201  7.7570139526688440
 37.3318551587552960  5.8865756906459330 10.8800054589626995
 38.4480406778863824 20.4634560918591362 11.2019136315843326
  0.0395916294271441 16.1437156173705425  6.6890633958281915
 38.4206424423302195 20.4938107573909143  8.0826250052405371
  0.0720538736641176 15.8832028822185123  9.8067165882656209
 35.8607755456288118 18.5600890524787587 11.1884456041179980
 35.8669732615877024 18.6079829355576827  8.0690685166614298
 32.1711447324962379  2.1420113707172610 10.8136315962697811
 39.8602855566419976  7.8397474085658549  7.7632014981079500
 33.2721012701152574 16.6590472369740645 11.1373364936600616
 32.2384803523826875  2.1510779197368191  7.6901498733897586
 33.3136966297577146 16.7224930116534907  8.0177785718849943
  2.6085828938891016 18.0472925468581273  6.8473365543117160
 39.9126474835338101  7.7628254315752487 10.8850655082537777
 30.6836567745510784 14.7600332348826182 11.0484152761232224
 30.7627306361603132 14.8363566183003019  7.9290292919446035
  2.5947982610472673 17.7855228895595872  9.9644873496585635
 28.2150465394411043 12.9482670810759917  7.8038607211855071
  0.1239415462966275 40.1507975569746449  8.1072941099773779
 19.5520679357008937 40.7688730991548525 10.8452234169698531
 30.9533650969467615 62.9398925219062733  9.3479643032942761
 55.1421615205593341 19.2174220317323154  7.4243849771922275
 13.0349548797968851 49.6361919944150856 11.0251141470445191
 55.3126313829259288 19.0997420235027739 10.5415779272783592
 12.9011234407461490 49.5827108506707006  7.9072029691031958
 51.1314900470292457  5.9026040322822260  7.2162579299582639
 10.4453500085188029 47.7283907138574506 11.1481859127183309
 10.3463811880734493 47.6958780577236041  8.0300131786922631
 14.3954980462822490 36.9116608687711647 10.9792348681536716
 51.3388468614872906  5.8310622459398900 10.3343492122059573
  7.8550163355912597 45.8204272080190194 11.2298866485760325
 57.7043705243406819 21.1321380124833702  7.3744099859500389
  7.7909063426997829 45.8087897998069593  8.1116939865218463
 57.8408731821001041 20.9966307308015274 10.4928385487841727
 11.3969468212849687 38.2221049913985382  7.9572698936265676
  5.2639118959423765 43.9126222822585959 11.2700582526043842
  5.2347393236796762 43.9223227184253417  8.1517403526081242
 53.6686618679740306  7.8095049959158152  7.0812746012122076
  2.6738852190604367 42.0048092452627913 11.2684368235732606
 53.9002076006526565  7.7069083781032672 10.1977096021263698
  2.6788327032493053 42.0363736471631952  8.1498857926460069
 -9.0789473074299227 23.0505068824769488  7.3729274985642341
 15.4536857471900273 51.4689765289241237  7.7442424195898187
 10.2931370667324043 23.7144666283300047  7.3807563186003717
 15.6207058896272120 51.5432242793379700 10.8614258638696768
 16.8863345532427367 38.8408661487753477  7.8074142074458166
 30.7415344911510786 62.8581252733612530  6.2250349713450079
 10.2437734017018034 23.5399899586159052 10.4999774284260088
 19.4550536245327130 40.7277985311867212  7.7241766398020761
 28.4299686394602595 61.0523182939152420  9.5947581363624632
 50.0382728557648591 15.4115626876411049  7.5884677640561167
 28.1855131064979751 60.9420713562200689  6.4755249163457220
 50.2121447917376713 15.3051072587445987 10.7052745995041629
 25.8926968371516111 59.1602071250588182  9.8718973242180414
 25.6385113196113075 59.0358367631713392  6.7559355097457745
 46.0576885273537400  2.0957230602626900  7.4730453215482440
 23.3407248533328335 57.2617239920731507 10.1547253972919140
 16.9742905265589421 38.8401165827184442 10.9286372468710553
 23.0946717524403837 57.1371383437161384  7.0400224016111563
 46.1989316851524308  2.0886443420680396 10.5947161415568907
 52.5870327077076993 17.3101210781438901  7.5036788905088558
 20.7754780870593301 55.3579800247164115 10.4217903668857019
 20.5504819819936273 55.2450511922630767  7.3067008150376678
 52.7700846522572320 17.2017188224595117 10.6204421050467452
 18.2010910838830284 53.4510037062138821 10.6592738086261196
 48.5955811600754473  3.9982625276360650  7.3481558563704841
 18.0036667009310811 53.3565715139900263  7.5432692336254625
 48.7713515258759216  3.9592952268602217 10.4682133995748892
 18.1669687517839122  2.1781499894411329 10.1137237661074053
  1.5244972487559947 27.5127202330749014  7.5846145259789353
  4.7805088434753582 22.8617730231790866 10.3954794009344109
 29.1437984336598994 54.7854341388988431  9.8467379625315363
 28.9503637879895308 54.5953745254272036  6.7304459983127787
 39.4927072475573695 11.0105190862042885  7.8552588727599693
  6.9986973890622775 27.9571059691697208 10.7455684443665795
 26.5952947559686699 52.8721039034898297 10.1141281099967664
 26.3960854600742501 52.7022685850969594  6.9983804617167902
 39.5392524534452647 10.9192019997876315 10.9759242849755765
  9.5530331839468250 30.0225745237807011  7.7157359453865828
 24.0337017837584135 50.9531086268858573 10.3643809674921137
 23.8416199531602437 50.8145871256079005  7.2482382494206776
  9.5727232719273925 29.8817351305866090 10.8352522620733147
 43.5269563806845454 24.2676662682892754  8.0011338044392915
 21.4639211332189284 49.0316149583341954 10.5869556886382519
 55.6906613509913413 15.9150285427029861 10.3965265854869013
 21.2850027591916380 48.9277607979364788  7.4697930566433755
 12.1167878241517926 31.9100455758562518  7.7703315212826434
 42.0387690258907512 12.9006157377717994  7.8539379314372413
 18.8876129443238518 47.1105390793939591 10.7770327330483546
 18.7257624466869466 47.0418183256160347  7.6594335096545691
 12.1490629814651943 31.8090347188777933 10.8915176494696677
 42.1201941047128514 12.8056938872055497 10.9734628896589577
  6.9934205699997376 28.1352923825357344  7.6274743600461603
 16.3072907734617409 45.1890947026491219 10.9321354543338014
 23.8728543577709722  2.8168013191538872  7.3775106068912528
 23.6835195693598770  2.7953431678514247 10.4968681129073644
 34.4058589820220604  7.2269043135864957  7.7832026256846136
 36.5862192432596842 12.1984738355316278 11.0416080277135187
 36.5821800901731962 12.2877087675192538  7.9209315420764552
 -0.6810617689125091 22.4612789987547146  7.2156258320529547
 34.0028916573923325 10.3112071370796912 10.9822239507690824
 -0.6654744685048484 22.2169896107645499 10.3321121801151801
 34.0365846791221358 10.3982321178667476  7.8609801740756291
 34.3752012192404095  7.1564801969014082 10.9054481189596828
 31.4198009111827474  8.4267995698256897 10.8947076171812292
 31.4925538178152919  8.5068656239919687  7.7736025284557062
  1.8801357966339627 24.3583514936571817  7.3625341750026818
 58.2227892307055868 17.8089016703440137 10.3341753157858793
 28.8377610801427267  6.5462828089112266 10.7813953347022409
  1.8744615333233903 24.1234694708347170 10.4791680756562187
 28.9501185363217211  6.6137419750510080  7.6607236164547388
 36.9483682162779843  9.1199291265911491  7.8312723901680972
 36.9573808317082211  9.0366073031790641 10.9531580663562238
 26.2591846187435962  4.6691623988809781 10.6472478646424626
 26.4105736547456864  4.7167291475047541  7.5269538768095625
  4.4373837374872052 26.2486512292379999  7.5069248088369234
  4.4306224409729023 26.0377185091763259 10.6241614315554180
 58.0520222532895644 17.9671578960007601  7.2174529516716106
 16.1652245215076640 45.1541762498428056  7.8141932973440698
 14.6839220261699221 33.7970264518348387  7.7921788138310770
 14.7268334122789319 33.7377799889518499 10.9141302462705898
 -1.7317949384311160 31.9386508592928102  7.8116064302668109
 42.7725882757333551  6.5585878565128448  7.6580026387905038
 -4.3155440620821590 29.8859791414937810 10.8091258049578673
 42.8670119807123271  6.4912220437927015 10.7793154420976851
 -4.2898870773238338 30.0399709622054587  7.6903485194882153
 49.6827062619054090 18.5723284806001558  7.6997090030465243
 -6.8486279599513491 27.9852667215193271 10.7050200320985081
 -6.8538083467231807 28.1324457287210450  7.5851067231613865
 45.3144344430659345  8.4540492420935216  7.6057880167570122
 49.8430623503398849 18.4913427478218466 10.8169762128214355
 -9.3716344101738951 26.0866763316566690 10.6394241071466471
 45.4434252867797710  8.3676104155872277 10.7253244374065737
 -9.4222060483162302 26.2181803391851744  7.5185250328365463
 50.5851779939414854 12.1330556222548260 10.5736808565811291
 -11.8917937718740632 24.1892710736511916 10.6242511593440838
 -11.9916116672566808 24.3004837693676912  7.5035254048134590
 47.8563934520774836 10.3507878355797391  7.5382801908003030
 48.0163667785620731 10.2490561570329550 10.6560650336204592
 54.9340519919690280 22.2911074653803709 10.6592493598486300
 52.2348853968313662 20.4731078328791583  7.6135799172460867
 54.7936780935430150 22.3837224564637829  7.5400836489936305
 -1.7668843807629153 31.7896379915749812 10.9302633821492616
 52.9437331517748149 14.1478122320416873  7.3672178141060307
 40.2887477954395905  4.6182108451804629 10.8180352899051151
  0.8221019295352878 33.8296703756921247  7.9234131295754304
 13.7236458873276561 43.2696841664952103 11.0509842660423949
 13.6042407504526857 43.2664803135767642  7.9319572860622136
 55.4934787272826355 16.0545536550123806  7.2803553756247981
 44.5859394275612502 14.7897565914421172  7.8270498067412637
 11.1370069517706618 41.3515311221206261 11.1314693815572507
 17.2536017171002669 35.6848271076903529  7.7820229948334925
 11.0436318918212013 41.3787369805627065  8.0117534709721969
 17.3046998448398597 35.6683233737674925 10.9038332896512635
  8.5493556932193293 39.4345816421641189 11.1711153487329131
  8.4851925139846678 39.4908328221613232  8.0515675602190395
 -3.1906585030584949 20.3158492575319194 10.2097626350078041
 44.6992884544347149 14.6960167937970176 10.9455701397743663
 37.6920260560337965  2.7639024727760826  7.7170662522229430
  5.9287013621743911 37.6047175903321715  8.0496680786739656
 37.7099202576699639  2.7468494430081938 10.8411886166088998
 53.1448273254646466 14.0219334464944332 10.4831747807454434
  3.3774478199863358 35.6075404724884095 11.1241310198781633
  3.3744446359497684 35.7179391258179848  8.0057910959389229
 47.1337036897526218 16.6792437475859963  7.7748763313288869
 40.2314764245402827  4.6619822671233679  7.6949430323621373
  0.7992648960301001 33.6966578821583482 11.0417913459136798
 47.2747269499161149 16.5917652712213588 10.8923790202555342
  5.9621479976812726 37.5203800643190988 11.1684535665350548
 39.1300086017054767 14.1751561134441246  7.9512876943968784
 -8.7337560769187803 19.8849067550191450  7.1986025610422049
 39.1702916844054627 14.0887812758672730 11.0713821980772540
 -1.0333457096354288 25.6182151157442100  7.4481835417092510
 15.8087484205656725 48.3114238102194378  7.7896179529097562
 15.0567280172553204 30.5673800297406153 10.8347881552006804
 16.6426116225655072 42.0137090006684417 10.9391298765462626
 13.3811088022443698 46.4522856255630145 11.0510007264488088
 13.2514763339337058 46.4243895291871382  7.9329885358798542
 43.1449700205347000  3.3782445644571135  7.5992126980417796
 10.7935180447485415 44.5391272305486083 11.1552932674905527
 43.2445919155051399  3.3523665764297315 10.7219115127123725
 10.6945276005650740 44.5365746287510049  8.0364039836364807
 19.0893775856023922 43.8842851145104333  7.6975151939582034
  8.2039310872089519 42.6269684966816129 11.2183624270893674
  8.1375090477583036 42.6490928354577647  8.0991584424418441
 45.6849046568944033  5.2771582370650556  7.5187064834597388
 19.2221427102518838 43.9391170527426738 10.8170392030330191
  5.6135127105707365 40.7161566318590573 11.2390006236464561
 45.8197549199200509  5.2232758242317114 10.6396311844722327
  5.5809930094679601 40.7629771894689483  8.1200174241978864
 -3.5671643880557733 23.4994804983231340 10.4410780869363595
  3.0256994784333333 38.8054548167326345 11.2168435487742162
  3.0256343391429934 38.8769127370849077  8.0984340266154415
 15.9670566946627090 48.3662575346854453 10.9068500705374873
 15.0529194058719202 30.6415881966853085  7.7130340066006147
 16.5240569035335838 41.9971822024655523  7.8189197457698736
 18.3645091772878217 50.1988055835590927  7.6077984405321484
 31.3191122887955480 59.8195720487168288  9.4372250667464890
 11.4778909104639482 38.1666627078479621 11.0768478418242786
 31.1252623761940796 59.6725762271783466  6.3166793676654223
  7.3591686056509618 24.9819217905838826  7.4301081104567519
  7.3406304551585304 24.7816076157404694 10.5486880229429811
 28.7916067851286073 57.9234023154350481  9.7001283744912730
 28.5673463653288664 57.7649646651201181  6.5827913895283166
 50.3996914757244312 12.2476153089335345  7.4573319391511594
 26.2491570321018557 56.0203046984519943  9.9815243421837572
  9.9201086887720944 26.8676532399124319  7.5554444984581552
 48.2241081557797102  7.1775597165344269  7.4275112573475033
 26.0163941888862666 55.8659168718901853  6.8658828092148099
  9.9088220625142664 26.7075858509543771 10.6748835591273004
 23.6914502419840467 54.1104141206157578 10.2561840412415588
 23.4676931723190307 53.9739435043292630  7.1410282631656088
 14.0610483317598600 40.0892773915362923 11.0262942773333847
 21.1237861854660558 52.1958986450514431 10.5060287108327959
 12.4844720426130600 28.7547593599514251  7.6500846794908099
 20.9177823003004164 52.0856508540325294  7.3905385500091194
 12.4812597924033089 28.6371327357639558 10.7705114332783367
 -1.0336865021379276 25.4016695755146493 10.5653196369823945
 18.5486149157841211 50.2814461391402432 10.7242299774546144
 13.9592932920493418 40.1095627937483812  7.9061213501666678
 18.4289459695386739  2.1879712514648975  6.9967736767371740
 48.3923547452288858  7.0982264375474378 10.5463492663469705
 21.6531492322378192 45.7712477319847153  7.5432575423148336
 58.4036708496498562 14.8043089423470704  7.0367141885479878
 58.6047281120197283 14.6326895223497999 10.1523230361978225
 52.0223196500214868 23.5865980397685391 10.8108714304671150
 51.8865234475181225 23.6394508199271272  7.6909692886622665
 29.2141520274729771  3.4061267194518683 10.7458290379094574
 49.4739530555503677 21.6856962496162531 10.8963757022313068
 -8.3853249558290130 16.7220775772195118  6.9985700587434883
 49.3308202702375311 21.7346887472267554  7.7777867663827154
 -8.2236856966644378 16.5247061968311577 10.1154150674906340
 46.9095147717576353 19.7832055301306298 10.9785881588564607
 46.7799670919149477 19.8389301715791220  7.8605493570504770
 -8.6067782495735070 19.7043421842627211 10.3160762803723305
 31.8646853356786757  5.3321800438376519  7.7128843889535652
 44.3336613660176369 17.8813956923245740 11.0391321159231488
 -5.8171704172685104 18.6405497322676439  7.0165726409822433
 44.2296172335562972 17.9492619942535114  7.9206748086473260
 -5.7075452954580905 18.4189094974594241 10.1338398799386145
 31.7935508241615814  5.2796999276588608 10.8351885013574734
 41.7527131594082093 15.9832001622561464 11.0707840904650574
 41.6789281011274682 16.0623107558334581  7.9512734730064718
 -3.2473806586823213 20.5548651503941038  7.0928306686363287
 54.4487153889677629 25.5525279222525050  7.6259243311615403
 29.3243824035814846  3.4349556353696102  7.6236219638106455
 54.5553484862409661 25.4858554769609071 10.7471959064195275
 -6.1647287166551408 21.8023735796091707  7.2349337847675228
  0.4724102403897043 36.9901835920865523  8.0362530649820147
 -3.5969222273568371 23.7145279555953294  7.3234002107988605
 50.7632486297111711  9.0780066933674082  7.3263600689722930
 -2.1302000296512826 34.9878472777652263 11.0578091918578565
 -2.0806415903714517 35.1009078426894803  7.9390786989532165
 21.7972913399178374 45.8659182985512501 10.6618930332903794
 50.9602490940108197  8.9754946749411371 10.4434360656888057
 -4.6866455856598224 33.0838396258427352 10.9423384920758622
 -4.6368331878894082 33.2058005863660455  7.8226159207704251
 53.3044800061918878 10.9814252782377206  7.2195935587653546
  0.4430194306702547 36.8957854292899441 11.1542809532056566
 -7.2257198772691584 31.1824115769376959 10.8335078692290629
 53.5215548560984686 10.8570875964067870 10.3351288759247435
 24.2159630145802147 47.6576229107917655  7.3574414364141818
 -9.7521853196938046 29.2829923908507332 10.7561546534434402
 24.3690174693125527 47.7922327737159165 10.4746911984038658
 -9.7657132703879181 29.3878490507953565  7.6342514566422688
 55.8500470283675057 12.8903501289841902  7.1170509803396955
 -6.0890609248785790 21.6007460935623712 10.3526102448312152
 -12.2728908616228765 27.3842540670587873 10.7259395568272211
 -12.3351823326509749 27.4703135501224054  7.6038936621751914
 56.0700152714928919 12.7437253368318100 10.2319241410880579
 -7.1987663242641160 31.3007275962544718  7.7126339420777708
 34.7514868615575807  4.0130567758254658 10.8557030735873674
 56.5746097010972377  6.5450604884049284  6.8087184262529750
 46.0798323229135036 26.1617795034700293  7.9159070272557139
 41.4226262068125877 43.4548970313153688 10.4432627982178570
 43.9962827849676970 45.1594047742623914  7.2254306637159882
 43.9499688599617357 45.3556817720784835 10.3443212254209023
 -22.7836267304248388 47.0765470771505008  7.1744173397917095
 -22.8822511874062400 47.2534842878708830 10.2935617510796753
 -20.2131698440605021 48.9944158456172900  7.1800901321237465
 41.4293104192052652 43.2473280096128576  7.3247764987420680
 -20.3645223653937322 49.1499544198153586 10.2984559554395823
 -17.8398444873602244 51.0459942000148672 10.3538434271580364
 -15.0896439073675026 52.8157587354024614  7.3276389020392649
 -15.3025466640777719 52.9412056752781766 10.4430452445157353
 -12.5402913183992215 54.7147879447630388  7.4269519320545170
 -12.7492462735979757 54.8330897814292300 10.5422182905237634
 -9.9943742114195082 56.6111202334928194  7.5174516891297509
 -17.6470327697360645 50.9084297866398927  7.2372773928677940
 38.8811674499168305 41.5495680104666150 10.5709355812053030
 38.8681661946612209 41.3428275380678656  7.4522819123925661
 36.3245895675245123 39.6381396162313351 10.7013544446941804
 18.3664768130432954 26.2182910672494920  7.6460717924387813
 18.2894871468911262 26.1626991027896807 10.7681926270186690
 20.9363525469294807 28.1058947138718658  7.7350983773468034
 20.8657475438834439 28.0923520809564238 10.8575230365116031
 23.5056670652575015 29.9942043634777349  7.7931732535158131
 23.4432561800893247 30.0211201938099066 10.9155246698778932
 26.0743138033460369 31.8828481752767807  7.8196683224217143
 26.0224201937876316 31.9489660603128520 10.9415605186928193
 28.6394133182429869 33.7723005650264909  7.8125400628103936
 28.6015498727839024 33.8752555811030263 10.9334745769075834
 31.2008777164272892 35.6620883350797442  7.7704987846454978
 31.1797910656552872 35.7995013317254021 10.8903532281047326
 33.7579282765671280 37.5531222650687582  7.6927363543485603
 33.7551901484198780 37.7214762108454806 10.8118646222349284
 36.3127897173589034 39.4454284236295294  7.5826228791221659
 -10.1838834021683304 56.7221210302059404 10.6333481110335732
 15.7151752185595548 24.2334382934984838 10.6479719658577494
 -7.4486442651599276 58.5043705846524276  7.5919029118202470
 -4.9036774226879025 60.3985877754297391  7.6487660455144448
 28.2739767162067679 36.9264425044245286  7.7008122177216149
 28.2661414652092695 37.0524716405494559 10.8214920720000123
 30.8365794017677466 38.8154687770939688  7.6224317241037403
 30.8397206945692552 38.9795893744949993 10.7419450579482998
 33.3952033849965915 40.7056196240675234  7.5122476483291480
 33.4096683936960588 40.9030465000731240 10.6306327688126068
 25.6900410387455302 35.1231485901796177 10.8687933441853897
 35.9524189039468212 42.5990958785955414  7.3755675011611173
 38.5117821619308245 44.4980072640093454  7.2284040866976893
 38.5196180115734208 44.7324460488994546 10.3458608343555607
 41.0770904184667600 46.4049240479926439  7.0955711833627637
 41.0522848292614455 46.6372689863006400 10.2137423909611815
 43.6478977352059587 48.3185259608036404  7.0020891802511525
 43.5733528086162281 48.5370839048967042 10.1211346497656738
 35.9716758679284396 42.8215256206784503 10.4934690688720451
 25.7071164640897685 35.0371793541558674  7.7466961162101260
 23.1135762588584157 33.1922818865267359 10.8841253328822258
 23.1371651392028959 33.1484257485802587  7.7609602217741385
 -5.0351809257149283 60.4820863733196035 10.7682262376995137
 -2.3595518579329386 62.2943040771223266  7.6892583829846659
 -2.4572932257519380 62.3559301113977043 10.8108915803057428
  0.1823262106469316 64.1909235310341870  7.7147871122824121
  0.1215030426837705 64.2278303686958196 10.8376828937495802
 35.1515299466969680  0.8658863188330048  7.7239611268160813
 35.1297750557793762  0.8765857686348070 10.8477895866596370
 12.8572982037832162 25.6003893839203229  7.5173128440364660
 12.8130304164336835 25.4688809897658963 10.6380982440376322
 15.4246995683662362 27.4863726964452297  7.6236618428509715
 15.3859320043463601 27.3990210908866771 10.7454929410004887
 17.9947444401091801 29.3730226820245299  7.6993376143667343
 17.9610815206432868 29.3300052316321711 10.8220255614507881
 20.5658132156194000 31.2607300036395515  7.7450495587295372
 20.5367750257043902 31.2615364535434637 10.8681713886955418
 -7.6111301149743005 58.6045791331244459 10.7091671370992785
 15.7984156602071693 24.3318749968363441  7.5267453542149729
 13.1443577782950864 22.3048187766339367 10.4972631461909671
 13.2334698508680226 22.4461048631578315  7.3771574164368774
 16.1737665806610842 21.1765316495313058  7.4254764979680754
 16.0456341706250925 21.0697912094352588 10.5454582760582678
 18.7374328216821127 23.0638563332475108  7.5857265072366680
 18.6185851590620572 22.9963704827457356 10.7068041538517065
 21.3040174349578884 24.9516336140943871  7.7150010264735398
 21.1959833798009214 24.9218264800612879 10.8366101294515609
 13.4770850085530842 19.1443566432498820 10.3535679535124245
 23.8706678622245647 26.8396462750366425  7.8121880249546969
 26.4363309836526597 28.7289035735175382  7.8759556357890261
 26.3562938866151768 28.7710973975112800 10.9967682653086172
 29.0002988986867649 30.6180871983617173  7.9037214112227581
 28.9393369273532741 30.6943453873397338 11.0245819402394378
 31.5602196065905787 32.5075331080365686  7.8932997728128660
 31.5220414878965904 32.6150872531153482 11.0141031865250270
 23.7754184296791600 26.8465886070609585 10.9335484262671923
 13.6126701975873257 19.2907429954841909  7.2348081504551560
 10.9161457628920129 17.2214263211931602 10.1347262254252524
 11.0542755514192468 17.4051912052376530  7.0162394448803509
 -1.7090460335733324 56.0498659112963011 11.0132732250793648
  0.9160857178254059 57.8397405638959299  7.8795673950483893
  0.8730924781982143 57.9351657801579520 11.0001966305398877
  3.4629559144698430 59.7301766599697075  7.8390419387270347
  3.4557135319935286 59.8159210038154754 10.9603481091631743
  6.0076515549167047 61.6229887029748156  7.7745579831979139
  6.0377588762755936 61.6927272810144487 10.8965643404061545
  8.5491579221411662 63.5197491664966307  7.6896623762710963
  8.6174312708652927 63.5681655385099162 10.8122934071781494
 43.5183902472753843  0.1954552517939470  7.5881565417588801
 43.6239027896036049  0.2182903402983078 10.7102543636468699
  5.9332727531875715 13.6221596657052864  6.5467025997701471
  5.8355615625071540 13.3969958310266062  9.6662806434322732
  8.4955305084918642 15.5171116345692326  6.7798102103137854
  8.3678932716558094 15.3049671247036461  9.8984304043661933
 34.1160414396570957 34.3982878848431781  7.8445555405926441
 34.1025167103868228 34.5339214236331173 10.9647112633855528
 36.6690349786691030 36.2898654188397813  7.7593434735178484
 36.6782552348440234 36.4491047290319514 10.8785336682675098
 -7.2386017324848293 55.4436128874919163 10.8355225006890841
 -4.5405964828293923 57.2277601905461424  7.7625902995907783
 -4.6611852529888047 57.3290330997564155 10.8811141397962370
 -1.9937669031193135 59.1189377214275709  7.7831765714602623
 -2.0818521663870739 59.2103337312940781 10.9033484172069812
  0.5518230885149779 61.0116524477235131  7.7824321689434051
  0.4989148236562607 61.0869924333944070 10.9042828966676275
  3.0950305437625465 62.9066829187163066  7.7619832800805177
  3.0799328868351239 62.9609100782139848 10.8851771450038974
  5.6359904762393471 64.8032762051615379  7.7237177892760824
  5.6600830252922467 64.8327394415809835 10.8468478134186448
 40.6052178286263441  1.4792068954704503  7.6684168731871853
 40.6677281109164355  1.4817842128431460 10.7918042225951609
 10.6721357483382349 20.5606366553672970  7.1983635857972548
 10.5791541660058925 20.3778847807202332 10.3173415363875538
 -7.0885716981283631 55.3385408798189147  7.7187362396634489
 -23.1301893610727731 50.2363030790992866  6.9652581060989585
 -9.8114245295201243 53.5539175201955615 10.7676896414895467
 -12.3758570839041973 51.6577046103033339 10.6812936085258752
 39.2219163631011085 38.1849606888671360  7.6461440973451920
 39.2430557198981305 38.3591662571544774 10.7648988213704833
 41.7786368432140520 40.0874356865629764  7.5245606482238108
 41.7915011230538838 40.2649516529059923 10.6437407606674075
 44.3425727393655009 41.9968418103797347  7.4205937974604694
 44.3258587550820664 42.1662340097736674 10.5405362895464361
 46.9117951049083359 43.9131041290365616  7.3567100082647334
 46.8493000566849176 44.0650178327855926 10.4769793924074275
 -19.8684073946358879 45.8314946915885244  7.3462270665934568
 -19.9827509096359499 45.9629748739273793 10.4659358351186960
 -17.3005934626880311 47.7471419679358533  7.3888275502482461
 -17.4601175974057021 47.8612567616580122 10.5070187526425869
 -14.7390455439119314 49.6553660386219349  7.4698703930053005
 -14.9260517929583010 49.7599864562679173 10.5867860478029421
 -12.1851094612892332 51.5541630617306623  7.5652108970468506
 -9.6365304901419346 53.4485976062907753  7.6518946589918801
 -23.2632492162239224 50.4329885466006900 10.0839558256583626
 -20.5603393325610213 52.1547494660742714  6.9891167284346896
 -20.7465542113149546 52.3262986514116832 10.1059508727094975
 37.4119070320005136 53.9727790391181728  6.4689053317105332
 37.4337283283185940 54.2171964077779052  9.5887350854095157
 39.9903146654028987 55.8894448976275768  6.3404808041092835
 39.9441487182410100 56.1117707548170799  9.4622305313115849
 -26.7797848486445531 57.8127022475546184  6.2896535296178122
 -26.9029844543108680 58.0002859826893058  9.4117698412346051
 34.9133454679758657 52.3144986754597028  9.7719083711682924
 -24.2029478641791869 59.7384038653240310  6.3224249960580359
 -21.6367202809732291 61.6627220753706240  6.4291936628829900
 -21.8839250687465174 61.7673826905561327  9.5480535222421388
 -19.0815172136270057 63.5844174137645552  6.5914849368240098
 -19.3576111463513385 63.6474521497811736  9.7084834006826863
 15.8915676828102601  0.2773866331943792  6.7880162419878145
 15.6117849901365258  0.3021875453389588  9.9041945355501539
 -24.3977466903952411 59.8857239532457371  9.4435330985319847
 34.8407158317950518 52.0646414747373996  6.6541010848565865
 32.3789056969063793 50.4040612437011077  9.9866654734478466
 32.2755971568238849 50.1665546649522511  6.8693630096754701
 -21.5065988548821565 58.6352857389358491  9.7089490651589880
 -18.7140987814168085 60.4051914067494877  6.7175045117444361
 -18.9798056548063627 60.5181751153918768  9.8336141345243533
 -16.1677400441056989 62.3193937726745233  6.8756326263134815
 -16.4391287348710975 62.3965335123174398  9.9916839652477236
 -13.6286352812115137 64.2299194647899157  7.0466664461749140
 -13.8835684987224930 64.2721029198394262 10.1630698361758274
 21.3363826002445300  0.9136845542104435  7.2163294059801464
 21.1113978601006593  0.9225450707414269 10.3339308774944314
 24.5895015836210327 44.5013427952116771  7.4639082451161221
 24.7002268494963246 44.6284687619676816 10.5834492457519307
 27.1535469570439609 46.3883203149515353  7.2892127525387851
 27.2680729064537530 46.5577083448458566 10.4071416534920171
 29.7145850346720479 48.2752295146380987  7.0879924462894524
 29.8293055589235259 48.4839128783952873 10.2052464738424007
 26.7754129998467434 49.5442379077627209  7.1418019772587673
 26.9343277661577822 49.7178385910931055 10.2589083562866747
 29.3335382483437144 51.4324552447982057  6.9028728149680054
 29.4897605603672126 51.6387950269638125 10.0199204741498349
 34.1974462972023900 58.5876528566040307  9.3559577274261478
 36.6540681913028976 60.3244875219544880  6.0621455617538773
 36.7042577092919231 60.4766812117937462  9.1887446881356585
 -30.1133492892766483 62.2524613828782378  5.9770782444094319
 -30.1466039724230264 62.3617913668860311  9.1060544131848769
 -27.5290265243327639 64.1832449464267540  5.9908550654187165
 -27.6471285158507101 64.2446739769618773  9.1189775600903129
  7.4769910334244098  0.8902982991549560  6.0993000624898404
  7.2856633616131621  0.9038301904971555  9.2244949260551738
 33.6924970538697934 61.5905307242830986  6.0965659400904730
 33.8320898096346383 61.7088710873704613  9.2221504038926714
 36.2712670505938277 63.5168908107808718  5.9521329195675348
 36.3361794568341878 63.5931605331151815  9.0816565356977836
  1.9337445781731539  0.2250642047738450  5.9040383235636646
  1.9132065296850018  0.2526241147467211  9.0346070830101795
 34.0771801362460920 58.4055493570236166  6.2334181483960833
 -21.2708870265471823 58.4861983643500949  6.5917064975552533
 31.6778678634735797 56.6908377358019138  9.5847818215997993
 12.6969411942265733  1.5467563003620608  9.6416667841508765
 31.8934379893216118 53.3272321204945001  6.6558554337385401
 32.0304767915750190 53.5520538673450304  9.7734772234612652
 34.4595880477332415 55.2303456082281130  6.4258956966635639
 34.5565875817154691 55.4562128283507860  9.5456386302413083
 37.0346222003198733 57.1435554604316565  6.2415234691840196
 37.0701794743651476 57.3529431857570771  9.3646275032257158
 39.6167755507519885 59.0657780293900814  6.1295331054738398
 39.5744634829014927 59.2427101758937056  9.2547561923196664
 -27.1513143412433209 60.9932896502020228  6.1068492600641244
 -27.2762185715441561 61.1274613083565512  9.2327270173986555
 -24.5739233399802579 62.9222174952342712  6.1756167491983360
 -24.7717543293992186 63.0099723043811935  9.2992260681837084
 -22.0082582239477382 64.8477624707374360  6.3222042968587440
 -22.2582018501957997 64.8894876605813238  9.4419999448262910
 12.9737312380022818  1.5457630102189597  6.5242010477656924
 31.5092346311237890 56.4958218752368992  6.4658707668743673
 -1.6321303647418270 55.9516149605011606  7.8938805769609468
 -24.0218999414459198 56.7492307746677724  9.6371825247240839
 -26.5298204756476181 54.8598569478822924  9.6340254947027759
 22.7854359313511203 36.3624016417851905 10.8414906742406050
 25.3368052305541056 38.1918975123046138  7.6611878895784784
 25.3601392075532885 38.2945270425099054 10.7828080789001479
 27.9038338716010621 40.0800561034718541  7.5728503122614939
 27.9327110638802480 40.2257071095827072 10.6934831969459179
 30.4673027695199181 41.9683259096328953  7.4548064310686435
 22.7666087002677244 36.3040126836441246  7.7191961032257481
 30.5019907649593662 42.1539803758984561 10.5739272321185727
 33.0666188052831274 44.0783996291719191 10.4269369528942377
 35.5871107306427490 45.7522076134631774  7.1447375513178839
 35.6193428175793443 45.9963350222036240 10.2615544202521622
 38.1508920419055997 47.6527149469072810  6.9811329060263425
 38.1580183106011717 47.9062500970184715 10.0980983432014266
 40.7205885392693645 49.5612289431146067  6.8447405868681157
 33.0281401207129477 43.8581353523429200  7.3092298095675421
 20.2093477640275871 34.4305629849134291 10.8698860531879902
 20.1949825268416170 34.4166998588482826  7.7469049874886231
 17.6332891108368237 32.4984930795669058 10.8678467944849899
 -17.9979180592259489 54.0696832468725717  7.0634011971619568
 -18.2206504606255351 54.2185100302526806 10.1784556073542181
 -15.4443635436159141 55.9780851249811562  7.1677894489463707
 -15.6804411887262898 56.1086779983309256 10.2825381841376533
 -12.8983815683352407 57.8798748963661822  7.2798888516783853
 -13.1249584917650495 57.9938669885822975 10.3950175622107714
 -10.3560828489555181 59.7796963312281520  7.3855907940616987
 -10.5591381208176411 59.8746179662807734 10.5020626344837513
 -7.8140938002471962 61.6778106840119804  7.4798346033419456
 -7.9872197173147947 61.7497633045744152 10.5984790575078698
 -5.2718879581590663 63.5760859321248901  7.5623117498898260
 -5.4120938937970626 63.6220529879172361 10.6832145937681151
 29.6978380078134485  0.2530073031970244  7.6330810611158393
 29.5929391182272603  0.2714167106053347 10.7551803793350871
 17.6233637630019331 32.5288289917712774  7.7446593310531853
 40.6826798257494602 49.8088300656568279  9.9628990601741201
 43.2951614481947047 51.4771891611807320  6.7596317352927331
 43.1968641665164412 51.7056773410717980  9.8781905851018195
 -23.4815825350715421 53.3978366315885253  6.7402501491968900
 24.9635291768696916 41.3463255439991784  7.5659812434062159
 25.0301978283905449 41.4628278012010654 10.6870272606716892
 27.5298708696877803 43.2336976876476982  7.4342712147010817
 27.6003706010673753 43.3937780322220021 10.5536091610098861
 30.0935757217678770 45.1210328309244133  7.2745466492419730
 30.1661977086725912 45.3219122378948214 10.3925240681996716
 32.6539144159910464 47.0115408859369523  7.0914949773699156
 32.7230203131802924 47.2463410420726646 10.2088119268554927
 35.2165904273936192 48.9063018687155378  6.8993718426288853
 35.2672524712056301 49.1613098866958325 10.0164693959170528
 37.7846487491404091 50.8095892165483249  6.7221980671936903
 37.7967219379683215 51.0681951986242595  9.8398154793584816
 40.3581835677870870 52.7212747498962457  6.5866771474183219
 40.3128345870848435 52.9665851191667798  9.7051410182618980
 -26.4151527281595548 54.6410901598097496  6.5148080776846884
 22.4570718673216767 39.5308594830812439 10.7900294066365383
 -23.8390221982951473 56.5642606067339031  6.5183807570094237
 22.3948240158962157 39.4590232907870941  7.6681455331443713
 19.8242378403048463 37.5722009163748680  7.7403203677444816
 -23.6438793278505131 53.5987879215406195  9.8581080458813997
 -20.9129634713133647 55.3178118599813473  6.7860607170140028
 -21.1278340947355048 55.4882222057191967  9.9023438376744615
 -18.3533583102483746 57.2341896434806330  6.8829405192422204
 -18.6012596273430724 57.3761602737915553  9.9978906100086053
 -15.8033786811180619 59.1452163956110013  7.0095052786460750
 -16.0596661001072256 59.2600406776696431 10.1243473385543439
 -13.2616570880854869 61.0517989712719356  7.1455728109441248
 -13.5039489103783374 61.1386010303778775 10.2614814879730147
 -10.7222568281675183 62.9557312825290722  7.2791140493267505
 -10.9376167510858373 63.0134448186341487 10.3967373986404610
 -8.1832460619839349 64.8573988497361000  7.4049505596493921
 -8.3652763704965309 64.8854199283268116 10.5239886591915344
 26.7845863099932586  1.5352258605718498  7.5200659983954807
 26.6378297151598495  1.5338860019787077 10.6410633509628418
 19.8814028120850530 37.5994695624558304 10.8625349790858525
 -4.2908159352350861 54.1607611451769557 10.9979808158416787
 -4.1821455625824244 54.0645157106708965  7.8800226222841685
 -6.8692381540365517 52.2677068190352685 10.9546254283188986
  4.5550130771685495 50.3007512832760284 11.2210651830132004
  7.0919312014098796 52.1268012095779554  8.0335176911035813
  7.1439474415991224 52.1999699916989854 11.1519857753099210
 -2.4402320014938268 13.9872412146634506  9.6991467661305339
  9.7322964365460773 54.0976356619641834 11.0448735762971459
 12.1922769543314757 55.8999359696847691  7.7819245479621113
  4.5382465343354994 50.2416138985637915  8.1024117623626939
 12.3190863245617894 55.9933442379885165 10.9000416822658881
 14.9020516677785508 57.8847153874145235 10.7190693854103181
 17.2784467377468260 59.6823413064933348  7.3903137584933010
 17.4782238658069851 59.7720838579989433 10.5076228987940379
 19.8144109434782685 61.5817668740155497  7.1560136062335964
 20.0471808880843447 61.6559106748301389 10.2733151513649617
 22.3491463779030255 63.4866186731563218  6.9089892654162055
 14.7376997762883892 57.7887846607773170  7.6014602190601135
  1.9657992115392262 48.3993672191964421 11.2518504646647024
  1.9827061591833832 48.3571585959531234  8.1335438258840078
 -0.6214582862366500 46.4949387243710959 11.2448606809285394
 50.8536707896037612 33.1497601080626794  7.7223114773236059
 50.8879059556079056 33.1808493082321334 10.8459782068861283
 -15.9296394236472256 35.0696833715262954  7.7012496596788278
 -15.9395188310437650 35.0786915497253062 10.8251324453240780
 -13.3612672863171351 36.9889299904949880  7.7318445261747524
 -13.4161670431661744 36.9773490433581102 10.8547283009018880
 -10.7959479776992264 38.9014061813030381  7.8069029067696807
 -10.8856572424287830 38.8769048321338460 10.9281537382576879
 -8.2359914480106262 40.8047267068758330  7.9072038248260661
 -8.3416877411395340 40.7794538270400153 11.0272318642132312
 -5.6805815357591625 42.6983599570608163  8.0065321120040647
 -5.7798170708439995 42.6846424583304298 11.1257419101413930
 -3.1272279386289261 44.5861034726930328  8.0832099232421424
 -3.2043933006632543 44.5899789374311979 11.2015750069403843
 -0.5728846527835288 46.4715717129305830  8.1268504680267011
 22.6067857417734643 63.5368217825600183 10.0264958213809408
 57.3153864496184298  0.1755645082096325  6.6646799668228844
 57.5836294400575781  0.1934354335537052  9.7821178857790887
  4.5176386824826649  2.1559308369735812  5.9575157621786792
 30.0576666379509767 21.1517102673264326  8.0107384664222394
 29.9704972997054284 21.1323863633967974 11.1302744573715486
 32.6129192439361262 23.0396834490061870  8.0731130796335133
 32.5607510978650296 23.0406260483818386 11.1929656661048824
 35.1683182925376059 24.9261731693977104  8.0936771289278244
 35.1514194570320342 24.9491694647486497 11.2136628096127993
 37.7223826087435867 26.8118576664334007  8.0725658435737842
 37.7394485441465477 26.8577819960809059 11.1921513324764348
 40.2744923527405447 28.6997792496601356  8.0120083206665331
 40.3203393314557132 28.7674703040231812 11.1315738021688162
 42.8272251757741031 30.5922402949463965  7.9199915604154070
 42.8905139718559028 30.6745831823838842 11.0403395029545113
 45.3827956501605314 32.4945123014790056  7.8156536202835030
 45.4438395555077932 32.5789798705728728 10.9371332584676519
 47.9441123522191930 34.4054959817281514  7.7254786989020401
 27.3819613935461881 19.2242240634629766 11.0268576004524217
 48.3569726522074532 31.2819705694694363 10.9114310372106260
 27.5028094974968376 19.2630785442425640  7.9077026974556883
 24.9484947959315804 17.3741746227912977  7.7655647888631432
  4.4125246069162349  2.1347129133610383  9.0866642808921814
  7.0939291580301100  4.0821119295352428  6.1047598227955113
  6.9174955134019056  4.0182410252322489  9.2302616368632311
  9.6580779367368290  5.9998742458443672  6.3234771165884576
  9.4327763138368965  5.9049148916640206  9.4446732803483240
 12.2113741304938941  7.9089649004623039  6.5844497524875960
 11.9629757586246335  7.7966705797965625  9.7020904212625876
 14.7583779711656611  9.8105375941213619  6.8600234685046368
 14.5091210819956533  9.6938172143598980  9.9756658726431056
 17.3027578259037291 11.7047323704529518  7.1276267683200016
 17.0683219462184610 11.5945116342590051 10.2433555113564445
 19.8477342950482374 13.5963496275253188  7.3721644010523102
 19.6374058359876322 13.5003230467459066 10.4888175789648148
 22.3963721247076073 15.4855865359361200  7.5862185875231170
 22.2141135550177182 15.4072041119878023 10.7037752794450096
 24.7957922421875061 17.3156077961893047 10.8841465465216292
 47.9814883189552006 34.4795826900425482 10.8479954460725736
 48.2896511326412821 31.2339717809968640  7.7892578050012045
 45.7306676924932987 29.3266135882985672  7.8839597846933049
  2.3316550290904434 45.1968293157678929  8.1610345393258328
  2.3211543867113509 45.2036644125681732 11.2789102462420718
  4.8873893612681609 47.0822707157500986  8.1451949414110114
  4.9107519531123076 47.1085670689684051 11.2632109019898667
  7.4430918962924197 48.9680701554643889  8.0888639608015911
  7.5018143107847077 49.0126473125024518 11.2069784762588309
 -0.2658766082746905 43.2972802238957897 11.2554409038399115
  9.9973071358387333 50.8542600165762977  7.9923365705785407
 12.5488981904923858 52.7408713092988677  7.8557769058921112
 12.6805871554396923 52.8176483145375499 10.9731981303334614
 15.0969109404052517 54.6276184426870159  7.6799592036192319
 15.2654699293224141 54.7178867786845231 10.7971653876425489
 17.6421204646738801 56.5165441265527591  7.4673306216337245
 17.8454265619524008 56.6172451019188756 10.5840113761967540
 10.0924394653240892 50.9154979126977025 11.1102234221055838
 -0.2237910617891413 43.3112609260561214  8.1369860839243948
 -2.8476222153927093 41.3906476027208186 11.1947823043048782
 -2.7783715257610568 41.4254392252781898  8.0756432772366349
 46.1796842534907626 26.1801956364008070 11.0363416450531329
 48.6353402562975887 28.0647993541392786  7.8216907498829036
 48.7312888924074343 28.0828195094456348 10.9429139092123826
 51.1969814141955055 29.9777587988098304  7.7440771844869243
 51.2676504226784147 29.9831071716373927 10.8667036389547018
 -15.5872915826166167 31.8963675126307429  7.7053460398703422
 -15.5572399209546539 31.8812042981682673 10.8292790337712326
 -13.0190196280623223 33.8165819395832798  7.7176572310100013
 -13.0351238151136499 33.7792009038400067 10.8413327468766756
 -10.4520443332514290 35.7320005536429406  7.7796394751775368
 -10.5087217089659557 35.6779323289798000 10.9015811658178325
 -7.8892935271611684 37.6389263110758421  7.8764248493908209
 -7.9710782708153305 37.5789666138206684 10.9967240307738301
 -5.3324158567190372 39.5361019418292869  7.9835678810110018
 -5.4179260866005405 39.4839345891961244 11.1032624889699356
 20.1835732181420262 58.4091132538549402  7.2231125137913654
 20.4172068847601693 58.5127793986325742 10.3387977081865756
 22.7222474902737304 60.3073583828989044  6.9564529370091366
 22.9781312328423546 60.4039087382360904 10.0721965160280575
 25.1500214551055628 14.1387543107730043 10.8301381866345583
 27.8560293095786591 16.1066852989545417  7.8673828549815683
 27.7352415793712730 16.0406798637348196 10.9861331484259459
 30.4082467678431492 17.9943365589127424  7.9847928691305485
 30.3238979578500043 17.9437488640999696 11.1036748309255788
 32.9619026160200264 19.8812148029236901  8.0624429328847480
 32.9144064990542944 19.8479233599452591 11.1814593228628247
 35.5161853697654024 21.7672797641852078  8.0997832337427393
 35.5044565025632082 21.7532531933608837 11.2191483521337112
 38.0708332131019702 23.6528420422279702  8.0969947707065710
 38.0925445485070426 23.6594677898372119 11.2169846964038999
 40.6246477280228149 25.5386972063732074  8.0558559065454673
 40.6765399573291475 25.5666796386663471 11.1759044101726346
 43.1766421041798978 27.4280839133496031  7.9806321639623929
 43.2514931774333604 27.4740784509076690 11.1007217200024044
 25.3070963795426565 14.2178117126316863  7.7118177289879375
 45.8122637465469396 29.3803866347115878 11.0046677874851326
 22.5688281840424558 12.2392557715215986 10.6382372993435759
 19.9937409591056259 10.3424892337859244 10.4141771753520178
 25.2615245410634870 62.2134737777269180  6.6833464537391878
 25.5265434371410151 62.2909754021691242  9.8005225220536190
 27.8066706693243226 64.1275286756095824  6.4248969646058063
 28.0622037469585557 64.1745373144542981  9.5445787644588389
 62.7903470127481285  0.8270193138384800  6.2060713298138861
 63.0128120421814089  0.8330654912155454  9.3291764321656068
 10.0425433158453270  2.8140651233123855  6.2854353567299386
  9.7997412422022716  2.7854478259219246  9.4070385175323263
 12.5943373933841674  4.7300227373042372  6.5231766498357064
 12.3271190049400943  4.6689857504379466  9.6413167185278521
 15.1377165457408189  6.6381744463068610  6.7853111340606134
 14.8692149775603806  6.5564774461228810  9.9009557705104889
 17.6779195958511508  8.5393918305670020  7.0488061224537857
 17.4257494968837321  8.4473733763526990 10.1644625264514659
 20.2189868207555250 10.4358869799588323  7.2974154215955016
 22.7616575677229562 12.3280316280515194  7.5205748866931827
 43.6112054816312025 24.2745113608396110 11.1211134348533776
 50.5109486665122134 36.3227654948925576  7.6720024625532890
 -16.2705775507106054 38.2427398448935847  7.6681577621867945
 11.5737473520948946 62.3026371965859838 10.7450998970347893
 14.0012596563851002 64.1362539402186798  7.4772233332121099
 14.1497295370287759 64.1769883793856479 10.5976448692971736
 48.9673394804784650  0.8155292643984492  7.3162784401128240
 49.1516012361994541  0.8264060027010518 10.4359094913662052
  3.7472744247171086  8.5390547360058431  6.1456849391779658
 11.4622939227036849 62.2371367514832485  7.6241537291758465
  3.6797368398666435  8.3685868960433147  9.2709223758564789
  6.1925849350701476 10.2625872713939437  9.4645490100028038
  8.8836304637249430 12.3523063230367214  6.5854219194153103
  8.7181421434284001 12.1636060038239648  9.7038844318617432
 11.4395956450286942 14.2459785967606898  6.8444336896353635
 11.2579784351085017 14.0722142921632720  9.9621438347934284
 13.9934377644134180 16.1348931346376148  7.0955500785876700
  6.3200790265086990 10.4505299582528757  6.3428897426213160
  8.9943313856555953 60.4258283839261310 10.8739227712260842
  8.9203361047606453 60.3421006092831220  7.7532287340162247
  6.4116346934118260 58.5435713364915955 10.9790046778926165
 -11.4853507146775389 45.2330384272577746  7.7570693420373251
 -11.6330744546127640 45.2750584650045980 10.8751748844316243
 -8.9312317641503114 47.1293016650082919  7.8532905364307872
 -9.0759921466299076 47.1781183776341280 10.9706997890290445
 -6.3790938045346257 49.0184573017271958  7.9313494803054780
 -6.5037290445967075 49.0798594398020427 11.0487294147721098
 -3.8271472075266875 50.9047721963546067  7.9807002798716757
 -3.9242417105070944 50.9790256480748170 11.0986862471268726
 -1.2754608826198095 52.7901882811621448  7.9981018253886775
 -1.3413343080034796 52.8749680866234826 11.1168167026879932
  1.2756264534299220 54.6758773133305027  7.9828497819136812
  1.2426849285414527 54.7677784102367866 11.1026145802734231
  3.8258066987794068 56.5624475347455089  7.9359687175828055
  3.8272219866588331 56.6577655459712943 11.0562439269762862
  6.3742650470018356 58.4501569545343500  7.8586207502705943
 13.8130174921779805 15.9887380138788089 10.2135629820159295
 16.5494981613488150 18.0212514651754390  7.3228027310730468
 16.3795336053420968 17.9083854121208930 10.4411177728709283
 19.1084105051515536 19.9086683966475988  7.5198569971107414
 44.6885112218154035 38.8319065634406115  7.5843988831823737
 44.7002935338403802 38.9721999293560870 10.7048780563442172
 47.2553985055386931 40.7462579240933707  7.5095911835599267
 47.2281565461889272 40.8723276152265456 10.6312417840011566
 -19.5253109403471967 42.6637588882594727  7.4836603357043456
 -19.6018865700284124 42.7705963760688803 10.6051838632410451
 -16.9561470801515490 44.5819657486065140  7.5114347635177889
 -17.0807115829778589 44.6699342037254326 10.6314250996728710
 -14.3915412876610027 46.4933304624851544  7.5837149706619513
 -14.5502706288096810 46.5694398914640146 10.7016613153658202
 -11.8339702164450085 48.3950583319407457  7.6779852983007180
 -12.0049089550072150 48.4703681799206905 10.7950330948035944
 -9.2816342275881070 50.2884558021615149  7.7684987054536538
 -9.4422444528376239 50.3709053047319273 10.8849622931888064
 -6.7319450886477723 52.1772489612028068  7.8377755151249904
 42.1596726217888218 37.0701689071048079 10.8104156074407420
 -14.1737514816036967 43.3744403126088400 10.7852794193702390
 42.1276782005490134 36.9245140595884536  7.6909921657931983
 39.5730877265355829 35.0239787398590821  7.8049882377271791
 18.9523886770669101 19.8298772431884913 10.6386999000870066
 21.6692941009022277 21.7968685201152645  7.6843202642680284
 21.5293993659256131 21.7509232304207032 10.8037838055898234
 24.2319485214465544 23.6852834276972004  7.8148430977867447
 24.1105194064679367 23.6708438113604167 10.9352587951411557
 26.7946564613817984 25.5748047388650583  7.9105186058597861
 26.6937542690702436 25.5907397198093172 11.0312181696446281
 29.3560232872215501 27.4634476453497030  7.9691271393384886
 29.2794175981389486 27.5090783657325488 11.0896909089331093
 31.9144842327675669 29.3520662344033774  7.9875386986384864
 31.8657040104301217 29.4264815926898322 11.1081334071955169
 34.4696398273914184 31.2410563314502454  7.9645687685391726
 34.4509362463676254 31.3418668855728377 11.0847449281330093
 37.0214490706799921 33.1310096699348335  7.9014547843541676
 37.0313274707603810 33.2548659422561457 11.0211886425245815
 39.6029723724207940 35.1638740977443121 10.9243251100381009
 50.5085740289281873 36.3786054638283076 10.7951893433693531
 -14.0462215189121853 43.3277393738477485  7.6653008500275668
 -16.6131300307728225 41.4135587636987381  7.6046606576432421
  9.2846046673962004 57.1735135946102773  7.8408213050373501
  9.3663057285037752 57.2697060575060135 10.9601331520664846
 11.8306024193707735 59.0635444233491924  7.6968286227337517
 11.9494468253733395 59.1556773682601005 10.8158936737036253
 14.3724340494474685 60.9580277401573198  7.5254543319374747
 14.5282895430026855 61.0368934115092969 10.6443875115410425
  6.7804680878885675 55.3786213643631839 11.0718850376819695
 16.9094846588561722 62.8574376777643664  7.3331845582845743
 19.4441051784805268 64.7613750075973229  7.1265083462656804
 19.6709481427234287 64.7899835370568979 10.2447766268924276
 54.4064518775366679  1.4474858250250411  6.9131911705918307
 54.6599192161794960  1.4417547431568538 10.0313925242748372
  1.5510329396881455  3.4229172923642475  5.9187424584924306
  1.5444664727159190  3.3648286789727777  9.0496642943458401
 17.1023293483019430 62.9144314684898873 10.4520175499136556
  6.7355561070958245 55.2863024850651357  7.9524327921330000
  4.1937392762390759 53.4851623838490653 11.1488392059899191
  4.1843557936185167 53.4013278714226587  8.0294632083252058
 -16.3202608525674258 38.2772753337227556 10.7911333090583170
 -13.7033390335976630 40.1593215677711797  7.7147231488685737
 -13.7960441806054064 40.1763297948154943 10.8367452729750138
 -11.1401293988643673 42.0683853109809860  7.7997966918967876
 -11.2608562140579913 42.0765060072222425 10.9200300031258912
 -8.5824332263149472 43.9678673849136743  7.9000150237422826
 -8.7090069009164850 43.9796342543546217 11.0187661712235236
 -6.0295460122366391 45.8594461026805007  7.9890396686974414
 -6.1413113064275491 45.8842329525191985 11.1070490984576562
 -3.4763476699441789 47.7461414158754494  8.0507902006164791
 -3.5627697102303042 47.7873590477282875 11.1688546737091645
 -0.9224870050370310 49.6308701729828741  8.0788953796931047
 -0.9787746853230225 49.6886632157618635 11.1974550295413362
  1.6313153503062754 51.5162036087678317  8.0716552498335989
  1.6072666845778432 51.5881985605329305 11.1907224426971244
  4.1329751091991520  5.3505442479466954  6.0116257583779245
  4.0449596040349052  5.2485932829910933  9.1395992320838921
  6.7069739371187991  7.2696003619269627  6.1900119552069794
  6.5523984173458816  7.1364715236824443  9.3135394443885406
 32.2121743039074531 26.2341255300011866 11.1686411266849319
 34.8200067787758911 28.0837620732354765  8.0488476271428766
 34.8006604610730292 28.1461325615650857 11.1685494663466578
 37.3728514679648782 29.9716797657242466  8.0070891047110617
 37.3854439462538153 30.0576391116005759 11.1264520380651870
 39.9244727451715917 31.8619832113312356  7.9273216212789368
 39.9626914195726144 31.9668971064999923 11.0471927989383030
 42.4773878599709036 33.7585828618704724  7.8225994087054742
 42.5265268092017052 33.8730601297459941 10.9428963102696883
 45.0350487748720667 35.6640860203928440  7.7157822642889249
 45.0730141281016614 35.7760953262790906 10.8368513158459887
 47.5994931600605895 37.5767113056629825  7.6326026970278713
 47.6057285073070418 37.6764578393928318 10.7547194251142457
 -19.1827813429799967 39.4939265462748637  7.5924472146474162
 -19.2223135711364108 39.5752106717373948 10.7151196998165403
 32.2649901273685416 26.1964651057422699  8.0481829836105359
 -16.7013208415772958 41.4750974927413338 10.7266477721476257
 29.6225946567469371 24.3217760382237316 11.1258419317447768
 27.0351987397228797 22.4083208549703166 11.0416690553466843
  9.2708324227529939  9.1796253727741188  6.4278296623092936
  9.0718916821750355  9.0306803956788233  9.5476788106561763
 11.8267554896055547 11.0807976769250729  6.6958553502279532
 11.6067290912504220 10.9311415045010776  9.8132329556137012
 14.3768755701469146 12.9755482275871259  6.9673890854372305
 14.1567207034461315 12.8380058700834443 10.0840005171999536
 16.9258628229833121 14.8649814520668286  7.2217941935569785
 16.7194727914021648 14.7495493855862954 10.3386822692714020
 19.4777065799542122 16.7532336097205814  7.4480447821415643
 19.2911342329061206 16.6637993171775349 10.5653366560217545
 22.0336463283163724 18.6414200811062152  7.6417829625167490
 21.8685067008300429 18.5791765594858553 10.7597436334332102
 24.5910559990214246 20.5299494168043779  7.7999541181866112
 24.4503997740300818 20.4938608720766844 10.9189180736113389
 27.1497094721564665 22.4196916120210510  7.9214712964994680
 29.7079848390750385 24.3085718403864668  8.0051561662087387
  9.6435668726271846 54.0126409143273420  7.9266393168348861
 68.3963476513784343  1.4830019076626477  9.0564700336354225
 -4.9488603129290167 12.0962870532465274  9.6595284507623465
 59.4883341998395423  5.2825923777762869  6.5272580134366143
 57.2079276865994686  3.3167191755973895  9.8250731665714923
 56.9437520238448727  3.3621881089994266  6.7068510081587212
  3.3168636825724915 11.4966738511583788  9.4654643328484518
  3.3638563516400941 11.7173143609098886  6.3438622967138718
  0.8085941563943084  9.6028907219601809  9.3218486365058109
  0.7870293336161871  9.8019998518866771  6.1981389109087246
 -1.6952384774272127  7.7144589775279337  9.2568546577935749
 -1.7937022613121079  7.8777146508374791  6.1322781922017224
 65.1513353370241788  5.8303752857478646  9.2800329765127216
 64.9810214706743210  5.9486967534684014  6.1560994093161368
 62.6406883132637660  3.9494469478881697  9.3866118890628449
 62.4149795185508864  4.0195807576904823  6.2647450614431381
 59.8600542923679768  2.0945925779866483  6.4418861323020939
  1.1758189359731788  6.4802621615933909  9.1485893902175661
  1.1672371875963181  6.6169092073144071  6.0216184896316971
 -1.3248867729928273  4.5961424106312831  9.1169830197322899
 -1.4152087221602592  4.6877104830480310  5.9887436582264373
 65.5237968218177116  2.7139499137047438  9.1799802878360950
 65.3585490449431603  2.7557089859068418  6.0535329739435237
 -2.5328673042249346 14.2304047098468303  6.5816554973335615
 59.7425852300387632  5.1935695766902201  9.6455674327614886
 62.0436519612487345  7.2068443767768988  6.3941952823594574
 60.1184609746845879  2.0716727058083846  9.5611813334115627
 64.6097218662243620  9.1335222549370521  6.3264279492154190
 62.2654512731475478  7.0733239033155941  9.5135772168021919
 61.8883955278184672 10.2098383050074606  9.6919480466164618
 61.6785592174713528 10.3860642728756414  6.5745403780737268
 59.3650666914014877  8.3260155631295660  9.7861976395249943
 59.1211499691065967  8.4637894860157115  6.6694648539975363
 56.8292807010473666  6.4459671407049690  9.9254247705357592
 68.3177560852988393  1.4912015153555043  5.9265262177595037
 54.2802488649897583  4.5702464784475376 10.0908623794230419
 54.0363532651206242  4.6309848154180600  6.9728615197403574
 51.7198445907958728  2.6980119425146629 10.2649156147935905
 51.5020608740579036  2.7218012802009746  7.1458133447905459
 -5.1052459257911211 12.3097052004745375  6.5420365473065436
  8.1119377835836808 18.6751142332666902  6.9953732721162023
 64.7773420865141105  8.9569117468591415  9.4471144389719885
  8.0231999794722171 18.4556508272546544 10.1132785834810086
 -2.1657620808333236 11.0582396048782012  6.3376832707169415
  0.4104146745767279 12.9772686282848220  6.4284596816056379
  0.4402701685317800 12.7366830693864124  9.5485362971829062
 -2.0663770851390399 10.8439802376314365  9.4582301478805135
  2.9550903442687426 14.6352316994194815  9.7035201618507596
  5.5496789278143295 16.7850465121316255  6.7823696736471728
  5.4816225113040815 16.5412452467935651  9.9004034646884769
  2.9831566384556609 14.8861611071409197  6.5845568845916169
  0.7523933633965398 41.7514958821716888 14.3818340038279828
 -4.6712412506114926 37.8432397014774367 17.6065224227352921
 -4.6157330845924944 37.9078149923094330 14.2461801561131942
 -1.9265938422031821 39.8302006118054805 14.3245255864034231
 -1.9750675101729709 39.7765320006147363 17.6855688731908991
  0.7257245442588004 41.7161272785862565 17.7433568604448055
  6.1367565391923522 45.6033927577363372 17.7492006872666757
  3.4304253546880785 43.6591404066599083 17.7668412643137650
  6.0971586153588868 45.5926592103694333 14.3878312292367969
 -7.3643713886946216 35.9177009581455522 17.5248054058117830
  8.7679225203062217 47.5131614320949396 14.3282030695862819
  8.8432635799972079 47.5468710343468217 17.6886274461552482
 11.4391657217548985 49.4329093855592276 14.2273657914970251
  3.4261333987126661 43.6720384618918942 14.4051470237122050
 -7.3193818649588955 35.9841711928653112 14.1656502334557022
 53.9085448729982843 30.1712450909887409 17.4187436558626807
 -10.0366228428711839 34.0590482726312018 14.1006129636325355
 -12.7493778604066410 32.0841446105591075 17.4211520202544712
 -12.7621444211593609 32.1331580224211493 14.0634959165260316
 53.8610876619701173 30.2066939036024209 14.0613426958345862
 51.2147735921690384 28.2576610200107758 17.4515246085903861
 51.1370970946102190 28.2797939100627964 14.0938021133699909
 48.5203438853942330 26.3402859324937211 17.5120548865527432
 48.4233700057177074 26.3530385811047410 14.1535511933363694
 45.8235345473378217 24.4166625784215441 17.5861447693943056
 45.7240469791773307 24.4273784762385198 14.2267981010432489
 43.1221418384379405 22.4853010887279154 17.6542867137881885
 43.0377379380512721 22.5031685154211516 14.2944309721423295
 40.4157789481391703 20.5479150843702136 17.6986521358992732
 11.5497097454584186 49.4885410864524218 17.5858802371627974
 -10.0567390308495526 33.9988250148819517 17.4587433409622790
 14.1115316366324475 51.3524905813826607 14.0870246027987722
 21.3208458576216771 10.3844300827953457 13.7045769303553140
 16.7861237537167547 53.2723376236020201 13.9106473419795336
 15.7109534524584316  6.4577928693557762 16.6215121958366154
 18.6347639171152224  8.4519526241421428 13.4927372385870363
 18.4123023097046961  8.3788630413997751 16.8392934950939406
 40.3604241194409497 20.5796089232397783 14.3380867984424061
 21.1161319209324816 10.3036062128882762 17.0541613530016285
 23.9988572730370002 12.3144657451057515 13.9003935826796621
 15.9378570640702595  6.5166183821247134 13.2776877523210057
 23.8221911059969216 12.2329069857938268 17.2528036342850477
 26.5304691803250101 14.1657521057646889 17.4253433979873229
 29.3448327632379495 16.1668948590002763 14.2059939520043201
 29.2404679318924607 16.1018372326208770 17.5637574478983893
 32.0158481378115738 18.0909603084787207 14.3043837429528651
 31.9507201979093942 18.0402784688201905 17.6639772067790233
 34.6862933129947208 20.0132527464162671 14.3624697263768777
 26.6729360324093570 14.2416227683263923 14.0698840130967842
 14.2556074125469490 51.4278569142026498 17.4429146002209450
 13.0118411585927944  4.5396165455166146 16.4146530924421903
 10.3149004459736258  2.6237595612258171 16.2345541433980856
 16.9598210067911310 53.3636671547250145 17.2632706621851035
 19.4648499915609605 55.1935450718060352 13.7051330679236631
 19.6613545884373409 55.2949032822935038 17.0544700992784541
 22.1515058435349879 57.1172162027665777 13.4811730416818065
 22.3615979962282836 57.2203835380332890 16.8275114282262059
 24.8494792790870207 59.0444415101994196 13.2531872594697795
 13.2278314211160435  4.5791195188702680 13.0729750732621568
 25.0607983972664670 59.1402645388148898 16.5966053312261543
 27.7590883862109052 61.0558080637461771 16.3779111558416375
 30.2885930663486569 62.9113053599361578 12.8482166536893239
 30.4555707360108450 62.9686251667049959 16.1893928270449052
 33.0314911855136373 64.8516879489222760 12.7074532806318423
 33.1508033772745208 64.8790512820880565 16.0488952023612335
 10.5040992361287611  2.6386417318239213 12.8936746901331993
 27.5616558352745820 60.9754859419285609 13.0365010756552380
 37.7061944797742825 18.6083481704354128 17.7077928474624926
 22.6833680634021739 53.9231925316648955 16.9183610372217927
 34.9944337224378117 16.6692819566481312 17.6778989824015902
 54.2524816128065197 26.8680938363777955 17.3690306640517598
 -12.4533352023984580 28.8620928940893222 14.0039775367008499
 -12.4051120192060296 28.7809404837622047 17.3604336112378199
 -9.7253032935391364 30.7885245585040224 14.0320771949839642
 -9.7119082352682877 30.6945808869548991 17.3887499847410218
 -7.0032635863451640 32.7134314349463864 14.0919481749999580
 54.1698908525567404 26.9345098015787201 14.0128693267698701
 -7.0189754851045993 32.6116148705870401 17.4494386911007275
 -4.3260650845758128 34.5344072647116533 17.5316792666691690
 -1.5972049587189627 36.5580552270378973 14.2586445284282668
 -1.6312815233417219 36.4647430647548418 17.6187624317006879
  1.0855702766156328 38.4776807169596893 14.3303606831099675
  1.0671172856974191 38.4023365253352864 17.6913356527645433
  3.7608878138199433 40.3965157116751001 14.3722178192213992
 -4.2928184806116940 34.6366630171640963 14.1726584970034768
  3.7689526730120786 40.3445340654995306 17.7336827086470556
 51.5584207307324149 24.9533407243492142 17.4118051735349297
 48.8628771563569657 23.0335527305749395 17.4785313314825714
 29.8903813497926514  9.4970744285353135 17.4408879710215530
 32.6693495106174510 11.5032441754467740 14.1841463507055554
 32.6073202301061542 11.4295648597665522 17.5422896623911519
 35.3422658468675195 13.4381360760747608 14.2525275778155649
 35.3232701300414362 13.3639055505007960 17.6119723181611540
 38.0148819839943570 15.3699917100282999 14.2870420390628254
 51.4488904955023969 25.0064587092199275 14.0553821237661420
 38.0380882927030868 15.2998188637340000 17.6469020053879007
 40.7506035318099791 17.2365299821494027 17.6463811470816161
 43.3641351759906613 19.2255514477297140 14.2536911014328904
 43.4593641559423816 19.1732318376153863 17.6124791504725877
 46.0464469634159954 21.1516454612925422 14.1939173227522630
 46.1635300930617802 21.1066691418942689 17.5519094560872730
 48.7402143439466826 23.0784490062208150 14.1212609464903203
 40.6882868126613175 17.2987061999451548 14.2868037331402142
 37.6876118538917808 18.6559239007205342 14.3471746696640068
  6.4334872338631488 42.3144720324055612 14.3758208866274693
  9.1049151666131447 44.2314707503596907 14.3376099377664286
 16.0214571953471250  3.1635764624708096 16.6048925717142808
 18.9538801388830151  5.1224097904329549 13.4587009704323197
 18.7251613251404727  5.0842189139955849 16.8048151544130029
 21.6425832398799081  7.0634027426921699 13.6561620458863562
 21.4321939256998633  7.0076122983535711 17.0051246198526727
 24.3241221146662845  9.0021966909938591 13.8424701261676777
 16.2555373891919466  3.1801194598625213 13.2611406287504661
 24.1424963611564500  8.9339128744470049 17.1942173648056169
 26.8543659562583876 10.8637114548703764 17.3624297012264890
 29.6734156976498049 12.8719302756521490 14.1456243480770922
 29.5677523877790627 12.7964671201469518 17.5026604582382994
 32.3450093037790012 14.8024908625022125 14.2499896461016853
 32.2813241961499102 14.7319641835246795 17.6088983184007830
 35.0163058747423221 16.7301469823887707 14.3177452500055988
 27.0002786863287767 10.9387572375806599 14.0081534965197942
  6.4729037444311457 42.2891805870880617 17.7372829548739439
 30.7676935783706362 59.6754699415921550 16.2553929806031476
 28.0737038036568052 57.7627226670801903 16.4594544821139301
  9.1772509269517961 44.2343205344789965 17.6984832000896368
 11.7765804131842753 46.1468642653166938 14.2572820811288619
 11.8812823822600411 46.1780456635241876 17.6166713793796710
 14.4497683545636804 48.0610952013712449 14.1366149649652115
 14.5841638434020684 48.1199237600524583 17.4937484668792500
 17.1255266589601263 49.9737504619077839 13.9785817513557156
 30.6124931655423147 59.5669737765436409 12.9137530644773495
 17.2860196268954986 50.0587862963613404 17.3324525171536408
 19.9859424344195169 51.9937010754076709 17.1379348697955258
 22.4891400556445689 53.7998517980290387 13.5716113117177866
 34.6610051157282442 19.9807989726037150 17.7231509149765252
 25.1829384241037744 55.7170112896810181 13.3424284190321139
 25.3790286261274467 55.8460358366533143 16.6866089518236258
 27.8898155761031710 57.6389886352300920 13.1169193220700819
 19.8045893583761696 51.8861830979900489 13.7876602016088512
 37.3573094834146460 21.9346779309608770 14.3786138790180207
  0.4205775526327545 45.0261693267897058 14.3927475557334024
 40.0315119636138448 23.8555527603884059 14.3545207657742324
 10.8863694655551466 56.0978437302535369 17.4668496801395534
 10.7776310050354081 56.0200704577798803 14.1100000361551245
  8.1747823156734789 54.1624592317941520 17.5878841690958154
  8.1053485095163964 54.0878569047119271 14.2290995854791511
  5.4639208977537450 52.2241330006626825 17.6728123070700782
  5.4340778756653680 52.1580161346576432 14.3126010427548493
  2.7538744172907630 50.2841811268702301 17.7191998457732787
  2.7624390271462342 50.2300342749513717 14.3582284366722153
  0.0457890344734825 48.3435158893476711 17.7268365134372630
  0.0898115321896084 48.3040116035895508 14.3656555098690788
 -2.6588525547104886 46.4028995648493208 17.6979274952894059
 -2.5851861825418876 46.3785995669713813 14.3371608423986174
 -5.3597137454460979 44.4650191225228326 17.6391800267253025
 -5.2659321912304904 44.4541138072810824 14.2790690956503603
 -8.0562116720735997 42.5332178112123103 17.5631766499022852
 -7.9573894997341519 42.5292898457520678 14.2036847381393088
 -10.7491473062175018 40.6094145285024339 17.4887633143534877
 39.7395884382324525 27.1767705085797111 17.6913197767418673
 42.3854307124244727 29.0504295792718459 14.2612257841010734
 42.4409424305605967 29.1096632243820679 17.6214258297667712
 45.0825918792324316 30.9729296052619389 14.1817065799272797
 45.1381450649552676 31.0345347041711612 17.5409729242693651
 47.7941965933558848 32.8971554845666105 14.1117486761490838
 13.4519139479085315 57.9554778616494346 13.9589216848549391
 47.8325016874506304 32.9529457183692855 17.4699244646051888
 50.5255730055500791 34.8673332938545073 17.4235615370124215
 -16.1075148001214004 36.7489699586940191 14.0530736172762474
 -16.1330251713630908 36.7796072156182632 17.4108685201277886
 -13.3815643503623249 38.6757400192393348 14.0762559656934645
 -13.4409023346229066 38.6924668245244661 17.4340442705217598
 -10.6631066820278022 40.6030456660144594 14.1302604011643194
 50.5162722825457706 34.8227096859661245 14.0657593888882761
 13.5985427130302501 58.0299727988093323 17.3133964172940367
 16.1303225209605792 59.8929222974202773 13.7819659396321494
 16.3104559557316300 59.9582897147652503 17.1339472949793077
 17.9647743677737175 15.0884308748762255 13.6503482988283533
 17.7796249379973830 14.9777881608061314 16.9988558861984203
 20.6474340739993849 17.0007187692906605 13.8526660300192006
 20.4776402116281204 16.9101735607130585 17.2043950713873670
 23.3257770455530284 18.9126259032058393 14.0268986052027582
 23.1772783703768255 18.8466527596082649 17.3821711725407404
 15.0839411182974263 13.0505999390443446 16.7757378636652064
 26.0006300975199593 20.8249851946095568 14.1672692510848393
 28.6735148251565057 22.7381637939448638 14.2691499630424836
 28.5820552758599007 22.7275791426055704 17.6286667206780585
 31.3461613247780946 24.6524749329378849 14.3295999905140885
 31.2867180844220023 24.6703670544921962 17.6900296097439842
 34.0186256349320715 26.5679819102861359 14.3476303395138647
 33.9919048632206113 26.6129173848465221 17.7084671183447568
 25.8786998707267024 20.7860744000501221 17.5251725164544609
 39.7018368337489349 27.1295838294710840 14.3306527612296115
 15.2748031965064648 13.1736427272824095 13.4302584475015951
 12.5732831372797396 11.2542222361756981 13.2066288232293161
 18.8141014627252368 61.8322371235422850 13.5876085587832289
 19.0204929651325934 61.8833076315516735 16.9364577352622838
 21.5060537487747254 63.7734323651681123 13.3856805498330580
 21.7283302746631328 63.8049802197605516 16.7315655293452892
 56.6380743356948955  0.4937896547594923 13.1892709380804352
 56.8620483832451242  0.5009170449692452 16.5326746959090869
 12.3900318766096316 11.1290244043531192 16.5502538711101224
  1.6228220846190557  3.5175439352578479 12.6253625338303515
  4.3785358443996811  5.4601461677771121 12.6907735735864424
  4.3102876326635062  5.3859853231069046 16.0325938258764502
  7.1248720764265991  7.3974569928549592 12.8197132577299975
  7.0035123566704778  7.2981310706886902 16.1614509047757373
  9.8568922917086113  9.3286314791357139 12.9973964367040686
  9.6968355582093810  9.2121738131389481 16.3395816363852866
  1.6167053275288135  3.4755082399009960 15.9666682622623917
 37.3708032480634174 21.9223610249295824 17.7396425860247078
 37.0341500165565876 25.2381696885096751 17.7328587378177289
 34.3262856373767633 23.2965095955378665 17.7349079353641805
 11.2177034983381567 52.7957012199000886 17.5327719958787078
 11.1057980980166136 52.7225083940348185 14.1754350761927999
  8.5085309198181331 50.8567866412155354 17.6495305196957553
  8.4347624435235957 50.7974128579764894 14.2899601031776271
  5.7994578563182255 48.9155360659511800 17.7257346248729561
  5.7640184803866079 48.8729020753057881 14.3647300911034836
  3.0915834215029214 46.9732270377896484 17.7604276284199294
  3.0928099438558809 46.9489101947624832 14.3988284743290365
  0.3854127399841212 45.0305582717118256 17.7544089097459725
 29.9956275274142925  9.5650198811288458 14.0844705755443140
 -2.3177966119803153 43.0896244202407459 17.7116999156042354
 -2.2559932895719337 43.1035452287242720 14.3504708279203825
 -5.0163364398735579 41.1535398025894068 17.6422002085981617
 -4.9405579530207913 41.1802341332220578 14.2815520187828522
 -7.7104508262576337 39.2250638725492138 17.5625192268178267
 -7.6375241645892702 39.2558283810006401 14.2026082695275395
 -10.4026761361850308 37.3040515202725089 17.4917615614599598
 40.0787782482607469 23.8623168514643709 17.7153279889144848
 42.7116391763441072 25.7775709779359552 14.2975984902415068
 42.7825427254955173 25.7979276627664618 17.6580508857264249
 45.4024236409129074 27.7009379124498807 14.2229570133421053
 45.4813048647323370 27.7260709726024857 17.5828567244244311
 48.1081038849491733 29.6259145551907466 14.1508205404872029
 13.7783015865606782 54.6491729361676732 14.0238508538354516
 48.1767301458542789 29.6467895666426955 17.5094785525075061
 50.8707169835948960 31.5624725345038648 17.4558740366573133
 -15.7986093539866133 33.4779006011621334 14.0750750173149797
 -15.7873417647910497 33.4754306219771038 17.4331447371052946
 -13.0714346330736593 35.4039706566132324 14.0875833185280666
 -13.0947882936692910 35.3883600027590077 17.4457958185405744
 -10.3488801101127077 37.3302023089602244 14.1331602709377329
 50.8266646744639417 31.5517484234826853 14.0978868556124066
 13.9259823771787907 54.7317939143107424 17.3785893059937067
 16.4535195031301633 56.5778916172841093 13.8404067325338644
 16.6328740948382396 56.6637936028049580 17.1924829239814798
 15.6116215529523306  9.8488066354407628 13.3357928954602745
 15.3985801710794572  9.7526633077301224 16.6803349424884750
 18.3049073014499086 11.7741663326863204 13.5601452357249137
 18.0967261023297397 11.6761163247602688 16.9071977530481803
 20.9883741195662452 13.6963558492516384 13.7742704407409011
 20.7969860741623584 13.6045031765403941 17.1249212064828242
 12.7018266704566720  7.8338797750585734 16.4592201873490005
 23.6656111724046703 15.6167794361866594 13.9659950806907780
 26.3396314839473007 17.5355603096940129 14.1264649556851971
 29.0113672262951638 19.4541911004193828 14.2502825382686655
 28.9108255469814104 19.4127825713550699 17.6088459699077760
 31.6824096133602460 21.3727163966123257 14.3334057227863507
 31.6181840712222808 21.3540855621670822 17.6937328041803887
 34.3536123347852893 23.2915742510520403 14.3741561720910767
 23.4999208171446732 15.5374204784534626 17.3198352674122020
 37.0261298059042687 25.2101701156338791 14.3717353536859296
 12.9049193843789283  7.9193976091618188 13.1169857303737647
 10.1835731763808504  5.9856634132479147 12.9192565891580777
 19.1345024418424963 58.5088119122974106 13.6340168814294227
 19.3387560375419483 58.5907805407689111 16.9832455343819646
 21.8240769923714026 60.4422363974024321 13.4162805022013725
 22.0431354004189366 60.5135595292824959 16.7622938552871332
 24.5255643944573869 62.3779173622804279 13.2001378634122464
 24.7457217606565401 62.4326245882200013 16.5431369980755250
 10.0061836429747153  5.9181072317225070 16.2604922039896636
 27.2407916026265688 64.3169489869049187 13.0003647009137016
 62.4002920102337768  1.0373682913388336 12.8354460441386742
 62.5736529805250612  1.0375879948612736 16.1762684460269952
  4.6975209424661459  2.1054451211057348 12.6535057434273313
  4.6179701544513030  2.0929876965369503 15.9948223111389360
  7.4473189309884367  4.0477636891533981 12.7588110476348255
  7.3116584616336535  4.0047233097647643 16.1001979306626772
 27.4462570526855174 64.3479665770847902 16.3419503138870326
 27.1735046181627347  7.5671929245018346 17.3109940368786219
  6.8075108234185056 38.9747357171465225 17.6887694611524324
 24.4581588419335034  5.6393429430814095 17.1577232676126314
 50.1920407484200055  9.8249174095394931 17.0959434995590378
 50.0063499859983338  9.9137795490470975 13.7459246224230540
 47.4797294721327034  7.8985546787233591 17.2001463075288434
 47.3182951619381171  7.9677069411884593 13.8480998277799294
 44.7625114740806609  5.9707474363980264 17.2930229089532581
 44.6345485101382238  6.0207343775261899 13.9384057279494211
 42.0417740290763859  4.0422774097187428 17.3678599503754931
 41.9529401211823156  4.0727908903754919 14.0112299987561215
 39.3191516541279498  2.1139861640507500 17.4212847743804105
 39.2731025540530467  2.1242814788625815 14.0631262452172479
 13.5030239649625425 29.6022028935015058 17.3884929602458485
 13.5222701722442569 29.6979142060071446 14.0317754276838489
 10.8103313194833159 27.6613236457184151 17.2955301801675247
 10.8386315472635655 27.7988016252568357 13.9404085791997616
  8.1177628495206022 25.7238013930442868 17.1748295383329292
  8.1498881916149095 25.8975698463908870 13.8218205408224311
  5.4262693952548471 23.7905443129247551 17.0358803464578727
 55.9215392431106437 10.3750228563205500 16.7604600900793450
 58.4348645184075863 12.4335480813667818 13.3270776099969144
 58.6200386134560389 12.2906434556643056 16.6716817154661570
 61.1651548913676564 14.3741579227392986 13.2792090479059848
 61.3164411366031956 14.2030151210252580 16.6234034048836534
 -5.4483948074442434 16.3103904414404326 13.2788900151975433
 52.7016760437067688 11.8581591763981695 13.6419716753302378
 -5.3396666264980102 16.1140748439929702 16.6233162217063679
 -2.6465844317710028 18.0265321073570703 16.6737080948973428
  0.0229190825863766 20.1633902460121668 13.4212362650811379
  0.0451694754452510 19.9425718792660440 16.7679191082834542
  2.7451205336943754 22.0810193858935193 13.5450689860426294
  2.7359471624134026 21.8633013173203707 16.8940499827106514
  5.4533611535840087 23.9922812273586352 13.6849225236363186
 -2.7100294540777781 18.2399882330637233 13.3285687552460885
 52.8984619670219374 11.7488858053060117 16.9903310668967897
 55.4080047652422891 13.8004691118403695 13.5498821472154702
 55.5987853988810272 13.6687178478075921 16.8972419866525065
 13.1682036435818386 32.9926343321881177 14.1224928963995477
 13.1833992178472776 32.9194099680626664 17.4807136164556347
 15.8475594033847358 34.8916324863557605 14.1396199215206408
 15.8765504580732468 34.8625612024250771 17.4980488215241579
 18.5267940695019782 36.7892989724580914 14.1202028189254865
 18.5699275994765891 36.8057564063240790 17.4786093793588932
 10.4897941492090609 30.9764828754283883 17.4274392295004397
 36.2859043665653331  3.4984127044448012 14.0958525142161246
 38.9650615412534265  5.4460856948068912 14.0905352307482499
 39.0041663771163485  5.4053307648543321 17.4480499253064103
 41.6445078407125067  7.3928231717286126 14.0610971189392995
 41.7260186540771585  7.3347404731393322 17.4173092016355113
 44.3245378049487968  9.3383794708722530 14.0089833774817087
 44.4450020551732976  9.2644253513537453 17.3636845270977354
 36.2809518971483200  3.4765725305246913 17.4540363438155026
 55.7160084911993394 10.4892738052428349 13.4152726020741362
 10.4874231758853025 31.0919941693508228 14.0702841428072620
  7.8037451084158018 29.1888036059580003 13.9861756465501941
 58.1281473324956224 15.7393944220995916 13.4856607165162288
 58.2954952316370267 15.5838780265121937 16.8321702377719511
 -8.4925975625540175 17.6746824265382898 13.4599015389883441
 -8.3603239553117543 17.4961831299903281 16.8062851950229266
 -5.7577460151398423 19.6058213888845003 13.4781820650296638
 -5.6667558732411418 19.4083813333151447 16.8253753578802296
  7.7961174629019929 29.0350175377710578 17.3418929422202837
 -3.0246087322239479 21.5317645255709387 13.5398695130396245
 -0.2989532466510297 23.4534000543692684 13.6364247111904202
 -0.2814145081239988 23.2399771011882272 16.9858386408151425
  2.4143322786794719 25.3702683138191674 13.7545196190036929
  2.4102318828923250 25.1646950462190340 17.1062757937624532
  5.1140184189342524 27.2818290878644554 13.8770704404956007
  5.1025275146638469 27.0969643949960748 17.2308535487847969
 -2.9736537673697381 21.3221599016986083 16.8878709133658731
 47.0066999809621393 11.2812506195175803 13.9375960786754707
 53.2180066733305708  8.4551244331492068 16.8776256449224533
 50.5090159130100318  6.5317671453747739 17.0063999561895862
  0.6670626272569133 13.5460177864913849 13.0017841099111777
 -2.0081092295250396 11.4415787551597692 16.2728686767388062
 -2.0804856460811854 11.6123153524373315 12.9316981401067856
 64.6485642952943635  9.5309932813829672 16.2635335117254805
 64.5215820378238618  9.6719929698807867 12.9226303841027583
 61.9519188248543315  7.6197076914668447 16.3153777427537143
 61.7790619976236712  7.7275135890168967 12.9743678734039296
 59.2535429139261609  5.7066957793841482 16.4210112922870266
 59.0473297788248104  5.7801406038289835 13.0789922458978403
 56.5515069125054453  3.7912210476390720 16.5684788221890038
 56.3286687129816031  3.8323322088606928 13.2246770925459334
 53.8444169767999909  1.8722058252221858 16.7413132573012895
 53.6236156876267387  1.8846058042689802 13.3950450712497986
  3.6905590497456888 11.9722108417086872 16.2794084130268892
  3.7323427694054954 12.1470686458942918 12.9373172139518804
  0.9985573105692942 10.0598852617977172 16.1689949824258825
  0.9868423712128777 10.2151730151988041 12.8274733543652353
 65.1452730576149435  2.9827157240918414 12.7224813335431310
 65.2709970650372355  2.9479776068519556 16.0633437772411476
 -1.4514124770666050  4.9280648515544216 12.6749339321243912
 -1.3852177303067101  4.8578603326959575 16.0162474339267504
  1.3052348644732703  6.8710086266836061 12.6979679029265995
  1.3085684958872628  6.7678178851554689 16.0396694247338516
  0.6846110173726720 13.3529371982565159 16.3436454510778653
 59.3560423307413387  2.4387663461440132 13.0145567653836274
 62.0883756109738982  4.3857192777803844 12.8787977275296726
 62.2640151504251946  4.3284614557927625 16.2194129345638380
 64.8325072281197521  6.3323954540684086 12.7965840887897766
 64.9610148318244995  6.2394043006719802 16.1374026466652403
 -1.7662190499682870  8.2761960633894791 12.7787366748294815
 -1.6950450693609285  8.1497059991371952 16.1197044902119693
 59.5644109095091210  2.4158133605196084 16.3562137174832536
  3.4049656058914683 15.4715626794102814 13.1232589308905681
  3.3761063278549255 15.2674250766714046 16.4666953014899775
  6.1301433336137654 17.3889525202821744 13.2812124760156181
  0.3670912979150717 16.6470274405797412 16.5486756020520076
  3.0755208656965336 18.7823617295793284 13.3303396501668541
  3.0577034079760304 18.5643843188006059 16.6763559795049083
  5.7926095253730763 20.6951704485458308 13.4825455015688522
  5.7469778641764400 20.4867927696476180 16.8308993526959654
  8.4958965639569506 22.6006538464764049 13.6435538490012540
  0.3452017977677727 16.8620087201708841 13.2048237159273363
  8.4368998466747378 22.4149509146403467 16.9939642687159278
 11.1281961815162287 24.3485982518027271 17.1473801954136462
 44.9419851528859695  2.6977901912958151 13.8946266756970793
 45.0758109021164444  2.6799410723554256 17.2498094703324867
 47.6260119978084262  4.6462266685606517 13.7815936022831114
 47.7944466414460649  4.6065203389262068 17.1336635995092870
 50.3150753731216653  6.5940991342571893 13.6573660344272696
 11.1891741094025345 24.5017081410838387 13.7945304951354366
 53.0104593080724271  8.5421252986561313 13.5308722150186700
 -2.3251155529109355 14.7333645801271498 16.4628629415978516
 -5.0186382636839184 12.8224324178910436 16.4303641202265389
  6.0656463850424780 17.1853259090886503 16.6268534718994658
  8.8410342584030523 19.2977376407571803 13.4596036499491305
  8.7542557469616771 19.1088333608798528 16.8077277599393256
 50.6213905817798704  3.2678665288977653 13.5975560735559355
 50.8216949486302170  3.2406579750354307 16.9467022229327391
 53.3169786577081481  5.2162723343969617 13.4454468238973881
 -2.3949576795221499 14.9343160373601869 13.1200605617410915
 53.5329390581171864  5.1628848738664850 16.7915764228857647
 56.2385131088294941  7.0826745158400550 16.6472105455290738
 58.7408217723193431  9.1131799989078264 13.1868507958033074
 58.9392086103569852  8.9985090133337682 16.5297694765828744
 61.4717608638862600 11.0579294326768611 13.1122648264657737
 61.6368374203311475 10.9112437889118326 16.4542881462209500
 -5.1392846758582849 12.9989642081542485 13.0881206657956088
 56.0222769145121902  7.1652680008422660 13.3029433229956524
 47.1599337008528110 11.1937088572647010 17.2904406379126740
 49.6938609010121510 13.2218194073317150 13.8527409736888494
 49.8691117284880008 13.1209869428896990 17.2044284696686844
 -12.1452264884268732 25.5890386926649249 13.9117316892068406
 54.5949438285131237 23.5658286011026092 17.2863807972897696
 54.4789167322039276 23.6600903776943525 13.9323800560334750
 51.9002516642833172 21.6490833031225343 17.3390766033147301
 51.7613069151674594 21.7305712804546509 13.9845050499966526
 49.2029338546182657 19.7263964877698790 17.4108915524170484
 49.0585745485466731 19.8007690773287948 14.0555927535160823
 46.5008461798438972 17.7976078600651562 17.4834020162450336
 46.3695723968247222 17.8715066932865980 14.1271393047782698
 43.7932262359754461 15.8651031424560944 17.5401213979443646
 43.6889775554783810 15.9410407578697768 14.1827637093921588
 41.0808228412493648 13.9309838577231080 17.5713080937481472
 41.0124421274696900 14.0084895971228196 14.2128700486419781
 38.3649834870464943 11.9972982168169082 17.5721698183967945
 38.3376305179262715 12.0730639630744747 14.2135140690025281
 35.6469225973724164 10.0641775355921119 17.5421114545770607
 35.6629204201819050 10.1340642619895664 14.1838366678313719
 17.8199701622459159 43.3824269683517016 14.0807169873841556
 17.9317272811766273 43.4384294548193992 17.4369856868145696
 20.5004863108150310 45.2832414089509427 13.9465907734887882
 20.6284704405666695 45.3772004959266084 17.3004954904838435
 23.1837541482486387 47.1838748041305820 13.7804905350870932
 23.3236159579442628 47.3124904787350857 17.1314052063766837
 -12.0624203549996327 25.4789593127296570 17.2661711331652548
 24.9505937790408048  2.3540795377647386 13.8000125260870607
 27.6312433710355094  4.3013850732761494 13.9296419147143666
 27.4884435214281098  4.2739476936467495 17.2841510964277845
 30.3099682613036414  6.2474209533358440 14.0394356718479560
 30.2074145281086111  6.2026142867010439 17.3958383692010194
 32.9872126912343973  8.1916775907590083 14.1251258172312468
 32.9274716422002172  8.1326761924836930 17.4825728012778363
 24.7721645338740259  2.3467081205005345 17.1522003605736266
 -9.4156744554508425 27.5165762823815498 13.9290183509721590
 -9.3692594502815378 27.3917993064155674 17.2838336125782099
 -6.6894693979384670 29.4420043263470106 13.9821939844604337
 17.6103565895726391 46.7504540060108411 17.3913441144987395
 20.1507035830574424 48.5835546415931958 13.8701603882103122
 20.3083060104214432 48.6876708273652170 17.2221299003602724
 22.8344798908929256 50.4893753239126468 13.6747731563491506
 23.0045355248795822 50.6204605251978990 17.0233566678707007
 25.5247083084903252 52.3973154715241805 13.4585728602156998
 17.4704792354093890 46.6779090214205112 14.0362985493937149
 25.6988527771137392 52.5472614995872860 16.8040896558033026
 28.3908900478834134 54.4671894645524688 16.5793814567312658
 19.2664658897189298  1.7896375840814482 13.4626725831686773
 19.0372426959474836  1.7907158736051809 16.8089371533689018
 21.9562162455675569  3.7356527038388267 13.6386964450293604
 21.7460418924131389  3.7137638859428836 16.9874743925926914
 24.6398629483364218  5.6806128312475401 13.8061398047482804
 28.2257787182047544 54.3100067533429396 13.2355596470994517
 15.2345584886116416 41.4963523790931959 17.5371388164258910
 14.9108833572293307 44.8095571241832005 17.5259181220018938
 12.2103755456257659 42.8655223094416584 17.6213644992749678
 -6.6757855274015805 29.3070489822134270 17.3373941126998155
 -3.9724701434779690 31.3650839558464583 14.0617242888852179
 -3.9824468855535016 31.2272546758475649 17.4182619664216887
 -1.2697318603147794 33.2859520430383000 14.1533786981943610
 -1.2887262568252866 33.1547186447496074 17.5116600025313929
  1.4191842372303609 35.2042852055019893 14.2388951497018841
 14.7933353664666889 44.7710337836205099 14.1677734580524017
  1.4074435654066537 35.0895995327283501 17.5984644062936901
  4.1065738849729412 37.0303897774551700 17.6613126180060895
  6.7720650565557765 39.0357443703122016 14.3276915515923591
 36.6922310280202737 28.4843168004312908 14.3243552652363189
  9.4448229093813421 40.9499578342865220 14.3149979122041024
  9.5091152964175123 40.9204083758091031 17.6758959192345841
 12.1184588907158215 42.8617424114845349 14.2614426700431114
  4.0980849727281221 37.1207030633316961 14.3006099485039382
 15.1416201766519514 41.4797697450976628 14.1787725245388074
 12.5368567659797421 39.5520696965763605 17.5989467468711069
 12.4643124077006568 39.5747612733471854 14.2390583951232337
  7.4578432228792417 32.4748203141094152 14.1293056496000595
  7.4703121499327327 32.3474931513432793 17.4874558399535402
 10.1371471278155862 34.3811327927813366 14.1784184760936416
 10.1662330450743426 34.2916628051214687 17.5375737759418762
 12.8151407934404862 36.2850134372299493 14.1922752409246371
 12.8612221292166087 36.2366146642914302 17.5515172913347861
  4.7746458198431929 30.4060077065410361 17.4052713869540909
 15.4931983241101445 38.1865346435826680 14.1693448802134263
 18.1721979790378683 40.0860987073438437 14.1089833788222574
 18.2514712290832826 40.1229457689131337 17.4665160849168544
 20.8525952870060465 41.9843563697522839 14.0125401385765169
 20.9464232891914364 42.0633885921972208 17.3681420691993225
 30.6199463101291265  2.9245293932405914 14.0211992834798487
 30.5217230934101451  2.9105313466107616 17.3781819467947507
 15.5561047464379936 38.1806217000316863 17.5278084066949447
 33.2983724448277130  4.8723331996348920 14.0869403694061752
  4.7749214621124629 30.5651113778235519 14.0489014914372010
  2.0837034115163329 28.6522833730891229 13.9459190344329187
 52.3895084678465111 15.1605668567497300 13.7655836853163649
 52.5719166154901458 15.0453147744392783 17.1160224809062740
 55.0982837446124947 17.0972423038933492 13.6914871832927059
 55.2696767173624082 16.9647279504627839 17.0409362616734974
 57.8205684036984664 19.0310000406831605 13.6456050194352301
 57.9647789699075986 18.8798347806794311 16.9944194888322180
  2.0800189363210468 28.4700759176979226 17.3005114438194738
 -8.7997278382581658 20.9620907377622920 13.6365452320938108
 -6.0670508546961788 22.8901909859442512 13.6690080821063287
 -5.9987347987122943 22.7054686409254849 17.0188266439810825
 -3.3388971495982771 24.8146248852099909 13.7388933575760461
 -3.3057301365524099 24.6206425545676488 17.0898482112894428
 -0.6204605708868303 26.7352978037296118 13.8363150141441231
 -0.6131951916290151 26.5414763614772760 17.1889814893479667
 -8.6921369623601450 20.7926420889667618 16.9859200722288328
 27.3193790185513947  7.6239342781813741 13.9568345558835123
 33.2431833398602450  4.8394141684021550 17.4446421992493974
 35.9654318650397826  6.7691084677576088 17.4860047030939114
 -6.3776756884522747 26.1680216133770678 13.8394245423141573
 -6.3356043389728232 26.0048782982727751 17.1920294682363597
 -3.6546420342236061 28.0915909722367481 13.9152651219230314
 -3.6423353285839344 27.9223862106656284 17.2691059031261105
 -0.9438338571285033 30.0121487599584498 14.0110252089922049
 -0.9490728390127084 29.8466757034189918 17.3666279355217377
 -9.0286773226638211 24.0910991391507068 17.1476837783966758
  1.7518175282294559 31.9296027993359850 14.1095629634084236
  4.4360718227845792 33.8441881294156488 14.1918996302725020
  4.4421495550150141 33.7172308928148681 17.5508102382276689
  7.1137933594236591 35.7564889551816307 14.2447917289198873
  7.1404059949339045 35.6604531837491692 17.6047723501751534
  9.7889292635401368 37.6666909740182305 14.2611632268594715
  9.8389167386870220 37.6062110226627055 17.6216107637833908
  1.7453225831350887 31.7787039015003252 17.4668372171582291
 35.9768248269956672  6.8190434680329641 14.1280524940610857
 -9.1071953490973474 24.2415145997280881 13.7955456215198993
 57.5132034061449531 22.3126186558933597 13.7907143717179697
 38.6544893472620998  8.7638080174736288 14.1435734905041013
 38.6867674860949791  8.6994169784512323 17.5009850720967357
 41.3314300183115577 10.7063863474283849 14.1324155323179053
 41.4059690353722729 10.6306328239150378 17.4891352705644323
 44.0094941714824230 12.6460426132107866 14.0957087057462900
 44.1220005183199646 12.5622915092518248 17.4514720281668474
 57.6287432560554933 22.1786406849072648 17.1422787759435735
 46.6903988398553054 14.5825129587167961 14.0363867927417409
 49.3774472448636317 16.5166709772274700 13.9617562448513084
 49.5391138224753291 16.4213613877772779 17.3150656904200595
 52.0753136659525424 18.4499775759352609 13.8847863459672443
 52.2387688438323678 18.3455831977115587 17.2373835649359606
 54.7881009688411140 20.3820379021257523 13.8230869470719036
 54.9343614375625151 20.2644007174855254 17.1750240477390648
 46.8335340097351747 14.4930871545152815 17.3909863732048962
 36.6967491668346355 28.5537633225902532 17.6849027016150693
 26.2048394028844243 17.4735608880942621 17.4831281244780463
 36.0211648237885527 35.0346606659900885 14.1133863880335664
  7.2066138765102208 64.0472367190579490 17.4253706054054973
 32.0357648963574348 46.4841712573866985 16.8838755298057563
  7.1536972873382805 64.0235431951195579 14.0671523117986474
  4.4857280529259382 62.1180310530536346 17.4788895364213701
  4.4757122775026161 62.0765102749868944 14.1201433394596947
 34.6726819225714991 48.1869483147998210 13.3696799035580458
  1.7655119521606444 60.1872675531865795 17.5061199385765782
 34.7242970756483516 48.4039373242562760 16.7159306015903546
  1.7979989085244878 60.1306755220234663 14.1479638086104416
 -0.9523581474733801 58.2558190530707023 17.5068373397014696
 -0.8794324703926436 58.1864115421157919 14.1494588129622230
 31.9621469069286519 46.2789245767192625 13.5358746884240002
 37.3979285257826604 50.1033354542400318 13.2256656999516320
 -3.6665537327438256 56.3233604281996207 17.4815023616824128
 -3.5569232953895806 56.2445942959282803 14.1251398374223989
 40.1357024445590440 52.0280467968687006 13.1204894790511872
 -6.3760778697430194 54.3900472257925429 17.4315386733256794
 -6.2359621715423792 54.3056765867431110 14.0763477292332624
 40.1003617562685335 52.2298245199783224 16.4635805532565271
 -9.0806522973114721 52.4578811884231797 17.3612478290361558
 -8.9196489620368702 52.3701007677882018 14.0074325638818653
 -26.4703233408179024 53.9603699277840718 13.0670586313632136
 -11.7795589339921793 50.5288767319954744 17.2795874716515065
 -11.6113963891926169 50.4367042053995078 13.9264962407524120
 37.4118150941436269 50.3186120665085781 16.5699041510233940
 -26.5612058324366949 54.1394436566612072 16.4099069612256940
 42.2610678140989009  0.7491538541945718 13.9909445437895830
 29.3446958344147291 44.5573330098507085 17.0527767770386518
 30.3039902408739756 34.6181644439770579 17.4810526834831528
 30.3144345679756881 34.4975205016318611 14.1233720923419064
 27.8026635423333737  0.9827804648156703 17.2890640384715226
 27.6080731551276948 32.6770634927439829 17.5187249044612621
 27.6341862619675567 32.5952632932763606 14.1605665765085167
 21.2073885606609771 38.6861085447834299 14.0646254204872729
 21.2640544711992625 38.7476770573163378 17.4218675210429055
 24.9128745385766130 30.7349190040593712 17.5198412633795364
 24.9553256378837425 30.6951025705557043 14.1614701483811594
 22.2179832332758131 28.7927286857720475 17.4828670859921687
 23.8897625734592438 40.5827535001857456 13.9739987785287383
 42.3557394361632262  0.7524651285202056 17.3480563870646165
 22.2767752090745681 28.7963554097180854 14.1247947330673842
 19.5234625857162101 26.8514694590618888 17.4084163861278896
 19.5971426298655977 26.8981157885617641 14.0513187610433299
 16.8298148710489777 24.9110637481714470 17.2981759008878058
 26.5751969742290157 42.4796379327484104 13.8514881413110214
 16.9154050103202067 24.9998326345499535 13.9428240962097405
 26.6517797343653129 42.6246621777018291 17.2045372863628856
 14.1365831334628762 22.9732095372274401 17.1564950368492326
 14.2298549728920545 23.1009024463150183 13.8034879183896333
 29.2647537712509553 44.3777338846568838 13.7022151105047403
 11.4445047825499717 21.0386014017787240 16.9897164935877925
 11.5395540680908493 21.2005676691016838 13.6392765216784166
 23.9580300000362882 40.6879341661202574 17.3295398022452005
 27.9406101997749765  0.9758474719141780 13.9338066022280316
 -14.4734530369567800 48.6048557455148611 17.2013561224537810
 -23.7266919480439107 55.8985142382942399 13.0710345558485450
 22.0592470457823282  0.4214606613399570 17.0057544202614039
 27.9849540490512680 29.3071106524924687 14.2225697152477775
 25.2333746376550714 27.4171236250721186 17.5436100029806390
 25.3080518303448656 27.4030186826309752 14.1848521113279364
 23.5356899500973995 43.8821060341105991 13.8818220413035789
 22.5365289758332885 25.4751560787323790 17.4662539550160787
 23.6412598821088693 44.0012115786505689 17.2353578564046508
 22.6297630352403125 25.5009720653286323 14.1091046411702727
 19.8407721302736455 23.5344416756093793 17.3518442934644064
 19.9502325388500523 23.5999761255803371 13.9964879541799387
 26.2224535552744840 45.7801730368681419 13.7218985975487335
 27.9307543226537476 29.3601958991607077 17.5820181011122258
 26.3348799567727951 45.9353992799506159 17.0726714189034432
 17.2678171671859531 21.6992162523828753 13.8504778338845433
 28.9151911720681056 47.6804180091738630 13.5401339524156512
 14.4521340215988587 19.6616601094707200 17.0266401229802753
 14.5814897441906286 19.7976891306422011 13.6763444664336458
 29.0269806464683242 47.8645556968875852 16.8880873282385693
 11.7605372513681417 17.7308808927160584 16.8297020084588524
 11.8881333274456260 17.8942665377889902 13.4817854729106159
 31.6187435571258781 49.5854385780455473 13.3501176556009984
  9.0708342434594833 15.8062305123925242 16.6268678692972678
  9.1839716946702072 15.9862176833329528 13.2813207150305885
 31.7167335651215794 49.7865437195614362 16.6955711683322008
 17.1457534475093922 21.5966217024364830 17.2036247783814353
 -14.3158391884629168 48.5044531416187112 13.8486427534938716
 22.2658024463397552  0.4058633508458522 13.6563719100662606
 30.6287659463856983 31.3028811402023486 17.5814452606733802
 -17.1652300696013711 46.6870788816085991 17.1437465666401323
 -17.0343089535716601 46.5731311804787822 13.7915322330647978
 -23.8702531357383094 56.0501508851472252 16.4132338013011640
 -19.8570649761143656 44.7741738528943856 17.1201235877234659
 -19.7621436563761890 44.6437650966184592 13.7677495443320748
 -20.9910492222427401 57.8406626569461153 13.1278448668773660
 -21.1773992236895801 57.9634102869975720 16.4702644739193538
 46.8024231693967963 42.8632741835157276 17.1367070420571217
 46.8582603038728465 42.7160834659256778 13.7838122126144853
 44.1107307395814559 40.9509869866016274 17.1917878259835568
 -18.2668147392733289 59.7855723545763951 13.2280160339640478
 30.6618033788746516 31.2136355995042791 14.2219032688668854
 44.1318125401580659 40.7907447320376733 13.8385496735327571
 41.4181497923301407 39.0348509766545604 17.2764225052557769
 41.4145769461783360 38.8686888135434430 13.9221035543701461
 38.7237791536864080 37.1119820280830268 17.3758578500005463
 -15.5549063627058342 61.7325007394411500 13.3588890994439691
 38.7111017879574817 36.9498990858959857 14.0199654877372630
 -15.7830717215126217 61.7993364508081342 16.7035376190834413
 36.0268800825327489 35.1808644782835671 17.4705526809387273
 -12.8540701508580231 63.6802525374882720 13.5060727707372212
 33.3280174767496007 33.2438017491712401 17.5427721837215387
 33.3397930040455392 33.1226449486302315 14.1841093272450554
 -13.0785555252107404 63.7207296459126482 16.8526797260833945
 -18.4822794514823876 59.8798632358142697 16.5713143367245443
 32.9965406267197210 36.4033072689286215 14.0531924915894351
 33.0000812289191288 36.5571107422059427 17.4096748230968963
 -7.3422719897828674 64.2784519128144041 17.1815352071416356
 24.2753016834517226 37.3718253309653079 17.4105791252032915
 40.7500449178152380 45.6381325362311969 16.8894541404549905
 40.7750094881371581 45.4291607848167445 13.5407346163610871
 26.9285954630576576 39.1820471483880155 13.9711974590934211
 38.0597429429945535 43.7217999112070785 16.9990082771915567
 38.0538940470468887 43.5101521193873779 13.6485516932746513
 26.9691831767953083 39.3109765251952936 17.3262720256007192
 35.3689774768238081 41.7989995077040888 17.1258791575806697
 35.3469635815577732 41.5964986681379756 13.7738334329260805
 29.6151965559333696 41.0798304304342423 13.8581435210432744
 32.6763116773116025 39.8688361766865356 17.2503662423419897
 24.2457334430794269 37.2853183732093569 14.0536496768760557
 32.6523714520933908 39.6888328936724548 13.8966712453019348
 29.9821562848289531 37.9332774582963239 17.3557352755865075
 29.9648658291606758 37.7863384951346362 14.0006355885880165
 32.3071670990889146 42.9805820661330245 13.7215310190586131
 27.2879032789719140 35.9942158136400181 17.4325204969006791
 27.2819619502388413 35.8871181994693984 14.0756809882740157
 32.3550546092739069 43.1779244954930732 17.0723008137809380
 24.5934925498618604 34.0537034003710986 17.4750623337712554
 24.6010249866366202 33.9895227562257745 14.1172051529878324
 35.0093416959956514 44.8869599316470840 13.5744038291602589
 35.0454369384589199 45.1029729010227030 16.9234649872108953
 21.8995425846391178 32.1118891956450128 17.4806686998224770
 29.6627667089599925 41.2466188023495164 17.2109473396489392
 21.9213817429233799 32.0925367844320135 14.1223747853281782
 43.5059642300216396 47.3534738218273930 13.4655203916232651
 -23.1096590840447895 49.2831149675580065 13.4333639758174392
 -1.5912482719589343 64.8426058668029697 17.3924387978695734
 -4.3103876358874427 62.9146496946885989 17.3277655008300506
 -4.1797778122985374 62.8743268941971181 13.9726129002625044
 -7.0265673581091201 60.9860773124276108 17.2438076788706134
 33.6075012665293116  1.5496374934401269 14.0771277198325659
 -6.8623296148962840 60.9262785298722420 13.8912047594019974
 33.5581989137363195  1.5479751385249985 17.4352606534173624
 -9.7377744016814205 59.0577500385067822 17.1453814057055354
 -9.5482851039465260 58.9794832980205186 13.7948252246220768
 16.2035063605294738 31.5955797203281428 14.0902609392845353
 -12.4429618195240614 57.1308502696064267 17.0393904928951692
 43.4407509673666681 47.5500791378826051 16.8133373618130655
 -12.2391356335435795 57.0349435614114597 13.6906926103868152
 -15.1419437588833627 55.2066380398867267 16.9360139814783075
 -14.9386524636964886 55.0929740306606917 13.5883632705040398
 18.8838588092742654 33.4925677364482510 14.1139728021860851
 -17.8360749769867937 53.2863264791065703 16.8492723881670656
 18.8884450084938358 33.4879036236254066 17.4726017699715719
 -17.6508412178946976 53.1534856813593706 13.5023115729306546
 -20.5281627516351222 51.3717557848095723 16.7937751338935222
 -20.3761020910789412 51.2168293453930517 13.4472114422995084
 21.5642441328267864 35.3889488299717669 14.1017327751889976
 -23.2195353722913111 49.4604012562986810 16.7803993701219092
 21.5814326503763567 35.4305958040791680 17.4598992609571475
 16.1958746456686207 31.5446591045689679 17.4485827716187671
 19.2063047184788793 30.1696479985957886 17.4489134474165759
 37.7260146719441281 46.8006769719217459 13.4370906733908431
 19.2414612893771348 30.1957068780819533 14.0906547010707044
 -14.8107939949514904 51.9072348700805151 17.0725504410417095
 -18.1622431813932863 56.5834437649162965 16.7008499914913031
 -14.6274964294354852 51.7926381878990298 13.7224646778553385
 -17.5035774300909281 49.9878541202045028 17.0020642109561742
 -17.3425567274111287 49.8577700515653675 13.6527272394855075
 -15.2482921779884695 58.4071746544244377 13.4628130268293784
 -20.1949479257578872 48.0739576025938291 16.9641384712588099
 -15.4657848198300911 58.5036888017446302 16.8082695477935928
 -20.0693516879562104 47.9252200166951710 13.6147127206339071
 -22.8861698597216581 46.1629285603668009 16.9671321218266797
 -22.8016560223660640 45.9954737049597924 13.6170948131842433
 -17.9592496646064710 56.4629532665104534 13.3559456377683805
 -12.5481208449606783 60.3534149356173586 13.5854271778156246
 43.7734121805743257 44.2517389141633970 17.0125702284145000
 43.8180170291954596 44.0690053108447657 13.6619330562766432
 -9.8558240939433706 62.3010254329512847 13.7103850820269209
 41.0818864078754302 42.3379564811449995 17.0941984087801799
 41.0939685645945829 42.1462120702801215 13.7424960402701508
 -10.0553296462673512 62.3521700026852770 17.0602467529419606
 38.3899191369644086 40.4186663768691190 17.1998019335429788
 38.3821540343849961 40.2276538228803062 13.8465495800299276
 -7.1695387075459314 64.2494377052120740 13.8286362896711594
 35.6959092984549500 38.4915154120288889 17.3113569811849679
 35.6843226103723339 38.3132601874574945 13.9566268485911245
 -12.7637209716385200 60.4269737319907208 16.9323264487609961
 39.3712091061204461 30.4025255782868840 14.2658742872765973
 -11.9264922524543273 53.7291091476087601 13.8098780891155251
 -12.1146768814080694 53.8318895084980653 17.1608621906756404
 37.7341887140120562 47.0214987075535689 16.7842155981200634
 16.5133047222638289 28.2277119600408746 17.3809164776943881
 16.5603304672721698 28.2984467032302582 14.0237719977596775
 13.8206653529369898 26.2866520905422938 17.2788089778214236
 40.4555341328486762 48.7214484045927065 13.3284717156722188
 13.8767658235431721 26.4007114683796189 13.9236774822023950
 40.4228871365046842 48.9351101295263859 16.6741702021052447
 36.5968453954461310  0.1859404789541775 17.4511232069131061
 36.5944400347293524  0.1754679322097870 14.0926179583277662
 43.1935756136088003 50.6493435161538983 13.2618897404592548
  1.4466358919557805 63.4798205910324569 17.4568229857775670
  1.4878355928892579 63.4494233355395778 14.0987631981519907
 43.1124144030128065 50.8455784843604022 16.6069377864172125
 -1.2737685445089928 61.5507407282705756 17.4379543820309948
 -1.1909955436756556 61.5019031918855248 14.0809067920555808
 -23.4175537593733267 52.5836745708329900 13.2458606817737756
 -3.9918151953679626 59.6209126606730564 17.3953143676884601
 -23.5477817338330020 52.7554864846652762 16.5902979655632841
 -3.8707289334608102 59.5554743693867010 14.0400315884865901
 -6.7053370184795984 57.6902340047011748 17.3314417743778790
 -6.5518706986935271 57.6103601284968789 13.9780022783603926
 -20.6830686745100181 54.5218501430924363 13.2796984267849165
 -9.4128715882356282 55.7601031768553597 17.2510382711321206
 -20.8556831703627523 54.6677339724165066 16.6240260219766576
 -9.2360788633054884 55.6677868300740499 13.8989025917557552
  6.3813831091659328 13.8873542686284512 16.4375185198480658
  6.4652497493986063 14.0707977357296787 13.0939611780998852
 -1.4995696354109758 64.8230445345554074 14.0353512095641495
 20.3007182999386373 20.3008464566944831 13.9288345188133302
 -27.4143891182180965 63.9732213416240896 12.6782161610593622
 31.3986644091538523 53.0854114978193152 16.5196213083823906
 -2.9986329135861189 49.7139183658082402 17.6482942268511032
 33.6588030415791835 29.9289897735791790 17.6436886090725658
 33.6802372898135829 29.8446815710974285 14.2834719149687892
 34.0047819301171828 54.8212934229347937 12.9947546262035711
 34.0871797856101253 54.9986948642944142 16.3370623904293133
 30.9567157137587756 27.9867712717825334 17.6521580828939513
 36.3571414528291257 31.7587620454504105 14.2374644124797136
 31.0062308262542103 27.9325374733070078 14.2917334357023549
 -0.2910569970271052 51.6528066398066059 17.6677294585999221
 -30.1960203678975390 62.1122533501929155 16.0085371088033632
 -30.1719933875245694 62.0299799429332523 12.6672632980684376
 28.2554412536638324 26.0436897352888046 17.6195414772275925
 36.7457177329881119 56.7486148526549883 12.8564865374541846
  2.4353696292562441 53.5184034210086423 14.2924110752616578
 28.3321231746620796 26.0219189076002735 14.2595076957528288
 36.7764018679164053 56.9089712041585045 16.1982757835747080
 -0.2379015413379957 51.5875587041437313 14.3077035892115934
 36.3608400543742292 31.8682415697263117 17.5965539638141770
 -2.9127428202927139 49.6584317665893593 14.2886720749003562
 31.2782947691242406 52.9019273059125368 13.1757213677293024
 -8.2784320686581072 45.8043443957178340 14.1696850239837815
 25.8718631693784786 49.0853248549653998 13.5884825433879435
 47.1442271996940221 39.5619119873486937 17.2806902613304381
 47.1690538967612198 39.4406682714696259 13.9254858023978745
  7.7653296398057581  0.6952870072719327 12.7571024241880213
 -8.4001780919085256 45.8425093002004829 17.5277011255765274
 26.0172491447014842 49.2432200075600122 16.9365134444003580
 44.4513547399921549 37.6477125988532961 17.3431305301704874
 44.4472458781297135 37.5163584782840687 13.9874064984946518
 30.9424752154216449 56.2292313027218071 13.0261750635937474
 -5.5917280866303756 47.7309189170671218 14.2397538584013077
 28.5682485850662111 50.9906702565869452 13.3810615047734274
 41.7572916921955795 35.7284263594623894 17.4283787354073105
 41.7366683632386142 35.5946832110209002 14.0714761808794009
 -5.7016370762489563 47.7762720463677866 17.5986722030418790
 28.7090685521867819 51.1678004266831792 16.7264903696901399
 39.0608176586253819 33.8020328990802454 17.5196096023810313
 -27.5032476093710798 64.0224064620612978 16.0196835693770190
 39.0410023834969522 33.6752606423165588 14.1614229210179730
 25.5549966692243054 24.1009671868616415 17.5455695370561422
 -19.4543206099609911 41.3673500177294358 13.8972065577045036
 25.6565660874127595 24.1134233019853852 14.1871072189396212
 22.8559362476257384 22.1595910474893429 17.4321170985847971
  9.3851747570089525 12.5073863775422627 16.4660398477622714
 10.5612206832093438 59.3938777723958538 17.4044209179453446
 33.6757999681015150 58.1559489120713167 12.8505230233276819
  9.5230918937822615 12.6632409815372498 13.1222626359907952
 -21.6098622767467283 64.5136465090691047 12.9232589309053729
  6.6940571735167529 10.5916884420503461 16.2774717787693639
 -21.8046122710746495 64.5530735711689090 16.2642926497696685
  6.7973231395689337 10.7399239581688839 12.9350918105841455
 10.4568686519203009 59.3297146456136986 14.0477114001760466
 13.1344303678141348 61.2718466280631446 13.9086288006036227
  4.0017127960102865  8.6787151934716462 16.1299177979252377
  4.0569654021792072  8.8091767527310534 12.7882916787801282
 13.5446155956372927  1.2364032341124864 13.0771932354250229
 13.3214512316484797  1.2455279690285774 16.4193226473076805
 18.7055886048975744 65.1736521614582074 16.9227258464105574
 31.0817422702768233 56.3815823770354285 16.3684504412972842
 18.5008728981234647 65.1608725969470299 13.5738189938925675
 15.8150081453374867 63.2156158393298071 13.7484818793079526
 13.2776850341925119 61.3230131621592562 17.2631569813914147
 12.2334314989390638 14.5794848418200758 13.3330961918670621
 -24.5000503125619105 62.6399130008784510 16.1550212595305638
 33.7723377339358990 58.2928445530874910 16.1921744895499415
 39.4972523396254545 58.6836257165237996 12.7764452689028101
 36.4636455299848450 60.2025085984973103 16.0680706147843004
 22.9798654898741503 22.2065355036808008 14.0757102976042585
 39.4666425688059022 58.8181651152271456 16.1177691023237166
  5.1080103701071868 55.4524600846735680 14.2426038904863947
  5.1314913356679144 55.5277321988948458 17.6022064825930649
 20.1583545392837564 20.2205596476300116 17.2822850888296635
 34.3374102913776724 51.4982630496174281 13.1723752160611944
 -27.0989195926382251 60.6241770551094206 12.7626556726540290
 17.4625261564930874 18.2849262862057138 17.1014222724212104
 36.4230128272500906 60.0897933392042134 12.7262794325796538
 17.6182309094888829 18.3958766411621397 13.7507425840999264
  7.7815964671025579 57.3897054963817297 14.1600925764358418
 -27.1932519021668284 60.7282203371643021 16.1036243632331164
 14.7682567458573750 16.3534232384137681 16.8960797410776209
  7.8453982525710053 57.4621191259117552 17.5185985149758352
 14.9301830821144890 16.4896952896972380 13.5483002270847201
 -24.3493974172488379 62.5681316750578844 12.8143303455848603
 12.0759184447383454 14.4275111581424920 16.6785120907796447
  2.4195311016296444 53.5908079344145563 17.6525142091345977
  7.6194452424884451  0.7110343491664238 16.0979228981718556
 15.9924847721000845 63.2498085203272140 17.0999934839627805
 -11.0949471265909470 43.9156129281018011 17.4509752065072838
  4.7885041621202795 58.7599028941208843 14.1732779186228726
  1.9396326883231712  0.1615068483439863 12.6148022168335689
 47.4808307683718667 36.1681329706400163 14.0360664797077668
  2.0891049168903222 56.8916415036590664 17.5755543196318662
 -26.7843499239324956 57.2858454923477893 12.8965330317982350
  2.1132014115791384 56.8186154021946521 14.2163784324481011
 -26.8792516345835644 57.4336857169537396 16.2379178539187556
 47.4878418020878428 36.2582141813697802 17.3931912947684566
 -0.6243641687516935 54.9570222460002853 17.5888215405181825
 50.2061128383335671 38.0939414645577585 13.9980968379873634
 -24.0373924141960167 59.2273517698695855 12.9229698693370469
 -3.3346306886648187 53.0209419269449427 17.5716271321588025
 36.1534422825807553 63.4959190472489823 15.9900696520399404
 50.1803930928900854 38.1712178062518177 17.3548333729569144
 -3.2371560803746022 52.9459417853417094 14.2136017783883393
 -24.1872795607501523 59.3451260764914892 16.2640602018080500
 36.1030173287004317 63.4406938112819603 12.6486399903642237
  4.8054088756455267 58.8249916142259579 17.5321181131531070
 39.7816228639258753 55.5238709534214152 16.2735204423338082
 44.7942959680146515 34.3417722774227840 17.4606531884672762
  1.9241198558139601  0.1824925442503544 15.9564999532713649
 39.3995678497606789 30.4901212020718120 17.6256502496477587
 68.2736234347500641  1.5656222393064017 15.9719587729848307
 48.1066351642160726  1.3167255373238846 17.0991451641469219
 47.9333481925462337  1.3200660876170316 13.7469571290594406
 34.4046284192129050 51.7023744216057324 16.5161754855615364
 68.2149246216501979  1.5731354018395478 12.6305259029726624
 12.9610573159407885 64.6134984987252494 17.2395510747959513
 42.0606076356727314 32.3224213240927725 14.1854934317471137
 -6.0410555899056879 51.0850394703038901 17.5259274585764047
 12.8224300246454437 64.5950757262879733 13.8847316310078543
 37.0709220110763482 53.4196919531793313 13.0276596386221133
 37.0927065740271047 53.6140926037470678 16.3698809181768752
 10.2428376685667537 62.6857705813815471 17.3615333332126447
 10.1429177692723975 62.6482358346257016 14.0047737593817185
 44.7640731734760990 34.2442767478740180 14.1029343838051826
  7.5238354352070864 60.7562926116655007 17.4601109392028206
 39.8160434052899816 55.3492480373406650 12.9318780432807152
  7.4651118475944385 60.7032534417053853 14.1020581726065330
 42.0987862090941931 32.4196640225182193 17.5444064745823241
 -16.4170546144975553 40.0209668358626018 13.9963654207922019
 -0.5615412197603578 54.8805494366860174 14.2300095304570622
 -5.9156799786032366 51.0137904220057834 14.1689431580794558
 -13.6927115037479314 41.9491406796283854 14.0309276024503085
 -18.5738618392444863 63.1184624477368388 13.1311291948423836
 -13.7873005321307165 41.9962194846981944 17.3875603436776842
 -14.1316877326594827 45.3006442557120081 17.3087320809318470
 -18.7963567560873024 63.1749668703291007 16.4735934811675158
 -14.0038862899694116 45.2245723953694281 13.9540364726083723
 -11.2947308716916002 47.1539320265380653 14.0242610097546265
 -11.4387885938541611 47.2227969996652703 17.3797260475265176
 33.3510905203501054 61.5005472083668749 12.7521430882981317
 33.4606192286605690 61.5861720097033469 16.0934978202361449
 -16.8235500645838023 43.3849820489904445 17.2626193802115182
 -8.6000530758338396 49.0834639980523519 14.1019677090917916
 -10.9782450748600464 43.8773862816236786 14.0936565035709638
 -16.4789042002848234 40.0827045057071842 17.3530651030813310
 -21.4932454479147239 61.2590078722193354 16.3462554428888538
 -16.7259894578434292 43.2953750337515757 13.9079905118519704
 -19.5151802172974165 41.4733573258853241 17.2522666981358483
 -21.2998345975001619 61.1720288457047943 13.0049549657520043
 -16.0958543341125129 65.0927904925918597 16.6328506746276190
 -8.7425917878900119 49.1514974165716438 17.4579854291746841
 -15.8613399336111325 65.0656177316636786 13.2886346905600181
 -19.6531962476614090 53.0366371518222053 15.0766796038559736
 47.8759590082622637 12.9823261823314766 15.6223562717876572
 11.2705840229281353 32.7785526494767083 15.8061202760608150
 -0.9266116593948458  9.9610769093317728 14.4984686862386187
 -2.5269809319390917 26.4559021493928803 15.5069034895777342
 16.6432570421610428 36.6226457002913222 15.8246828007649913
  0.0103888266917911 -0.0036190532298034 14.2792001055184397
  2.1103796004450142  8.5687366756907366 14.4222027512204658
  2.2622414592390090 65.2109789249410738 15.7714732102083062
 28.0673744838493739 37.6850724806999580 15.6950564328673359
 45.1780942188483650 11.0470909401641464 15.6954275886723806
 -22.3642658933088398 51.1122871542866619 15.0413671147287396
 -3.6501222463184946  8.0347198417881884 14.4849894772750645
 34.5239558507492958 59.9719360647820423 14.4273932770338860
 50.5742478729050404 14.9149426680862138 15.5382580641118757
 44.2730263805377504 49.1909525321445642 15.0529384524886041
 30.7576524643288494 39.6029694518864019 15.5959716180008918
 13.9568256739494458 34.7011689804254004 15.8336872874242882
 34.8431427413322439 56.6553580615851331 14.5541259088131483
  0.1742177406538494 28.3777268898916830 15.6111886182228456
 -0.3016755913891648  3.3206551135929825 14.2917106046784355
 66.0124026797100356  4.7158459583164856 14.3813423898019686
 19.3300473400110810 38.5428762072123945 15.7784225936853186
 17.3184190759791896 30.0085828228841081 15.7481229992312510
 63.2897846913328550  2.7871430490505289 14.4644902057647986
 55.9813443408767881 18.7714985241322161 15.3938955339500723
 54.8420231377177529  0.3134190148731640 14.9890074248021037
 36.1473283497613167 43.4375731649306402 15.3377171589370320
 22.6915753206931505 33.8479652036957717 15.7945189608165251
 58.6923510260313179 20.6945574852345189 15.3638605647691762
 -26.3421918852636345 62.4264011410309720 14.4025813371912594
 34.3783246203776187  3.2950604733925362 15.7684873854195988
 38.8507190842569869 45.3544422450145959 15.2112131371601116
 57.5488628878709676  2.2451826230732110 14.8036354383050206
 60.5720136426611049  0.8583319102736243 14.6059579254601868
 -0.6136811621651674  6.6432405572000661 14.3668762914440293
 -29.0655997677651179 60.4998021597704891 14.3853798907192640
 -7.9460229114193393 22.6155517307185754 15.3734847817663436
 31.6781649106101213  1.3565997038152546 15.7254341428294708
 37.2462443562708287 61.8955402314239933 14.3294788979080501
 -29.3790971953049613 63.8217301210286365 14.3016777226954392
 37.0791259806398088  5.2335646158246165 15.7870559447811232
 37.5621615265186009 58.5758402104587361 14.4373490302650342
 42.4795328227469753  9.1098847586598222 15.7493592707564343
  2.4241475316066294  5.2478718218008336 14.3201608467487560
 -5.2344263670257947 24.5357297914786834 15.4235071121372744
 33.4503764628839022 41.5203755571685846 15.4725933473662831
 62.9789322895796460  6.1063247480276948 14.5371549686031809
 60.2610878124738463  4.1761974789584553 14.6475026975125928
 41.5600940657321090 47.2720138054557424 15.1119942496631872
 20.0049838374885312 31.9283941045055819 15.7895580620821239
  4.8295239411630764 10.4921633440736102 14.5407878561434334
 53.2752334238237495 16.8450967068372996 15.4564102639654646
 25.3789586070459308 35.7668061840318501 15.7624616903391956
 39.7798252822802567  7.1717523133317345 15.7806304082453437
 22.0179312787757020 40.4617216226009049 15.6958395465505980
 -23.6213912693115660 64.3545223312086847 14.4844645660339584
 35.4909878826628642 50.0367749319957724 14.9173141004561067
 32.1310132087518028 54.7375862334899494 14.7230100557240906
 -20.2840300624100074 59.6495901664965658 14.7807546664528751
 56.6170367579415625 12.1772410649936500 15.0977488787833529
 -14.5607116166435393 60.2027319127792637 15.1379246977033723
 54.2226746680728553  6.9366018070791151 15.0941997619624253
 59.3276994277365901 14.1054697018338722 15.0293597910063355
 -17.2637093984476699 58.2698096201056686 15.0150324833799296
 -7.3085580489960478 16.0304775244268392 15.0040589883818267
 51.5186771434172499  5.0008380471833789 15.2381284136161241
 -17.5757830381719167 61.5807707127823178 14.9029318457191664
 -4.5928827142921254 17.9530172914266259 15.0273576235178155
 48.8165878241995301  3.0646594774392968 15.3832686630179936
 53.9109812263648536 10.2448270202643279 15.1990795185545231
 -19.9700259284349428 56.3397785227584649 14.9180857803431159
 -14.8713309429059350 63.5138391631445529 15.0515391035711090
 46.1155435403880247  1.1276738028075244 15.5194599215190348
 -22.6816985024854958 54.4129700737651021 14.8606096673513939
  0.8297574102181139 21.7929187408286680 15.2037941622078865
  3.5312269387044792 23.7126755008321517 15.3344113895571628
 12.2768044089047166 22.8634768766715695 15.4199029974105084
 -25.3969224887190173 52.4892202808208808 14.8524395244946827
 27.0631201528312388 47.6006285398484863 15.2878913405329353
  6.2268321219084601 25.6329439800289833 15.4706386988518272
 41.2383422051033790 50.5686419511658869 14.8982292102274627
  9.5844607068345447 20.9465882573541968 15.2517010230449461
 -1.8791812052465542 19.8733774579196378 15.0969689569853838
  8.9181574753661490 27.5535919084918035 15.5944491162217886
 56.9295848945157772  8.8707948561217762 14.9658672770934675
 -11.8594152836578690 62.1374581492155258 15.2724561395773577
  3.8593945365729634 20.4148454147409772 15.1202927716694333
  6.5581038567206154 22.3327831141590707 15.2751060157457772
 38.2020595773661356 51.9529170765432653 14.7827299875407210
  9.2520969571317568 24.2507232358830151 15.4279344945130941
 32.7874763974548813 48.1229480610605975 15.0841475191297612
  1.1533821357792311 18.4963905364702228 14.9829930029458271
 11.9425888043234689 26.1693141819792530 15.5631848147559726
 30.0901116124047014 46.2096402596221694 15.2630106778346626
 14.6312040705143005 28.0886747323117270 15.6717674256759594
 -1.5593052515408956 16.5763715483870016 14.8793004902712607
 40.9187693643064350 53.8721566918386046 14.6961820754711177
  2.8688826931561286 30.3018296710463453 15.7179863605741428
 40.4038001680971703  0.5587329791674277 15.7213807823488612
 -4.2765238146494191 14.6544645145622745 14.8222913002995771
 43.1044303926905670  2.4968226492150389 15.6452578443583938
 -25.7139728892586561 55.7948165713669013 14.6681247721139130
 62.3565155241689268 12.7298347880962481 14.8201937650445075
 24.7068465865458933 42.3792748337755185 15.5789893511538811
 45.8052575833625042  4.4349129435086798 15.5494902425867458
 48.5066089361250192  6.3724709248622995 15.4377657590117501
 59.6409326679185838 10.8020151499023740 14.8704975706810529
 -9.1593978558944809 64.0735971876741814 15.4063880631955747
 -22.9968389607377368 57.7206875550748535 14.6986561253768500
 51.2082446917610810  8.3094447371144220 15.3172965290768950
 27.3974539846164795 44.2952271692654307 15.4324432844496293
  8.5832670841362102 30.8550618420598539 15.7438982588435152
 29.7576704521606352 49.5146667214008431 15.0899594461471285
 11.6070262877955415 29.4743605890664533 15.6940075554949718
 -3.4497786951411524 64.6409984704464335 15.6601723583306338
 -26.0287070884389351 59.1076583387594781 14.5140820095117817
 56.3009032202332662 15.4769992793503235 15.2461017092788929
 54.5321738149478534  3.6256893773052852 15.0216350584919276
 59.0116747635411230 17.4024515974543021 15.1997039275411421
 -6.1490896908446189 62.7028501510941112 15.5755548902132315
 -23.3099566087856900 61.0352405664760695 14.5692339012462426
 -7.6258201875504401 19.3251490678480309 15.1942532302538602
 51.8283132898201302  1.6910437441934396 15.1927124773084614
 -8.8483456727895557 60.7653269167155869 15.4748093464752401
 -4.9122995719368703 21.2457739041321894 15.2327601355280020
 53.5952742571695424 13.5477423682636218 15.3251878048062959
  9.9159771995769965 17.6404427318285713 15.0743365067894715
 -2.2016437453413213 23.1656220316342747 15.3105948600194637
 -11.5468501623060256 58.8292838359989716 15.3641583273362254
  7.2162757974811145 15.7238492718123144 14.8807061183664349
  0.5032903161443745 25.0860630461987597 15.4176171051870785
 -14.2459340754801236 56.8953622196724424 15.2520555404765563
  3.2014305196156339 27.0078584557054242 15.5375541818065876
 -17.8858660773960914 64.8956875162687084 14.8270279436907035
  4.5090521969239941 13.8055531389425337 14.7094173575058207
  5.8941048190490122 28.9311545845744646 15.6514620273525971
 -16.9471406808376912 54.9640958881911175 15.1512885554484189
  1.7940661116313792 11.8845983931903199 14.5767192002546810
 -20.5951940112702871 62.9647073793944543 14.6775860612996638
  6.8883836623052446 19.0301538471301761 15.0745593829363518
 57.2393918870034000  5.5595566688041300 14.8644805939120168
 50.8937563658322745 11.6147519098872198 15.4220126690235890
 38.5254254227801383 48.6508755364455681 14.9937085787798914
 14.2944449489134140 31.3952704880609055 15.7622180044786937
  4.1854995365822205 17.1130258743654586 14.9074749717387594
 35.8184254502623602 46.7350754979091079 15.1268835398314465
 16.9807723687247538 33.3157662673143236 15.7954533689735896
 32.4580724921555159 51.4283240718793166 14.8939040353516443
  1.4749812703057492 15.1938645738640385 14.7689701854482944
 19.6671658610798517 35.2358575273582204 15.7925058415744815
 33.1181970986431509 44.8205136577672576 15.2810502015484602
 35.1657781999640022 53.3435560784556912 14.7219693508314506
 37.3911675676219559  1.9269065768565936 15.7657363881039370
 22.3544966810579524 37.1550345667865969 15.7530105514570966
 -1.2421327565246663 13.2725701039858386 14.6741164467441951
 40.0922047512808390  3.8651563352480176 15.7364609251189655
 -3.9625152662743983 11.3483675533216601 14.6363129157227689
 42.7933760524221114  5.8035268073322861 15.6840532891686255
 27.7320468054299454 40.9902760767161709 15.5700703390252500
 37.8809494407444589 55.2616253754361182 14.5928342250086960
 45.4938539253345198  7.7418393252865707 15.6108075401586213
 62.6684630605253119  9.4211814075259444 14.6596708599317758
 25.0426444700935846 39.0733310918252101 15.6781010611405822
 48.1939514075938362  9.6790982376368024 15.5209789962095588
 40.6010230178940148 57.1828637149203374 14.5210488278964434
 59.9513224572013002  7.4915731898911027 14.7388289508134775
 30.4235192699647996 42.9058904761076505 15.4345667988017485
 40.5072586738502807 28.8947598980050309 15.9752259635881657
 31.0525377160748661  7.9708822230988341 15.7647079396059944
  5.5593102709626958 32.2276660099669954 15.8083859876371946
 -10.2458642054166713 45.6371371221157531 15.7799886597891277
  6.9016044264879710 47.3416819937412185 16.0517036560388568
  4.2126849999657923 45.4091504725939075 16.0899164048847183
 -7.5516178524081239 47.5655824234885571 15.8572473863495400
  1.5237249631764729 43.4767952349403473 16.0858100565377491
 -4.8599957596636143 49.4967723098346966 15.9207070082880122
 -1.1657373178805570 41.5454664881397306 16.0434356446164408
 -3.8564603416964438 39.6162952606131498 15.9726500990897868
 -2.1687600737675448 51.4299923137712298 15.9588052124857800
 -6.5509588168256938 37.6902851971142425 15.8901976135580210
  0.5231036129980579 53.3643788191321207 15.9650749165388941
 -9.2516908972271636 35.7670561566431786 15.8156518309018761
 -11.9583905016219578 33.8461312686007361 15.7647438146215428
  3.2155956627748763 55.2993754862099038 15.9373935484983935
 -14.6682464004215980 31.9263990663085124 15.7468875398632804
  9.5905661289994111 49.2735190180618758 15.9713119511647079
  5.9093220832701636 57.2351432947826453 15.8769428739431024
 -12.9454798172587360 43.7117657304551415 15.7071961723055988
 14.9691678995021835 53.1336559573138913 15.6898278851684641
 11.2089015347610772  4.3813057336825274 14.6180331842272171
  8.4946484298935232  2.4541740150362457 14.4553114306890169
 40.1728648503946246 32.1870032081843718 15.8912544818814432
  5.7741254034915750  0.5262451522697644 14.3456634620241914
 42.8700833461588786 34.1102499522161864 15.8036658005005357
 31.1731797194577567 64.6889129296676373 14.4491382262839618
 28.4575563556369993 62.7632798085903332 14.6180873056648508
 45.5732083263999073 36.0310263676916378 15.7230660269876630
 25.7490248583226595 60.8381030599537240 14.8244618224245883
 48.2808915541503865 37.9505556725602702 15.6657361762784202
 23.0468475969970150 58.9136252735220083 15.0500952357339042
 20.3508092654138366 56.9884250274486277 15.2789871023863029
 -18.3603052873170647 39.8699336091216523 15.6423641069825017
 17.6590298032077229 55.0618171504664318 15.4964646435897073
 -15.6511254118735508 41.7896383221447110 15.6574018665051558
 12.2798662233866658 51.2041281742237118 15.8498369016084517
 37.4799117674798268 30.2611666918807067 15.9652559053472860
 51.9727993005439615 30.0064685082320324 15.7650374657713623
  8.6047669618560469 59.1710708661169988 15.7861653039593257
 18.3244363209105714 20.0853098320471872 15.5194402004110792
 14.2310420516090623  2.9904146481763361 14.7975686252672904
 21.0133094882936007 22.0058709835575605 15.6796359680413335
 11.5223067190063340  1.0609235415557754 14.6208091891721121
 34.2079583787249817 63.2929115152935680 14.3523882185918463
 23.7013639228839033 23.9281457866865424 15.8061952758164939
 31.4883798517131943 61.3688187932302043 14.4910876764016550
 26.3893679773634133 25.8519154111043719 15.8951759232384084
 28.7760059682389411 59.4467020504890513 14.6797278440288537
 26.0711634754872250 57.5262907075488030 14.8998792739813020
 29.0769502140739071 27.7771355847177617 15.9445437675827204
 23.3732883618560514 55.6057136748723408 15.1330313022264775
 31.7648736684393569 29.7033494113536420 15.9536083180965793
 20.6806128098029944 53.6835029543123525 15.3618613425801325
 17.9905052237270588 51.7595448412084593 15.5713264031979008
 16.9342787421990870  4.9201656574009336 14.9977549998018578
 49.2656824985029331 28.0854502057774909 15.8151958379142439
 19.6334080216758586  6.8505049217938945 15.2058721189110777
 22.3293930254207886  8.7817282378349493 15.4092532450799400
 46.5640536774905271 26.1623237358213423 15.8865995505353368
 11.3018898942967922 61.1070334256910073 15.6676244058257375
 43.8679921721868240 24.2359657478160138 15.9616032892022179
 41.1750298961713455 22.3064584674844966 16.0200022611158204
 13.9996935303586714 63.0431370765204235 15.5249799552141745
 38.4834055066854575 20.3754797015924431 16.0464196277900832
 16.6985376798039198 64.9789917119517639 15.3640469635578132
 35.7921670040984310 18.4433335042786553 16.0335809142743955
 33.1006757390064266 16.5110051770090323 15.9801116212906980
  7.5414930615415701 12.4127715421429823 14.7082139210497829
 30.4087006003594880 14.5784490762985239 15.8874491628342120
 10.2451366759970526 14.3311472668334101 14.9079753090120075
 27.7163025997015531 12.6461349089193806 15.7581006281483962
 25.0233257196609529 10.7136892534964741 15.5962864332655613
 12.9420371092845752 16.2486134634434087 15.1220195769069168
 15.6343633301159688 18.1663778203913466 15.3308276932268086
 34.4538175195428948 31.6294972622025412 15.9229178369170388
 13.9165908251530901  6.3082614050441359 14.8162773936116263
 16.6180437769330922  8.2347979608349338 15.0341793401435542
  8.1801911026844092  5.7763988887947741 14.4853005466265046
 -4.5266497354046749 46.2020103932046453 15.9749464361573406
  5.4611410921743273  3.8507808089994815 14.3505915337259413
  2.7370699116149777  1.9232926676600475 14.2792518831651147
 -1.8364685465707127 48.1340670892004283 16.0212012519135349
 25.4322002754070375 64.1524762028072217 14.7904116888553681
  0.8537971264215518 50.0673862155820828 16.0346239859017636
 22.7273365956857454 62.2237924079914180 14.9998083524694650
 20.0277759798723878 60.2947737933367165 15.2170765831099537
  3.5446758185131912 52.0010491293461499 16.0109066819101855
 17.3322805440499899 58.3653429813022697 15.4282520098951128
  6.2359296405146631 53.9353717216838362 15.9495247751494382
 14.6396815657811334 56.4348006982225030 15.6217978004669131
 11.9483778442655080 54.5030786986771218 15.7880037985608421
  8.9280089581232396 55.8697212882016174 15.8519115306284135
 -7.2183651139758993 44.2722213636653734 15.9046610415396188
  9.2576853209552397 52.5708129985795836 15.9197029453176295
 10.8921991631612531  7.7009339401104295 14.6678130321041387
 -9.9142554136122882 42.3458420623930039 15.8264959116456101
 43.2025176464960197 30.8198715388252111 15.8955744543562112
 37.8155421195209342 26.9669070338447412 16.0336284009965553
 35.1252842128416418 25.0374891989064601 16.0563879260369546
 45.9030960539521473 32.7421710860042694 15.8150644293959406
 32.4352738010494761 23.1071914974800343 16.0367387936872916
 48.6089977980375210 34.6627487766577005 15.7520620139450696
 29.7459704177584818 21.1775885316801080 15.9734350383152091
 27.0569310968430230 19.2487722820159917 15.8677049567522701
 -18.0327742360025631 36.5823244558772700 15.7188821643014087
 24.3683481979699863 17.3214116550931223 15.7224759049245755
 -15.3230860820775145 38.5017333667293684 15.7219618240419408
 21.6788606191257784 15.3953382532134437 15.5422540843507786
 18.9885479628801583 13.4708039452551045 15.3340411208958365
 -12.6160182707047781 40.4224635309755840 15.7604014061105779
 16.2950428069061459 11.5473491582554910 15.1087881834053643
 13.5972092254470045  9.6243700682163791 14.8811223986004073
 34.7896427391244814 28.3336833153487930 16.0088809787717530
 11.6213727194879866 57.8038188612936921 15.7213250933781890
  3.8774144641453390 48.7047238246901770 16.0656033575851502
 40.8418155977461552 25.6012150623998593 16.0181893186532456
 18.6577555005138329 16.7783274214555433 15.4256238673570589
 38.1502252746101149 23.6715522376466225 16.0605147974112725
 21.3474242764736175 18.7004192009854755 15.6149188408286967
 35.4593215555953378 21.7406309917395149 16.0640542264475847
 32.7690156197592444 19.8094219081968426 16.0244978101099456
 24.0356105072789852 20.6243395205941873 15.7727391615409882
 30.0788754592304883 17.8783593216881975 15.9421678317029727
 26.7236377842741568 22.5498486322761060 15.8938563428299187
 27.3885688341174358 15.9478043044700470 15.8196801073413962
 24.6978720826923350 14.0185001909848364 15.6601634632637268
 29.4120516782851809 24.4770220988677778 15.9744540951072427
 22.0068560960254942 12.0895171492396276 15.4696275558922860
 32.1006724058208803 26.4053138793152620 16.0127894122596182
 19.3141832347803870 10.1618177688314173 15.2567677222583971
 43.5352555960181675 27.5286836236539898 15.9484054458890974
  6.5673777108032017 50.6379104507209448 16.0128902987726462
 15.9666393143352074 14.8576655856395501 15.2121917650372929
 13.2715352128333617 12.9378555573759524 14.9872518793754619
 14.3163389008493294 59.7375987108354494 15.5620828668903748
  1.1877438086411105 46.7718397477620655 16.0780046063310884
 17.0129723824137855 61.6707217433182464 15.3809851651828087
 -1.5015963087186577 44.8393089850326163 16.0517185797784201
 -4.1919176453707871 42.9084371785000869 15.9932541528084293
 19.7114516486056566 63.6038541205715333 15.1861753480980877
 -6.8847798629528603 40.9806007253504703 15.9157661890548230
  5.1467873344454000  7.1732170631340653 14.4171825938506082
 -9.5825575387517521 39.0560300290212581 15.8386995888314814
 -12.2867034506142971 37.1339320671742144 15.7802338668828011
  7.8627125477803448  9.0966331250616150 14.5717846607403256
 -14.9953554847715225 35.2140145698481177 15.7524537836277698
 10.5710889115123230 11.0179797258261161 14.7675093305328300
 51.6457338824536478 33.2946508837004984 15.7602425917633280
 48.9374491505347464 31.3743998463945211 15.8020809814942051
 46.2333596162187064 29.4526970579774066 15.8696429286324534
 15.3016546425038396 49.8336902301615297 15.7509484036215230
 37.1449107884991037 33.5550186828802026 15.8571632351020746
 12.6131954742356829 47.9059253044573410 15.8940899029216371
 21.3477182709311926 47.0740704380996107 15.5422366023347855
  5.2754354248057913 63.8432502854231103 15.7753989566724435
 18.6590132704211022 45.1545313089342812 15.7009702229442460
 15.9708862371617233 43.2323606952690724 15.8251022174470943
 14.9668045748764715 24.7817101379651987 15.5667494929616588
 13.2834922541260010 41.3074888637139210 15.9114516837788642
 17.6548641479162889 26.7009092100120178 15.6850054037724913
 10.5965294810330235 39.3803816635996924 15.9588088025885835
  7.9100033778605567 37.4517868326264178 15.9663088603913064
 20.3419235312685878 28.6204884068691605 15.7694185503681474
  5.2228273738765507 35.5230957172852939 15.9341970934213553
 23.0287708567155285 30.5402085065558992 15.8176546061985164
  2.5341555302012764 33.5952785059723595 15.8671213516672402
 -0.1578927850404233 31.6693234209476735 15.7755599643153470
 25.7158125806342639 32.4604141433667763 15.8281106814710544
  2.5760375056547606 61.9048392055674483 15.8051456474926653
 -2.8552304120071037 29.7456006267908961 15.6768106625564201
 24.0375626991761742 48.9917287159941495 15.3538348518114525
 -0.1230003977315420 59.9670690973066840 15.8091305113537928
 41.8360099298732422 15.7135502194236487 15.9150017533840309
 -16.3034207117111620 48.3699955610657710 15.4398304610228436
 39.1415099702358447 13.7796657421216118 15.9248268424837711
 36.4461673292732868 11.8443384385693697 15.9023107897107430
 -13.6018100597852829 50.2963664376578663 15.5104791742921755
 33.7498504125899359  9.9079253741367541 15.8480302767674281
 -10.9049771984712631 52.2260505772364851 15.5949775609038035
 28.3544870613668536  6.0339557995584761 15.6548427315895928
 -8.2103718055064832 54.1584616361351081 15.6762816873258295
 25.6561868972070286  4.0972737397549359 15.5222406289772419
 -5.5160481543072111 56.0933370433325322 15.7426031359906879
 22.9578829296792364  2.1610361196867074 15.3722174955648381
 20.2586992793843024  0.2255771089333654 15.2122821475633874
 -2.8204514978895792 58.0298802115424905 15.7879178919591698
 29.4271913433393735 52.8223816384219589 14.9266581341991174
 26.7300612586262822 50.9073035677131003 15.1438905146025267
 -19.0109815266754723 46.4472385762279245 15.3988836987778637
 28.4037376497450147 34.3807926955584904 15.8014820194326973
 -8.2692205103298857 25.9040617198343668 15.5309433632615637
 28.6668214667007000  2.7258672424481363 15.6407063233064321
 -16.6268065570340511 51.6646079067769080 15.2982589264315756
 25.9678994502689129  0.7881465448253491 15.5311729500134508
 -13.9258819307201236 53.5934355531028856 15.3817952024947004
 24.3720029672702339 45.6852947652290240 15.4695101457896840
 21.6825855639656204 43.7681997277431378 15.6248046396898861
 -11.2287910409891634 55.5253415752504367 15.4768062199027234
 18.9940738987087236 41.8492840003814806 15.7476220348796119
 -8.5326223713548206 57.4598244285462698 15.5690067996753587
 16.3065687656153209 39.9285148747647725 15.8344435569677398
 13.6196728381962266 38.0056488122625140 15.8837650373852242
 -5.8354617243941593 59.3967063007097948 15.6495747584369411
 10.9335646124185928 36.0806107390411341 15.8954304839533940
 -3.1369057561091798 61.3344803921320718 15.7122375529302705
  8.2471734698007850 34.1542826230287844 15.8696549472832835
 31.3660845654010778  4.6637371300927466 15.7301315915911761
 -5.5596115231068106 27.8242542542084692 15.5902386491309350
 -19.3334004426569273 49.7394853014017357 15.2422154540916335
 -22.0443685182046778 47.8176745355402701 15.2253330500017512
 31.0927126569502867 36.3013313367040169 15.7402705019514126
 -10.9808061564152712 23.9838044110455257 15.5082614971131463
 33.7836332768596606 38.2221718131625892 15.6488810067960475
 55.6590523408507067 22.0621733257376604 15.5248976533423626
 52.9516281566833840 20.1383943954336253 15.5756205505729550
 36.4781820902903036 40.1426386073922075 15.5367151269100230
 50.2499765835686603 18.2112697709999942 15.6482865439023229
 39.1777604868220592 42.0618413471269008 15.4205909518274566
 47.5525669066037082 16.2811083329892803 15.7249053350868149
 44.8566309005540589 14.3484571466265667 15.7893827197918437
 41.8837102935800303 43.9798256795989317 15.3207293128369990
 42.1603641553350741 12.4137624775945987 15.8316117455874839
 44.5943242049264299 45.8980948886923841 15.2524322301983961
 39.4632755389248970 10.4775327552367195 15.8472508209574023
 36.7651937291313331  8.5400109765832681 15.8349481642308660
 34.0659554186905780  6.6017959192473583 15.7954953639030791
 44.5300265469494931 17.6463447035814021 15.8748706189845841
 47.2246347617250137 19.5769566843704084 15.8108872496622919
 -21.7220545914023973 44.5270947264499881 15.3968038791913990
 49.5943461219793633 24.7957640362405556 15.7927036343922129
 46.8947247208390294 22.8704359505811077 15.8665819919307562
 -7.8828678123936777 50.8606539371397872 15.7777655466566333
 44.1996713193302284 20.9419427908380626 15.9359483499087116
 -5.1902089410039194 52.7936039653087690 15.8390327536959514
 41.5069422941843840 19.0109057785588540 15.9828297940021820
 38.8146391047686947 17.0784554232411061 15.9968139130589684
 -2.4972622749705922 54.7282764924388800 15.8756320793261789
 36.1216834999702030 15.1449919620513818 15.9744467979545970
  0.1968619126124089 56.6640309135591664 15.8838560346205515
 33.4280440392096665 13.2110407941491967 15.9155546890328115
 30.7337212425667623 11.2763905119692946 15.8222252538930377
  2.8925357557039546 58.6006123508852070 15.8634012630984493
 28.0387108275811094  9.3413339033656850 15.6974108611825383
  5.5898714951846307 60.5380264491726265 15.8148379642445391
 -10.5768570019950108 48.9303406226268862 15.7003794685178093
 25.3425701347509147  7.4063620954243659 15.5460469410732429
 52.2997067005488177 26.7183442188130620 15.7343309496700314
 55.0092992079334024 28.6388858565000781 15.7053815764312983
  9.9252017279291778 45.9764458741624864 15.9973568429888626
 39.8391239579776908 35.4787455961240710 15.7679887223276154
  7.2372031997158208 44.0453935844579263 16.0584417795068966
 42.5391005656895587 37.4000359898331851 15.6741308744787808
  4.5490474460516976 42.1136522235814397 16.0764634987475183
  1.8604632265961913 40.1825055403456375 16.0531200020889742
 45.2447893468336275 39.3195880994156184 15.5952217070078625
 -0.8287649995646871 38.2527348922083306 15.9944464554782577
 47.9539016386476291 41.2386853116590117 15.5456071673052136
 -3.5207550067331512 36.3254016415836816 15.9127598664458443
 -6.2181603950054569 34.4011409938639048 15.8269927622152409
 -18.6866615133827487 43.1578607212034626 15.5342396336585153
 -8.9221444315073235 32.4792475550237683 15.7559252770839979
 -15.9779375192905899 45.0788156188321452 15.5621368208573312
 -11.6309991166590194 30.5588054120030996 15.7128332274025180
 -13.2743488066592974 47.0029877019336482 15.6223231440861348
 22.6455128079665151  5.4718241966661560 15.3742398097197199
  8.2885367557773737 62.4753780415471596 15.7394738149627109
 19.9472015381045793  3.5380075992651765 15.1900519276941743
 31.4287737848256548 33.0016800690769188 15.8613002941563614
  2.1978017004195203 36.8887420623966520 15.9798389668539365
 -0.4923017199432972 34.9608070878715935 15.9045579921688098
 34.1183542816766163 34.9255184171249766 15.8013145476143624
 -3.1867273282409792 33.0354497726634548 15.8136164747617105
 36.8105748617187771 36.8487242131394268 15.7125694901106687
 -5.8874801369757703 31.1126032725277284 15.7264165518346033
 -8.5945995747019772 29.1916171184122106 15.6600642322045260
 39.5073026155606328 38.7701701038079420 15.6090695134620780
 -11.3051550872651418 27.2715541292611583 15.6261515450008197
 42.2100525399720823 40.6897487477297233 15.5109859894377635
 55.3348909263408970 25.3511725042257048 15.6302551628177966
 52.6261707220569406 23.4291539719882351 15.6702164655987009
 44.9180102000488901 42.6082892910300757 15.4361692898750853
 49.9226131539702607 21.5045912028779576 15.7361585251615459
  4.8857291392500724 38.8183760875441450 16.0241297413790456
 28.7405000138102196 31.0781618021981139 15.8858441853225756
  7.5731646851768462 40.7486924718557049 16.0296842679895306
 10.2605162052658194 42.6787968261849002 15.9935306292289017
 10.9874553829395190 64.4129734838885497 15.6396533522622878
 17.2468171289370318  1.6050533200252353 15.0032420262125807
 31.8074555500768881 58.0512938995644845 14.5846241848929719
 12.6100404228752314 19.5568910826096882 15.2703447221190469
 29.0991558452718380 56.1330063731948599 14.7855819992861086
 15.3009871405981048 21.4744508372258593 15.4515759695055497
 26.3989017721033470 54.2160609369625490 15.0102528942802191
 -0.4375141577575808 63.2725683255670148 15.7534151448679527
 23.7044885226081874 52.2984161270999408 15.2384665697315782
 21.0134070337949339 50.3791916764223515 15.4526497479102911
 20.6779995908963414 25.3126485451089849 15.7323837640422166
 18.3243896964719077 48.4576542686777145 15.6410657160689670
 15.6357648225489090 46.5337681371724372 15.7968701967720904
 23.3657855248742159 27.2335249044000314 15.8213259687697967
 12.9481487961484323 44.6072254616436652 15.9153950491833456
 26.0530205333033607 29.1552680649110130 15.8728158738154850
 17.9899945619973067 23.3928863420033970 15.6076218239322788
 66.3236056028427612  1.3930797479886730 14.3358595303233063
