Mo S  Se W 
 1.0000000000000000
    72.0026320397145696    0.0000000000000000    0.0000000000000000
   -36.0013131531378221   62.3561095205471645    0.0000000000000000
     0.0000000000000000    0.0000000000000000   24.4856654507443388
 Mo  S   Se  W  
 511 1022 942 471
Cartesian
 -20.0902274685679991 54.4871261981221622  8.5784279882749956
  0.3050511277455305 33.5116980945351202  9.5382956164634383
 30.0388364366163536 26.0862180673177129  9.6004645100258212
  0.5752735852080310 36.6969910656501810  9.6176153893200578
 29.7667491775285775 22.8994329774068355  9.6455891357780672
 29.4957958875352553 19.7140865780504839  9.6459602460284710
  0.8447221069594800 39.8811990504390295  9.6544051537542313
 29.2227555075797660 16.5311414197893285  9.6041376774888381
  1.1147371347237871 43.0633668621059016  9.6489513102253284
 28.9471943849628985 13.3515120357719468  9.5261151456011568
 28.6675625977798596 10.1757258886317707  9.4224111542286551
  1.3884835945424354 46.2434542979518497  9.6048995993365498
 28.3830851787380531  7.0041764204568020  9.3116690784505458
  1.6667286966596333 49.4198219624098627  9.5286199161718024
 28.0935825998493591  3.8351711924284912  9.2182416951230355
 27.8006105542127884  0.6677286984171296  9.1627662220985329
 30.3116333288468027 29.2737085226337292  9.5123292862654054
 30.5862369150956539 32.4619509542775972  9.3852907557758591
  0.0330483545028918 30.3267715479317097  9.4187252369922323
 30.8627882104016820 35.6492827552461193  9.2217216419601602
 -1.9364637674962928  8.1355504482447802  7.7987719395476844
 30.7039774710879456  2.0209145943044842  9.2613334722484684
 -1.6449022719208928 11.2953740324896490  8.0401856959528661
 33.1731757360036141 61.0068096681960625  7.4892223866163574
 32.8749246788518690 57.8428475104636988  7.5756688732522539
 -1.3574051463072947 14.4563543309543263  8.3073452517860815
 32.5788351020558480 54.6805315420599882  7.7500885618497746
  1.9513895242257835 52.5926069299281664  9.4345470451762310
 -1.0735031422843508 17.6204651326369550  8.5779864191874662
 31.9938999449100869 48.3546221389395470  8.2535194934718508
 -0.7934541298541914 20.7903181144932390  8.8344560101639757
 31.7066634708734973 45.1869181886604423  8.5289230710504764
 -0.5161122956995955 23.9651176390898790  9.0643126893614170
 31.4225920969453156 42.0131886196798092  8.7895325953343040
 31.1417008451164286 38.8336574427934451  9.0222244223608943
 -0.2404865630184765 27.1441638991739005  9.2604779689735039
 32.2847777858681724 51.5183636825880527  7.9855408173797180
 30.2863158368780887 59.6828143679299359  7.6172724781235042
  2.2413982699871311 55.7624787851190007  9.3456284673381553
 29.9897549934876153 56.5189293376612909  7.7429492852283790
 26.3298211711456993 15.1719045520721725  9.4857368652257268
  1.8069585661846308 18.9541868069815109  8.6924224509699872
 26.0523234847785510 11.9935653759839589  9.3878074745825124
  2.0870070169797992 22.1298681488481463  8.9333840708473140
 25.7697782108720830  8.8198231992752980  9.2717250025319462
 25.4836674595352335  5.6499393682579049  9.1592293134647402
  2.3649196956451091 25.3104230494364266  9.1429724197652291
 26.6054347120694601 18.3543891748440480  9.5513036601100065
 25.1922104577839399  2.4828168116218485  9.0747051616864205
 27.6984133568590778 61.5207545719681903  7.7477392427010336
 27.4021886871848643 58.3566788185228518  7.8214067711265507
  2.9168379065847505 31.6819882587129769  9.4554870021574793
 27.1072758381633854 55.1923688979594829  7.9709837469489546
  3.1907832716607225 34.8694526853078628  9.5556348713732167
 26.8144374390871683 52.0266875829776083  8.1717044404398944
 26.5237688619049372 48.8582924547427737  8.3975902652995824
  2.6417375029246015 28.4949464724096444  9.3175544893290478
 30.9960888899378517  5.1890555101615883  9.3303761958262044
  1.5244748873845857 15.7838262113826922  8.4277606946924966
  1.2379216207774297 12.6194380446156362  8.1544322398250308
 29.6950763548784487 53.3554187438890608  7.9394685679748012
  2.5344978911571405 58.9311024802233590  9.2861576383245055
 29.4030587926240230 50.1899506549924368  8.1782372638920950
  2.8299505699983221 62.0992868321147142  9.2719779692170103
 29.1140546658158570 47.0217566827678155  8.4343089883228402
 28.8279563276243600 43.8478554112312082  8.6840923699553709
  0.0614126990678416 -0.0272630083316240  7.4575171887699767
 26.8796925754470415 21.5398010486416780  9.5776661261177924
 28.5439452594795426 40.6680934938081506  8.9107908393895094
 28.2630660200554189 37.4829737986368983  9.1080426706040658
 27.9834374961288503 34.2949948813476340  9.2730141426584396
  0.6557182190470284  6.2971918831873310  7.6721393210569051
 27.7053992189873313 31.1057131489057035  9.4045924978896984
  0.9481989222104122  9.4579774000598196  7.8937818918429903
 27.4289817889177918 27.9160930792329864  9.5017312486345329
 27.1539301332291387 24.7269501636241813  9.5608498607474637
  0.3594140621619044  3.1357569626740478  7.5192655485426769
 31.2833841217572513  8.3593417184033321  9.4300649194706168
 -2.2321410448574812  4.9759475102270532  7.6099815748556638
 31.5661256022656609 11.5327561996244690  9.5359169840050697
 38.3542764300228285 57.3264352990655084  7.5994934891393759
 -4.3991326970061975 43.5299571707768749  9.6168445810804890
 38.0566525391037374 54.1674260918993511  7.7709858817426696
 -4.1275934903380200 46.7097713405364487  9.5762292396857660
 37.7623133533310096 51.0091458679064544  8.0035438346915324
 37.4724434014088459 47.8499169064405478  8.2708569031164725
 -3.8499421530271594 49.8850503121176985  9.5070550794959843
 36.2203296591861417  1.5585540243594436  9.3101582976479698
 37.1862569926926128 44.6883420640552202  8.5497874021600051
 36.9047388873108773 41.5213956800632928  8.8196202417928333
 36.6269663729871269 38.3487410779363529  9.0642011387589818
 -3.2757987476076789 56.2262187644279052  9.3419925403798505
 36.3524320736892719 35.1706127135016970  9.2735116466022252
 -2.9823142203153705 59.3942398053671425  9.2920677037324850
 36.0810505972656728 31.9888342768570766  9.4433799782331445
 35.8117119302209730 28.8044348660477283  9.5737441612458909
 -3.5658037181037203 53.0568251968219045  9.4218910260121351
 -4.5298849020647998  9.9724756518728128  7.9926707740916543
 -4.6672759227405010 40.3490692337408348  9.6238799052088950
 -4.9337862954893650 37.1685555611256433  9.5940833097423859
 39.2385706635773275 36.5161366606757625  9.1867542985288608
 -6.5606239047858512 18.1301792618252264  8.6825879860958661
 38.9678547954339152 33.3395967762327814  9.3686476902533720
 -6.2847863997242728 21.2963664523268257  8.9024308123746749
 38.6992388630224866 30.1593914002358723  9.5127413564666874
 38.4323386806246674 26.9771561067979526  9.6187299805131712
 -6.0113521662732108 24.4647884846229289  9.1031309726441343
 36.5132664257185553  4.7269827367363950  9.3695284643582397
 38.1656322778350159 23.7938980662410344  9.6839630560025896
 37.8994544455962910 20.6099260591259750  9.7076434153909172
 37.6314872626489034 17.4267807264948615  9.6920532515658273
 -5.4692546965637909 30.8117113498552868  9.4184192480370967
 37.3603838744361028 14.2464790088182145  9.6408555635543856
 -5.2010600192032124 33.9894253273565070  9.5250573443319482
 37.0842280638905279 11.0698863981056146  9.5595671633082251
 36.8015252604685301  7.8968315442059085  9.4610856099502243
 -5.7394638916722469 27.6367797810442042  9.2768669507683210
  3.4631515683273721 38.0553382392687780  9.6141977721561318
 35.5434191174122844 25.6192084612461173  9.6637704764845580
 35.2759686676406119 22.4343992886071923  9.7110171423114195
 34.3029291084418517 43.3536675672661502  8.6646844776074818
 -1.7769614514985554 41.7053731653518085  9.6558949976808073
 34.0219863962409192 40.1803413794095903  8.9239631638740651
 -1.5061759397509431 44.8868284120031191  9.6321634819122437
 33.7440707782120768 37.0013396196770827  9.1513707917076061
 33.4683930811560160 33.8182191046978886  9.3413569242110963
 -1.2310310961159159 48.0645417604431415  9.5743279962505081
 34.5877520206257429 46.5212187708178533  8.3846207934816963
 33.1956613469862631 30.6321267093368732  9.4923901648584188
 32.6549187092434678 24.2594714277204453  9.6737983667364524
 -0.6627719847057442 54.4097959428104687  9.4011286908114293
 32.3856908880671810 21.0746055885881916  9.6992263634265257
 -0.3705671933751198 57.5784731565479717  9.3287757615908564
 32.1156586416716934 17.8906520336875303  9.6814744083387900
 31.8427327504549851 14.7095680958895407  9.6247117406448819
 -0.0762116429552025 60.7464718626065405  9.2956846488807585
 32.9249555080985630 27.4455214497359954  9.6040728630282004
 -4.2408243913071892 13.1314708053388571  8.2352951488660988
 -2.0446211718060576 38.5226423575636403  9.6416821829314934
 -2.3126112196275082 35.3397621804028077  9.5867964633065732
 35.0080644677935311 19.2506522306620482  9.7155948149301903
 -3.9568219902657726 16.2929677815428882  8.4914781073592280
 34.7375225581797906 16.0684030566427012  9.6805632124451328
 -3.6760790561944101 19.4580856110369744  8.7438426286188502
 34.4637905669798883 12.8895032037749200  9.6102719671989458
 34.1842922198039076  9.7144183360415965  9.5139777740447311
 -3.3993951037598307 22.6268280035699547  8.9782791671256330
 34.8773692795387120 49.6833692271881660  8.1027200757485076
 33.8989132273577241  6.5430150673647152  9.4115466469104998
 33.6083841635083189  3.3738165774335327  9.3295260991053155
 33.3146076154435633  0.2055923416583383  9.2873588921537227
 -2.8521423992820227 28.9775628372464666  9.3567136467119045
 35.7638006439425808 59.1657805017767657  7.4955061682428816
 -2.5815384324394723 32.1579182912797634  9.4911273888833474
 35.4648482667722078 56.0038819502077700  7.6300830787489140
 35.1693299596715860 52.8433531237736744  7.8422545796245906
 -3.1247898982649360 25.8001271168619759  9.1847167442207613
 26.2361307408283402 45.6844070236392881  8.6258561010247270
  3.7344573215824179 41.2392723753202759  9.6284307869803261
 25.9499334943984685 42.5043648352656973  8.8371795102273083
  9.5140410454676143 43.9546678499080841  9.4541106248713778
 17.0372523542812608 35.2651970116548696  9.2800716788160145
  9.7935282240472699 47.1354375288752934  9.3765066715956866
 16.7546303078210492 32.0722302493785918  9.2975319656067530
 16.4723702433211550 28.8785306672299704  9.2869391141301261
 10.0766057644957758 50.3113478265021854  9.2717538566664217
 16.1904116998265408 25.6855726232028587  9.2472945520825220
 17.3205555070239363 38.4563638339553080  9.2332731971502753
 10.3639027494880036 53.4838373720814815  9.1593624371671254
 15.6286457712838214 19.3051132892343382  9.0779433131693370
 10.6548521370121456 56.6534250082820492  9.0618270763364901
 15.3464643176806046 16.1201994473905756  8.9499725107071377
 10.9490812627989342 59.8211782660304010  9.0007116311824955
 15.0624971721791638 12.9419454931371831  8.7970904586945409
 14.7765508457456107  9.7698660953121603  8.6308463180369213
  8.4268897209602365  0.7811520461722282  7.8241315917875562
 15.9093579406285759 22.4940656545229203  9.1774523590682850
 14.4884739057171359  6.6033334926633440  8.4711093589884729
 17.6030618043280178 41.6458722237571664  9.1555321696957375
 17.8858263969198035 44.8326399311222303  9.0475653316232361
  7.2804929215312164 18.4550553098390679  8.7335477810232529
 17.6615186605094223 11.1110255922128918  8.8938511430903979
  7.5627416398428622 21.6369921751412981  8.9374692187042122
 17.3752570433217670  7.9412214352885222  8.7454018787743664
 17.0857941889866431  4.7763255443727903  8.6127967493793278
  7.8428597631406447 24.8235837037063050  9.1121294349573105
 16.7927167899434409  1.6142835714352877  8.5198397994963155
  9.2364315175506064 40.7706530439745265  9.4938124044450181
  8.1227536612039621 28.0130209800519978  9.2560846285918235
 19.0450403562381112 57.5238577144966996  8.4944168885738094
  8.4025655286799470 31.2032621254377567  9.3682532786039499
 18.7512134007047315 54.3584329293235555  8.6156580563297673
  8.6811911002177347 34.3939437207564112  9.4478782676948647
 18.4601785858083645 51.1884995358624835  8.7626474422946856
 18.1718514861618452 48.0135383836580374  8.9128851542668350
  8.9588641548316073 37.5834774087734971  9.4912750225668425
 19.3401718305626673 60.6880691994699646  8.4214664987529755
 17.9450166449397734 14.2866607842071183  9.0356476448220011
  8.7211078946080605  3.9432439531661116  7.9175905192800125
 13.9029255508828715  0.2796218442650121  8.2664448730521709
 11.2810926004734604 32.5577550495440420  9.3605558018935859
 13.0333182766079805 21.1441971307573624  9.0401028364290799
 11.5614634846688489 35.7494917659653666  9.4021223272667083
 12.7514578102793958 17.9579596663637950  8.8957538194316470
 12.4672842932339361 14.7774698225322769  8.7261709067064643
 11.8419294511976130 38.9390886511304970  9.4091123768309171
 12.1818855708058997 11.6036216730711370  8.5393066886211351
 13.3143864624652455 24.3337542332498060  9.1567752928688328
 12.1218041260073495 42.1262746305242146  9.3778407978356668
 11.6042919348759632  5.2714983157941075  8.1874372621477853
 12.4026303403184013 45.3104442486627903  9.3083879261326619
 11.3110469385742682  2.1096786132876293  8.0710290504951239
 12.6847651071309642 48.4901804948714172  9.2062263131353266
 13.8487274347884082 61.1692193362138354  8.8273356728840238
 13.5532467791231390 58.0034211927921035  8.8750104181458926
 12.9706457441906604 51.6650378305664617  9.0855885510685876
 11.8942190346028003  8.4353720082958734  8.3522195883571797
 14.1966974001203692  3.4409103968397123  8.3420189511985967
 13.5956285015806113 27.5257999570294878  9.2442946203794065
 13.8774286594877818 30.7188316871144274  9.3020620222386636
  9.0133186378375960  7.1058641284698938  8.0770872533895943
 16.4490864948179869 59.3484323602926125  8.6596678877450284
  9.3021957099922616 10.2711814044974687  8.2769343885827453
 16.1542135537469491 56.1828976304618024  8.7444232466002809
 15.8624393121657885 53.0146076758503995  8.8654040442964845
  9.5893494296147992 13.4406750991144364  8.4924007064344398
 15.5738869889206857 49.8420639172394502  8.9999291914663555
 11.0002466966482224 29.3652433071916654  9.2880453473652587
  9.8740367061885728 16.6159762769500077  8.7019232662529067
 15.0054378524048957 43.4802326008446727  9.2277519985267755
 10.1574591819402240 19.7975166960808835  8.8904239605206410
 14.7236548288182405 40.2930980492750592  9.2961763667116202
 10.4386141001153661 22.9842398958109406  9.0522241191505568
 14.4414131625338715 37.1033217637489443  9.3299273983760767
 14.1594664367850598 33.9116888659788032  9.3308903850931237
 10.7195268886385335 26.1737775626822895  9.1852410336399561
 15.2880479321011844 46.6642691235202420  9.1263676067940960
 39.5130646856250749 39.6877986438712043  8.9701051938030822
 18.2264820018079519 17.4692359830911670  9.1537788175934001
 18.5064912173968139 20.6569221409356238  9.2413701597850828
 22.2914691158398455  1.1346078981891858  8.9019715525342491
  3.5402253510245183  7.6191057335364905  7.8193164234312231
 24.8149227716083338 60.1914453392007260  7.9726875648713689
  3.8307865261116034 10.7815806405231847  8.0560574455565561
 24.5201216856780988 57.0272050893931350  8.0728153348666343
 24.2262964882522240 53.8627076633352218  8.2317938875692054
  4.1188752234064969 13.9468329520583314  8.3160940755938473
 22.5846680619439084  4.2990808737222093  8.9744097812549217
 23.9342416616662277 50.6944833357878153  8.4233226433225283
 23.6452467752093618 47.5215298631801630  8.6242150490967582
 23.3580101664472188 44.3423367080580704  8.8145617762596817
  4.6854734674547851 20.2934074781984322  8.8159908450271232
 23.0736056615666527 41.1577568490611014  8.9822390906502054
  4.9656168397519176 23.4750296342102267  9.0275795378177044
 22.7908628322749074 37.9694336584882706  9.1229892987696246
 22.5088756242792272 34.7787618258903350  9.2350480445779581
  4.4031938030313524 17.1173580201558835  8.5757274062894062
  5.2445422739111365 26.6607710685590611  9.2072317285310188
  3.2469161596644538  4.4573623467851844  7.6332985848850967
  2.9509335490306752  1.2948183722144733  7.5262710056741327
 25.6672266237161502 39.3192688084281201  9.0227160672000704
  4.0072676163218395 44.4213145507492371  9.5999180295588360
 25.3857349390013702 36.1313841175640178  9.1791890754349321
  4.2843160368926565 47.6001639726384553  9.5339134952079068
 25.1051109933938683 32.9412285462575909  9.3048343109563252
 24.8258462119902426 29.7496101780933522  9.3990379843282845
  4.5660060728322129 50.7746900253807638  9.4413661718887187
 22.8737521864813402  7.4661059798168781  9.0845063211835502
 24.5477500714253019 26.5583999555290085  9.4607470911884555
 24.2696504915417499 23.3689172047538918  9.4862039286052688
 23.9931925812998799 20.1810749722619249  9.4718664430952444
  5.1452343243988627 57.1156633923503279  9.2598634019486497
 23.7159869426059053 16.9955286367722138  9.4175788046245081
  5.4390794137661507 60.2838158723591278  9.2160604033007445
 23.4385150746982838 13.8139910013474925  9.3271489062066184
 23.1580535514638974 10.6376684652826441  9.2100042818905816
  4.8535767808778507 53.9464714588427157  9.3419999811964729
  6.9969645984705258 15.2791883833797026  8.5045642748633306
 22.2275713424632926 31.5865090161872892  9.3172006836827510
 21.9469250704263494 28.3940948038205256  9.3700293577409113
 21.0536007673554835 49.3568785461678559  8.6751911992448498
  8.0478562445215918 58.4691431587312920  9.1450559762687131
 20.7658486824948483 46.1795144478526112  8.8439834632846122
  8.3427727431247245 61.6367204695389717  9.1170208572308038
 20.4803664951723654 42.9963719522536323  8.9929092016096099
 20.1975240246862384 39.8083479620309717  9.1155560991047011
  5.8373091483535582  2.6181052324133498  7.6872952648983475
 21.3441332458816895 52.5286635288913075  8.5021051215270784
 19.9146257915789420 36.6176351486267819  9.2097936566610930
 19.6319909301868449 33.4257501126523024  9.2748194940826725
 19.3495874775411849 30.2325005968413407  9.3112506338753658
  6.4223636978909067  8.9430430615528405  8.0294197512268521
 19.0680905195573835 27.0391298391381412  9.3192901515926838
 -20.3769742203087283 51.3255591357673424  8.6836932092401362
 18.7867624186579576 23.8471977657536058  9.2966101903108918
  6.7111562942781555 12.1090338260532437  8.2627186729634445
  6.1313017965370626  5.7802179864525840  7.8284149452866574
  5.5224132604876441 29.8493642004058799  9.3536496565255600
  7.7551212583734683 55.3003614083444432  9.2175982128601675
  7.4657110451889297 52.1295466455196177  9.3173760037499189
 21.6663760877575626 25.2022648739545794  9.3917909473942132
  5.7999681095519362 33.0382913756958132  9.4656955543128412
 21.3869294633810938 22.0119329411070694  9.3791902605824049
  6.0754905199366398 36.2265520301316712  9.5404897710710195
 21.1083741753421883 18.8239229137381585  9.3298524864127490
 20.8290962538789906 15.6387817324518217  9.2447652291388618
  6.3501789230521135 39.4132587714846210  9.5731724774431566
 21.6369154350267472 55.6956263347877538  8.3455622518735950
 20.5490310045839628 12.4592703671502694  9.1284651630570366
 20.2657044115907503  9.2859831869406246  8.9943733505923795
 19.9785490269866344  6.1181381046562979  8.8633824866148121
  6.9007977090186339 45.7787951220195382  9.5083722701261397
 19.6868460881160132  2.9536624589085281  8.7599814378899197
  7.1806300082977073 48.9561573732953761  9.4217133890847258
 22.2266545240305611 62.0230970369234811  8.1760850863108754
 21.9317562402040842 58.8594711894757978  8.2297922111445150
  6.6240970224995657 42.5975624006002320  9.5614963555432944
 -6.8409504578127418 14.9677847344884487  8.4531565676888789
 -0.9500346101955678 51.2386276451421594  9.4912145253004390
 39.7901021245221997 42.8548406574798264  8.7255493819373786
 50.2590801359871904 35.5041004694587841  9.2233189627727850
 -13.8714556255184629 29.9839940519691552  9.2971797564426382
 49.9921524438575133 32.3362016988500329  9.2957642137024372
 -13.6043172505270995 33.1534097996613042  9.3472454512263514
 49.7253411101011267 29.1666364076501345  9.3498473708605090
 49.4591331084982357 25.9965332883204034  9.3833178233373609
 50.1460604447081266  1.9786611380217778  8.8321583479206076
 -13.3374419862459330 36.3230894525260339  9.3758650503306029
 -13.0702854939828779 39.4930353587027767  9.3803999287839925
 48.9276783641927580 19.6534062464195145  9.3772508040071081
 48.6607916212671014 16.4799024778479826  9.3377804919760603
 -12.8038359983530103 42.6645480357970257  9.3602707177536697
 48.3911556338126161 13.3070597492776930  9.2755618572229057
 -12.5341970802174263 45.8366148095610839  9.3181769778230130
 49.1929056656157400 22.8256679941071212  9.3928901842528614
 -14.1391064597779490 26.8157260454030997  9.2282529755158080
 50.4395855396136668  5.1444120630458094  8.8865080189613224
 -14.0061916623420046 60.3269068907648744  8.8791210378567111
 -15.6937987076938761 41.3291856385708627  9.2577533256893254
 52.7459666626380326  0.1567235521671708  8.6273020155116580
 -15.4250488955411313 44.4979213711160924  9.2067060164987726
 52.6164516591267315 30.4959572673193229  9.3025014501573455
 52.3496254234363505 27.3272886574832228  9.3101670324716324
 -15.1528098416722585 47.6664535703965129  9.1398991840880868
 52.0823014500948247 24.1584874266565457  9.2995907499532819
 -14.8759069972600937 50.8335770541610188  9.0599394748243665
 51.8164363154449887 20.9897026964578792  9.2691586818595422
 51.5495334933194940 17.8196234922355110  9.2197436037636571
 -14.5917732799609858 53.9992957552197339  8.9759746260126398
 51.2805348617177046 14.6494801733835178  9.1523568426038171
 -14.3010233479076483 57.1632516937728781  8.9076945135237260
 51.0075188584210082 11.4798682157253591  9.0679679106275834
 50.7270871435495181  8.3112417295492467  8.9736162473605248
 48.1156005531819844 10.1351655384958939  9.1933199981266522
 53.0406192432538077  3.3214486340053910  8.6516443087316368
 47.8324507127133174  6.9654374344720109  9.1023216468201156
 47.5418845216546586  3.7976661950394308  9.0261569845120988
 45.2195117479420219  8.7853083595816290  9.2907232556660606
 -10.7133090657808108 34.4848739157836022  9.4266364379777379
 44.9334764454042528  5.6156867295766224  9.2020797812322339
 44.6402161544046052  2.4480185136444117  9.1379536103445442
 -10.4465516321146001 37.6573385509658323  9.4681066590048335
 45.5662015656533512 45.5097899315324455  8.6570124307419878
 -10.9803857184938369 31.3138123794970227  9.3571227124607788
 -10.1806685112228426 40.8316674443586720  9.4785722119254654
 45.0162452166279152 39.1823271595150686  9.0287992309376079
 -9.9130593536752158 44.0064925357946208  9.4600243457057900
 44.7458488904101870 36.0145063353251516  9.1934075715184633
 -9.6423886670763697 47.1813648224598978  9.4151096240792409
 44.4780111341774784 32.8443925004401152  9.3353824706191464
 44.2103562026337187 29.6715794557522941  9.4495616005667316
 45.2890584482518577 42.3472651714687203  8.8475664938641181
 45.4988652881962352 11.9581014636628833  9.3772035682582917
 45.7705340989985316 15.1333996017899786  9.4445417616383249
 -11.2489191696435391 28.1438125265320558  9.2631163768939579
 -11.9808084287655419 52.1762904559623806  9.1775931084763709
 47.2468566022005021  0.6312065923579468  8.9886324568753917
 47.9059585235069534 40.5096004531283711  9.0045996616226791
 -11.6934891290143170 55.3434722391737424  9.0990773965195313
 47.6365524597327621 37.3434168817104535  9.1401555994223251
 -11.4003578346675383 58.5087439817606452  9.0443901810402529
 47.3678272492240637 34.1757654971633045  9.2595151680229471
 47.1013624544919480 31.0057025453877202  9.3586385929939908
 -11.1044958798516458 61.6735147222268267  9.0346017019487288
 46.8346921383240584 27.8346138406726737  9.4339461721296356
 -11.7875208499106012 21.8089456674374418  9.0142703187808806
 46.5688060707590523 24.6612831587391028  9.4817206008510198
 46.3037335945152222 21.4864546839747916  9.4988438132933481
 -11.5175180535021529 24.9751479807236301  9.1476997338762391
 46.0384488087047714 18.3098632878229814  9.4857700513131817
 -12.2609556278378200 49.0074567216980483  9.2555601231546074
 -9.3660334197114299 50.3541506433433668  9.3472309611052147
 -33.3486422354284713 60.4881308534486024  7.5141630204277936
 -15.9612242946699538 38.1611557325526434  9.2914571190347637
 61.9911198692723033 10.4836291111505222  8.2849971452401761
 61.7010961040595589  7.3231868677595404  8.1195729328461663
 -22.9795770787544669 53.1550469410195916  8.4170332613113192
 -18.5843514221492576 39.9984917991722355  9.1761110783036166
 61.4081311155553635  4.1617541965804712  8.0000472499316562
 -23.2659543758091267 49.9954954361097563  8.5540277265161251
 -22.6884492223649268 56.3146029578042899  8.3109508419433684
 61.1123888973462783  0.9991086343693486  7.9477542941430466
 59.9438414169686098 18.6434969640362525  8.8676384048776242
 -23.5472389054747708 46.8357685448363696  8.7051474354424681
 59.6695711302944787 15.4797209175547401  8.7123061760836329
 -23.8235717896927213 43.6737221687532582  8.8578386435070566
 59.3905856268404975 12.3172094702547366  8.5535620721835297
 -18.0433652332018148 46.3311979611086784  9.0199060911788163
 -18.3152945846512409 43.1651020798427822  9.1036767449717022
 -18.8522574644659571 36.8321695147687294  9.2347911186860880
 62.2764311480278892 13.6433763113257420  8.4742067487100634
 -22.3939541060636387 59.4749495835473780  8.2561111987877247
 69.4728097382439955  1.8141614553253969  7.5015761044252294
 67.1792101244578959  6.8135808633328168  7.7854868410594102
 -20.6575566779210220 48.1639235292765804  8.8011304634039522
 -19.7981529913915750 57.6480094903026057  8.5042980969377275
 66.8823298513524946  3.6536545475566831  7.6410480369902665
 -20.9335818380865248 45.0007830124665276  8.9191795570089223
 66.5847121855093320  0.4908984108804868  7.5820066717168899
 -19.5034171138857566 60.8088819511050005  8.4819446671705396
 64.8767163042560782 11.8080827885673791  8.2265244374905748
 -21.2055668192094160 41.8359452128642317  9.0313806301460833
 64.5866754421370786  8.6491245113162236  8.0202998720717122
 -21.4757003004771718 38.6711309099648517  9.1339204765777637
 64.2924148096834216  5.4898607808031814  7.8565372413948324
 -19.1199218520262555 33.6647426983650817  9.2772693783518125
 63.9961574763773058  2.3280270799988276  7.7603028156751543
 59.1062485750296389  9.1554097555396261  8.4019215439947672
 53.3322533383178268  6.4859811942244807  8.7249801278732768
 -24.9855225255669176 61.3041770517132747  8.0220842045434217
 -17.7675956543833173 49.4962487370136941  8.9272810722997757
 -28.4636766950452440 53.6584813750279395  8.0239103233666018
 55.2402825052984952 28.6558061226805947  9.2799512368549859
 54.9729967083034410 25.4874489238801800  9.2406125470663607
 -28.7561663467329964 50.5014127617003084  8.2154253053350530
 -16.4953326197612178 31.8246110875282682  9.3018587017843757
 54.7052432936871256 22.3205291395490839  9.1845469808135149
 -16.6088227687254246 62.1470908695742921  8.7025802312146396
 -30.4603487514584010 61.8117576653635012  7.6289759834409976
 -16.2285421874726232 34.9928890768119985  9.3061434617882348
 54.1686531897930266 15.9856104251673070  9.0283097918192095
 -30.7582392024422440 58.6499748448736966  7.6627624552516727
 53.8957926383850818 12.8186717367049372  8.9309727432771506
 -31.0571847199104880 55.4913075555355491  7.7846031134988074
 53.6173304111606086  9.6516707474195975  8.8256966965325994
 54.4373802005611438 19.1532034253654864  9.1131691255958192
 55.6366723014598321  1.4957033613637813  8.4092701166242101
 -28.1684526441897241 56.8159795033760346  7.8819545275007696
 55.9305648375362594  4.6591839969493236  8.4586935385051714
 -25.2814875542828155 58.1439344655456765  8.0476282551429481
 58.5231206413028531  2.8304917229701920  8.1923919253124300
 57.5950025503579610 23.6483856201283729  9.1414421520272668
 -25.5761284428232720 54.9853361762732931  8.1424815860605761
 -17.4859827665787009 52.6601277584676026  8.8321313775580901
 57.3264322513407905 20.4822941932893094  9.0400179423640719
 -25.8674824156304553 51.8267425283188317  8.2887274001977218
 57.0555656670285956 17.3166675569000432  8.9269714787717778
 -17.1977523102029259 55.8228864612468385  8.7486455262845197
 56.7831614052782285 14.1512203381567012  8.8049049217397979
 -26.1547925349059724 48.6689519011708782  8.4661413596006039
 56.5047704592141571 10.9872368999571073  8.6780876857352958
 -27.8712316479374849 59.9761182177122123  7.8114246308290163
 56.2203107616591353  7.8229657722428527  8.5563418429143105
 -16.9042895462374929 58.9848417227197430  8.6996758475863167
 58.8170522048378785  5.9933629600563085  8.2738810764273971
 43.9446928202831515 26.4959334996604561  9.5328217536499817
 13.2601449853909497 54.8360125179182134  8.9676982680794364
 42.1273823331838599 37.8521057781706887  9.0968768257902184
 -9.1708541935815830 19.9690326899617823  8.8602846104254507
 39.9826695561953969 12.4251995734909215  9.5620100664807399
 42.3199101098383821  7.4329317054396133  9.3533002841025983
 -6.7480679214301418 48.5319900656745062  9.4807567718294425
 -9.4467518707774794 16.8050418856167951  8.6696656039980056
 39.7032253473963550  9.2509529295022670  9.4734568153924492
 40.2550646390992384 15.6035130781610647  9.6274554951346225
 42.6026500364723901 10.6049402063032598  9.4449794206307303
 39.4172865890134432  6.0801711528704141  9.3790876434967512
 42.8781111509338331 13.7806936336554351  9.5221610656560021
 39.1257077834005500  2.9112153082689596  9.3052952723065125
 -6.1796826731458605 54.8749368088620244  9.3220686029000479
 -8.4971067550151851 59.8578441010129509  9.1548402809996041
 40.6501612592426511 52.3336056269444967  7.9751545661652639
 -6.4672944830047570 51.7049941217187694  9.4039594545343803
 42.0304816180689684  4.2640135649409343  9.2700154676895412
 -7.0211992813896300 45.3553233962303182  9.5362129413687384
 40.5237506204056999 18.7850480777488364  9.6617851629058880
 41.8562445841512982 34.6810782042714720  9.2782451133858448
 -8.3587849188734804 29.4745886655952702  9.3342629431532735
 41.5878942173647559 31.5063193700538520  9.4280216154264078
 -7.8231597699034445 35.8227524939572106  9.5171625938417144
 42.4001524440727593 41.0197427890642459  8.8896179936572555
 41.3211379924759683 28.3287553194110657  9.5434340730091201
 42.6774896070074163 44.1833933246794359  8.6650429900256505
 -7.5568686397276261 38.9993358241213599  9.5576798590162895
 41.0553084511769057 25.1488547944914025  9.6219004472457232
 -8.6282385438484397 26.3040370510755288  9.1986184095280681
 42.9594523307279204 47.3435452141191249  8.4352773425437864
 40.7898193538870117 21.9674115073562000  9.6610040490161992
 -7.2906322611822407 42.1769228612181166  9.5630351286455753
 -8.8991674934888216 23.1353831180138023  9.0387117891402351
 41.7365196958071678  1.0960137585774612  9.2200956021367890
 43.1475614966477536 16.9593447712088548  9.5736507578322687
 -5.8874714331900524 58.0421929715943818  9.2588858674206040
 -8.0899843948535928 32.6476637021144143  9.4415911496542471
 40.3587271505344205 49.1762901598139806  8.2095186936782056
 40.0720940468563356 46.0172004288862695  8.4662003599933051
 -5.5924433218479139 61.2092462776176163  9.2362766445253879
 43.6792674118335356 23.3183306759008779  9.5814692515485334
 43.4146423016531955 20.1391870963305557  9.5943871853805067
 -9.0817691761182893 53.5242572376180590  9.2667765040516930
 -8.7917420304274057 56.6915657366769068  9.1943293871558520
 -13.9195742854682276 41.1749507124044314 10.8921774777026457
  8.8849078704967930 15.2093023792887436  7.0052778590265241
  8.7596358302267685 15.0116593832265899 10.1236330729962489
 -14.9661825623094789 58.8032528393084206  7.2683192874671558
 -1.7379601096873154 52.9483041206914535 10.9981793891146626
  8.6144443113460500 12.0391285488478719  6.7826026962369586
 -13.7959353814172179 41.1433443055384487  7.7725830934954576
 -1.7179796041062598 52.8596804544572407  7.8777398689517577
  8.4567990185765165 11.8389470958520562  9.9005296087721817
 -5.6896585918490601 38.8492415619688458  8.0326865379152288
 -5.7492223140844327 38.8247597338176504 11.1526143329484686
 -14.8825466189140130 61.9885161311840776 10.3850907398504422
  8.3384109815007257  8.8632212152714462  6.5658056504870252
 -14.6714626477853969 61.9926587732255783  7.2673109871182842
  8.1543868719875778  8.6813716858058569  9.6838216871073932
 -1.4474787939548768 56.1099077907323789 10.9172484876686156
 14.3120837916623493 45.1964213895260940 10.7798115779147690
 -3.7838290603326161 61.0628664499687162 10.8318842726807532
 -2.1123631249575423 15.9869559874888107 10.0150298803987887
 -4.7041094043620832 17.8325177429484114 10.1960781041668938
  9.0619055054430788 18.1984218410449294 10.3329784358078030
 -15.1802214016613295 58.8494066730483425 10.3861933913982671
  7.8701877511398317 36.0923529164928425  7.9332892364949030
 -2.2766192751582079 46.5253213744146521  8.0350895137729328
  9.9455586080275236 27.9015433848290648  7.6814716111508954
  9.9563652504139739 27.7985057029522515 10.8025673174693502
 -5.4212592694669350 42.0114064535798803  8.0423087652860055
 -15.4719936196502559 55.7045436918059451 10.4351700428892507
  9.6811633734402243 24.7248649609357649  7.5549315356542222
 -18.0907474279724418 57.5200415109676442 10.2077800568621715
  8.0565366984466742  5.6789507497962566  6.3773816724419756
  9.6596124559431686 24.5948639455183660 10.6754348084595510
 14.0201699305042027 41.9954236530263714 10.8599787172777962
 -2.0231691338004385 49.7720564657225850 11.0848825436687193
  9.4173437903675143 21.5498634036138412  7.3987210736683950
 13.8851666453406253 41.9395128183254542  7.7410231541114838
  9.3622960608336179 21.3938696508062414 10.5182870444035448
 -5.4848111034634259 42.0234459447974089 11.1616581771244761
 -2.0005806707534752 49.6895254756970886  7.9645507937074660
  9.1518226022303519 18.3784710505092050  7.2143290559709676
 -15.2613327741949334 55.6202414080051994  7.3178226002469735
  8.1388626048290078 39.2612523997290879  7.9599085571875410
  7.8531817183375603  5.5393297603234748  9.4972008168732849
  8.2288919057926719 39.2522223981960963 11.0801034446515523
 14.6021208042393589 48.3896486402025729 10.6694621239652108
  9.3635962258668037 52.0268850843455795 10.8083184183247596
 -2.7323844816209433  9.9192715591885943  6.3804323157874734
 14.4307256735326561 48.2806984798640499  7.5522912912274816
 -18.3765856803591028 54.3739453852325667 10.2768765018270578
  8.9570765703665050 48.7576299788081045  7.7976797592685241
  9.0752869659511770 48.8493775326810180 10.9160703054221742
 -14.1734081616412304 37.9926541884767488 10.9091158912775850
 -6.2325907115231054 32.5309134553613575  7.9021491748404076
  8.6811334792497572 45.5914385028615996  7.8876170207076788
 -2.3903055648212104 12.8262352778519233  9.7499962680723851
  8.7918047789873643 45.6579285528226677 11.0061415459296459
 -14.0762565525414889 37.9867720646810483  7.7879606218351274
 -2.4353804051301520 13.0911459269013104  6.6327284436116303
  8.4082615117756312 42.4267200518948115  7.9441391712791782
  8.5096771960113280 42.4577033348416748 11.0634187510776396
 -6.2742891396922458 32.4298967013778352 11.0219260172357743
  9.2390780529524363 51.9287973052985876  7.6900670510547968
 -14.3596895801254298 34.8306564668339576  7.7810169669713973
 -4.9725263935993107 14.6659990516741967  9.9493108393370377
 -2.6723947931630447  9.6783419381470690  9.4995802354033305
 14.1563262410970854 45.1102110902395310  7.6621115380392801
 -2.3026821231654706 46.5838211122643315 11.1549096401291781
  7.7671204207667177  2.4833231092878219  6.2445453703117355
 -14.6724757438182323 31.6289755003094122 10.8753659935456160
  7.5540308899144293  2.4103150111131839  9.3656781983609854
 -5.9599578703236054 35.6898353026598372  7.9860172940773246
 -1.1534673630813164 59.2593051316193353 10.8654990298600573
 10.1065691634601347 61.4861773643015539  7.4737001535752006
 -1.4287401354348617 56.0386863368283556  7.7954500583375701
 10.2491207369693385 61.4842588258752514 10.5942085674216298
 -1.1358724253811345 59.2259527923509808  7.7428304410980333
  9.8150144487634279 58.2950204240887899  7.5076613093026658
 -18.1462131149220163 54.2721208871912921  7.1607399063525250
  9.9509031503061198 58.3414855264564949 10.6279352188950522
 -6.0124750932247997 35.6264790696671270 11.1061790112959375
 -14.4241257543309462 34.8102008923444899 10.9031193549546348
  9.5250837132668575 55.1077187732880063  7.5856748470153867
  9.6554769359084940 55.1903099159645123 10.7050543282489059
 -14.6450620327759911 31.6734621993757166  7.7528945011812640
 -5.0506441767004748 14.9226266494473574  6.8326715481532352
 -15.5534156524585807 52.4472943823241522  7.3973750341032511
 10.2108110026079917 31.0797047165640841  7.7773663610189070
 -4.4661091991438910 21.2398234093761289  7.3158088043124199
 13.1320777636176018 32.3793715804523430 10.8910952579184386
 11.2297649545042457 10.1865394747277538  6.8293177671751168
 11.0232289634779210 10.0185766752748542  9.9455946679015632
 -17.7972643086379314 60.6572121724817990 10.1848070060836751
 -3.6416153952797354 30.5820041990348770 10.9819395452207527
 -4.5990462572762194 51.5068382088702137  7.8846000218659418
 10.9523240992257360  7.0085891409912229  6.6443435841150391
 11.3263632131435692 13.1868913705811241 10.1431337182476984
 -16.8021519116876092 39.8493540916003752 10.8012585388652784
 -3.6249758746782419 30.7125019652392020  7.8631985031218221
 -4.6604961635059983 51.5943971194390585 11.0045497832598702
 10.6675311382453977  3.8213755218596286  6.4963154954701228
 10.4209786154293287  3.7280059286501928  9.6142893161962704
 -16.6948426898645579 39.8045070302416377  7.6801587215793079
 13.0866682455623398 32.4128867989251788  7.7688694282483191
 10.3760297454179167  0.6260625240039444  6.4090944127427667
 -3.3759276321692546 33.7815305405445798 11.0946850717637844
 10.7217314384876214  6.8656608390476910  9.7615480920678817
 -16.9805067896628579 36.6477399636631489  7.7150909114411412
 11.5021002957589236 13.3584660574376759  7.0255773496612406
 -17.0512178857082191 36.6710102515877949 10.8373907043610878
 12.5603983580220540 26.0532507236132140  7.6331448004587790
 -4.1738289467216623 24.1931747809013160 10.6471691632099308
 12.5330553141139092 25.9676341000466344 10.7550236077219754
 -17.2988937152706264 33.4919960896060189 10.8552378736823787
 -4.3122685229287230 54.6804208942860939  7.8011486349608106
 12.2978243334807473 22.8755635090423155  7.5210830617025657
 12.2326764777596768 22.7642725310707874 10.6419127831978653
 12.8327447967071251 29.1733832424832187 10.8380686615084922
 -4.1812762910001195 24.3957758006755050  7.5301079749846229
 -17.2679902175973581 33.4907622574937562  7.7322356817553315
 12.0353553748146407 19.7002260410322947  7.3807430342845457
 12.8230457167998537 29.2328330871315849  7.7156876136360868
 11.9325346276667137 19.5642197432426279 10.5001886739214907
 -4.3722468366262559 54.7624481007542983 10.9218413825339287
 -3.9080363774188336 27.3850902281064599 10.8319627466485144
 11.7698548775450664 16.5285346805783924  7.2139798658494181
 -17.5526806304660710 60.6388511285308311  7.0677338440857786
 11.6298921597930462 16.3704679671211686 10.3322379615914013
 -3.9010037087422376 27.5532193192053718  7.7142609987124002
 10.1235998908877765  0.6000766840689185  9.5282045683006782
 -3.3530090180287986 33.8734316979695862  7.9752665457579326
 -16.5498946480345488 43.0267638861272204 10.7481374617863494
 12.6947621685962311 59.6532090491791251  7.3398852076868177
 11.2823725977998244 43.7701180021756073  7.8212932582314298
 -17.8490731497432513 57.4514624336631883  7.0908629363303133
  7.9454674572022261 36.0444311233848111 11.0535659015794874
 -16.0283032084675412 49.3783346313200369 10.6007122405645848
 -15.8417828347455263 49.2827139333974245  7.4835197244126679
 11.0115899789635403 40.6020006158501232  7.8673437641665966
 13.7267687039137769 38.7910603531964711 10.9046966529600873
 11.1261819802055619 40.6237858624642172 10.9870975602156591
 -5.1509920854638329 45.1756150899962989  8.0175618497101215
 -2.5756303358292012 43.3870540195514423 11.1954529913048741
 10.7426805994989838 37.4318781818294326  7.8738106579135909
 -5.2156857606897642 45.2206896183966620 11.1366851538585401
 10.8372571907198072 37.4177213753361357 10.9941913215190894
 -2.5468518407860290 43.3614475388854999  8.0758596270265794
 -15.7551330816350692 52.5472642160632333 10.5142766036650119
 10.4762825014140546 34.2574894204204341  7.8424274494708479
 10.5460403519300616 34.2107118034966433 10.9634023482166594
 -4.7554155003577669 18.0830148947399323  7.0796251543118016
 13.6172313502135047 38.7671918658015713  7.7844000305422130
 -2.8151569674933894 40.1972907643752606  8.0813597577412857
 10.2524931393269014 31.0041196625722968 10.8986036914802273
 -2.8443064662779185 40.1857036048479941 11.2010465122439626
 -4.0205270922524585 57.8636929387938679  7.7355486497857910
 12.8703846468955412 59.6829057940775982 10.4591050098297362
 -4.4391335644481922 21.0086628876892760 10.4324882986343113
 -16.4107530295307349 42.9625918694908862  7.6289635874760613
 12.4044400398244328 56.4641666258663264  7.4075869942692201
 -4.8788168619457091 48.3402971598290421  7.9620793720729326
 12.5725310267438175 56.5385157502364422 10.5262712799044191
 -3.1100321083958118 36.9833108559113981 11.1680980525695883
 -4.0799656576831067 57.9170456264190747 10.8574148721745019
 12.1176642311631682 53.2816982675112598  7.5115703563394192
 12.2780279978609066 53.3819479259393006 10.6288857981946450
 13.4300232664696377 35.5851395141458511 10.9141279349621687
 -16.2923704666258367 46.2037131357963062 10.6805305451675885
 -3.0830982580697830 37.0349599587995399  8.0485043129898131
 11.8346460601808108 50.1064143401497333  7.6290794642411344
 -4.9421825183201848 48.4129713791965912 11.0817124220582883
 11.9865665515186421 50.2106843288423335 10.7464129978042298
 -16.1264924443797000 46.1222991683275509  7.5628213133384135
 13.3509641365580318 35.5914381345463298  7.7926708191873368
 11.5563177163508399 46.9370094422712256  7.7385983632104249
 11.6986190514627157 47.0246649088468729 10.8563051366367649
 11.4128203386178804 43.8274849915207909 10.9397896312690524
 -0.4061189602739168  4.8766035049131773  6.0319166383229419
  7.6027834003090788 32.9198020175721240  7.8668699540798590
  4.6352444478495425 61.9533209012312014  7.6734843105161401
  4.6993516492582961 61.9431867128189708 10.7958352925939955
  0.6137532170309841 47.9470207553518364 11.1300388218991468
 -6.7108517511861621 59.7209507237273129 10.7760238380451892
  4.3410653749903609 58.7612685082365473  7.6914499715113713
 -9.9245389598225859 21.5454148660644513 10.5287567870385423
  4.4016516045072001 58.7980221666642322 10.8138698262945585
 -9.9819574094567081 21.7235482547797325  7.4103033756098249
  0.5996816889110654 47.8740373738413041  8.0098280440948137
  4.0492587961433415 55.5740726514259791  7.7541698615989478
  4.1079770947379481 55.6481588737821866 10.8754581855870942
 14.8945182025500173 51.5681451336546104 10.5414521682607703
 -9.6726588159841018 24.7236017345063388 10.6869297759383546
  3.7605581920801230 52.3948877653466170  7.8457614821062451
  3.8171672212509082 52.4859632258483444 10.9656397239718935
 -9.6920991291316767 24.8804576853779338  7.5673761508451465
  0.8967096573859584 51.1307142337132987 11.0451448214498704
  3.4775413583374575 49.2241641271487893  7.9417700834479108
  3.5305855101616213 49.3094337568056460 11.0615919446394813
  0.8785860289313386 51.0411652473976858  7.9248218308300578
 -9.4204469998490712 27.9060126405777069 10.8246172979873165
 -9.2003560989595030 61.5195288532662872  7.5555594077405326
  3.2021472739986123 46.0595559716547314  8.0204900626983466
 -6.6106120027685815 59.6906088239503063  7.6544486253820931
 -9.3378593552512310 61.5234529014921563 10.6761656448146507
 -10.2146512615544864 52.0643328122780531 10.8232145719363864
  3.3741716407575977 15.7397388955722324  6.8794543600503282
  3.3291795247188443 15.4880022233126819  9.9964716621825680
 -10.0757057808254000 51.9740304227631640  7.7049023929913005
  3.0945098267375295 12.5726315535388462  6.6137184645607539
  0.0578454498814455 41.5478307728027545  8.0938063663797113
  3.0344498745068700 12.3221674966303620  9.7314202919220527
 -9.9286787973615471 55.2290209538469412 10.7455960188464488
 -7.5684684930060779 16.5154706442182899 10.1585520449571529
  2.8097899495679677  9.3975324327312073  6.3590120920432831
  2.7384288119015761  9.1714502329595771  9.4790304322233592
 -9.7876642305005692 55.1470484696177650  7.6265625353453963
  2.5204140897561422  6.2108834266369595  6.1411375763554554
  0.3363352544084979 44.7530022338457627 11.1893426591226746
  2.4425814128794543  6.0355003463277770  9.2649097632796416
 -9.6358695237940761 58.3803312619331365 10.6898269291547443
 -9.4945229833758678 58.3301943011928898  7.5698177358528813
  2.2243224075265395  3.0105058105442972  5.9904178446189222
  2.1467501868981085  2.9126524277461199  9.1167845139850030
  0.3270230133612081 44.7108881217980638  8.0694912460101023
 -34.0778266384279931 62.1584448048068339  5.9290601953392823
 -34.1491273356344252 62.1530498944404854  9.0572028596805065
 -9.4058532097336744 28.0366485268855854  7.7044076393558250
  3.2497304662515045 46.1198900263260754 11.1400968936516183
 -6.9043613060280107 56.5040153673543131  7.6971829486190426
 -8.2980957868024561 40.6657938715489919  7.9736543350998046
 -7.1941163734804379 53.3260320053299637  7.7711526012295469
  1.0352161888984810 20.7413852713831730  7.2611509037877395
  1.7727645454387715 60.6011283874245024 10.8445761654227422
  1.0371238179905937 20.5044164614074234 10.3774785311589675
 -8.1248424268299058 43.8617458349726377 11.0798901813559869
 -7.2954806150875466 53.4140895086299707 10.8905110892085748
  0.7573939877910550 17.5800292691697848  7.0066411113471521
  0.7532647694097432 17.3205278220227399 10.1225864728764758
 -8.0269459281054392 43.8276229871934149  7.9608406287617983
  1.7499908262183652 60.5897599182760302  7.7217466417050771
  0.4736409191871427 14.4178811185014553  6.7356453777986598
  0.4670306316765909 14.1506146647060493  9.8525791653019716
 -7.8555978753988800 47.0535285383452049 11.0373408956248493
 -7.7551298422370918 46.9911038771671272  7.9185571201650884
  0.1850663754992804 11.2495072500566309  6.4664869582298889
  0.1789599945011563 10.9947852605400556  9.5854421063883493
 -0.4042183819074628  4.7270880417816814  9.1573900892643660
 -0.1083555898658545  8.0698675948493150  6.2225373920426534
 -7.5796737614203744 50.2398209888786695 10.9705865593588694
 -0.1111294152209917  7.8535457159588633  9.3444242336591259
  1.3197295128047815 23.6970517084126051 10.6049392263947837
  1.3097241851590435 23.9034077734566388  7.4881104338653302
 -8.3895925275938321 40.6679593629811009 11.0936586709033538
  1.6008008228926967 26.8960025860185326 10.7992226447336410
  2.9312056664428536 42.8962139103513493  8.0666667290659486
  2.9726950138963661 42.9208198593806287 11.1863722592082127
 -9.1650477074189016 31.0924095452263209 10.9374214509105148
  1.1851322381739573 54.2995912624235189 10.9536056189236426
  2.6633123822394213 39.7339194177156330  8.0731498183822925
 -9.1224603109955549 31.1930630928010046  7.8170975761765327
  2.6995313594286552 39.7172202483502446 11.1931937392232204
  1.1645546238662892 54.2154849883457430  7.8326810747824203
  2.3951073475813760 36.5708317292468763  8.0367550011566529
  2.4271208742745776 36.5114621520192486 11.1563938830460323
  0.0631165048018303 41.5526519393492180 11.2138822729560861
 -8.9085091745180769 34.2816948712050973 11.0218954078637452
  2.1256040751876477 33.4045098184598999  7.9575424119742202
 -7.0059220161610325 56.5736176867691256 10.8177657550559090
  2.1540560835486198 33.3048238353934920 11.0764825871191075
 -8.6497392657932028 37.4743167881792445 11.0749385096569366
  1.8543984720874642 30.2358461366959332  7.8384560860570529
  1.8786327173239710 30.0991129286106762 10.9566911541302936
  1.4776538599595843 57.4546221205520808 10.8800930431460721
 -8.5694779619892731 37.5070586759598399  7.9545732868116916
  1.5824858097888788 27.0685134778876986  7.6815606619210488
  1.4564287793302149 57.3990181970707098  7.7577230270182147
 -8.8441817433518839 34.3496032858686320  7.9018049153131820
  3.6213281647127800 18.6695507855431622 10.2520153230270630
 -7.6627710204367547 16.7471310105125610  7.0415255196071218
  3.6482916634506304 18.9040155265307384  7.1348377576513160
  5.8948425837989635 13.6615190142078191  9.9176938068234008
 -1.5738106920887913 22.5716102779299241  7.4006728408333933
 -12.5568790570319297 57.0410026736952602 10.5750264977109154
  5.7176772113435703 10.7194434869967576  6.5538760744962055
  5.5945161197103532 10.4998714654339018  9.6717875044289077
 -12.3781506891691979 56.9729604243730918  7.4565785191707432
 -6.7910770684646389 26.2170235553385318  7.6333030255010028
  5.4357438515866043  7.5389864355459038  6.3280288583305442
 -6.7950756843568252 26.0479426458546648 10.7516881790549288
  5.2943154916716502  7.3533076423868788  9.4485451646338898
 -12.2613550056430061 60.1842946391091687 10.5439133851929796
 -1.2875697499606955 25.5383061720062265 10.7287456240029755
  5.1475957836403516  4.3468627838748821  6.1495896069504807
  4.9956012649208494  4.2217062480065950  9.2728044216257910
 -12.0837714935801444 60.1595626800453545  7.4247701177993450
 -1.2959286192503778 25.7312091975502639  7.6114313741912225
  4.8518528250613144  1.1441315885728323  6.0458212732582242
  4.6994459304258163  1.1007118913632807  9.1711154833600030
 -12.2952544547684131 26.5853952232892254 10.7722087280911722
 -12.3108330649476692 26.6982009909027234  7.6511552333701545
  7.2246295867102095 60.1242723900942906  7.5970861193023058
  5.9942627726727924 13.8918565969485766  6.7998085339231800
 -12.6701244248311919 53.7946098522884029  7.5251646240386787
 -1.5613633412006036 22.3451866183780083 10.5170054658280545
  6.1936930148178311 16.8386443629354012 10.1619844090792757
 -13.5175460908506118 44.3036207325942826  7.7357699313447554
  7.6597966852218820 32.8372170837159985 10.9871174803074663
 -2.1430897896852699 16.2542628826367768  6.8989974915112420
 -6.5097571341748237 29.3732259872182482  7.7837572791666316
  7.3347275648431456 29.7452075267085654  7.7653891986755070
  7.3700929155551202 29.6319508410037855 10.8853039059914831
 -13.3978398389041722 47.5397091514591210 10.7970226601916366
 -7.4786969265136882 50.1562493098706170  7.8515079954725602
  7.0679085223435880 26.5701827775525601  7.6311847529053383
 -13.2385384955832102 47.4640847510804420  7.6788743933631203
  7.3258526709509848 60.1417437736075513 10.7187857745129786
  7.0794210406947400 26.4273815494027247 10.7505571552477086
 -1.8553494888369275 19.4131509663232080  7.1599003317173846
  6.8011093447843107 23.3964896874555457  7.4652226540580910
  6.7866594983315487 23.2251875502858809 10.5837989026378683
 -13.1266429977859982 50.7175377852782105 10.7234900116079768
 -12.9571478529039279 50.6264297388268147  7.6056129967103390
  6.5341878709303609 20.2264037425866157  7.2685000863266369
 -6.5356242001671561 29.2368087160777179 10.9027226203857417
  6.4917043621321939 20.0282650936362643 10.3866477883700661
 -12.8458116026021010 53.8858386099196522 10.6426474021300539
  6.2653149943389392 17.0590821786971354  7.0438849054722201
 -1.8356029143848844 19.1602731696357758 10.2756589469978969
 -13.6617969156212364 44.3581243967839569 10.8540454977309011
 -1.0149124811401302 28.7369868018555010 10.9048626509679458
 -12.0461557322672732 29.7670080306701976 10.8653972478573486
 -7.3667832565662330 19.9049094973872762  7.2549979031941287
  4.9982798338593293 34.7501281569413791  7.9611724222338838
  5.0507366686112789 34.6734157997602850 11.0810007342967634
 -11.0274250331831709 42.5129714972193398 10.9927049659942231
 -0.4779562539425239 35.2212575234329321  8.0220534750931645
  4.7286258464592663 31.5799745747281762  7.8653915769794684
 -10.9075981455815079 42.4844332211359514  7.8735045734598241
  4.7698946870522168 31.4673532422245366 10.9844976110475798
 -7.3091249833884619 19.6857898119220778 10.3722295773385209
  4.4589772822685800 28.4076664855047056  7.7333038951868645
  4.4867513100294056 28.2618732229788527 10.8517077792231689
 -10.7629919130804748 45.7006102423132035 10.9574770356152058
 -10.6330853930280238 45.6455322691015866  7.8388387867343789
  4.1890368534311389 25.2367153644729498  7.5664113457485191
 -0.2057849638142904 38.3490422956125769 11.1985614050082720
  4.2006272706441976 25.0592262822608518 10.6841229567415077
 -0.2091717324141943 38.3851587510666903  8.0787467531390345
 -10.4929447736366672 48.8860732162126439 10.8990167161335254
  3.9198009801107347 22.0686375014376743  7.3660811895000862
  3.9121959874172227 21.8610280077022026 10.4832600499925892
 -10.3576224521055238 48.8080780550099149  7.7804317442045496
 -0.4743560549670941 35.1436735934396722 11.1411680742153703
  5.3290312677019127 37.8808334941973825 11.1367353061382026
 -3.7268585880203187 61.0537441456909988  7.7091801384889012
  5.2672116396168729 37.9171150849786827  8.0166549250113697
  7.0301358308995168 56.9955541032891162 10.7667644815321015
 -7.0774039342804880 23.0614521128167880  7.4548837644854915
 -12.0238880971965365 29.8556846075152471  7.7439792924373014
  6.6436884898789410 53.7508095923862825  7.7319177689217407
  6.7368746508385167 53.8390195232978073 10.8514168900267585
 -1.0209122642259765 28.8925454743597641  7.7867164832674938
  6.3581863882735927 50.5760006845445460  7.8340069441925042
 -11.7951369912340809 32.9504073072111794 10.9367856978011861
  6.4475244574812320 50.6694215360678015 10.9528993280275593
 -11.7399039971541281 33.0120579901961904  7.8155762387956091
  6.9333496515126862 56.9343706861509702  7.6457281828142882
 -7.0533453168379561 22.8639130920646991 10.5728358386140311
  6.1631280168536708 47.4853963701424249 11.0480515552683247
 -0.7437543522619215 31.9393327337905184 11.0425321374284060
 -11.5420759085030031 36.1361578314374867 10.9834662822670843
  5.8052293927962593 44.2445332609683319  7.9977233959579221
 -0.7484401646611057 32.0566168273448113  7.9240193988710939
  5.8824036158930255 44.2900143102309301 11.1168922636335967
 -11.4589933348840916 36.1682282763026421  7.8629401991865144
  5.5355928660075078 41.0809594233397348  8.0285793452883851
  5.6051060137224606 41.0870720060264745 11.1484251780655423
 -11.2855570445161888 39.3240328515378579 11.0024691357449314
  6.0791803995462024 47.4082958714939480  7.9289835398654036
 -11.1814096469838464 39.3248662545082865  7.8824285744129812
 -19.6021923343869489 38.4641271346054410  7.6194801982926776
 15.1894185457827025 54.7312848178803861 10.4166920870672826
 41.2919242996170581  5.8841159939016299 10.8934534876810734
 41.2187728772071083  5.9714564054099286  7.7734636686525569
 41.5813923417738209  9.0491227498283333 10.9832551331274217
 41.5018250504637152  9.1454039993937553  7.8647104773631975
 41.8631800087999508 12.2294484991737864 11.0690362463424865
 41.7791217085607869 12.3121265389704284  7.9509289272438570
 40.9293347763711566  2.7873561042850268  7.7033025490070033
 42.1362514177638587 15.4193924820109522 11.1334915923295839
 42.4045186406354233 18.6149575184601055 11.1691514520148356
 42.3185530168612729 18.6412878059906006  8.0512919460113626
 42.6683697244898141 21.8118551264781146 11.1719504400663308
 42.5857761131849060 21.8044233393072098  8.0533530229987154
 42.9299420114786443 25.0092927093682889 11.1385933735811626
 42.8544046671787342 24.9657511282905027  8.0194827604339274
 42.0501083717809934 15.4764843637452341  8.0158788908511145
 40.9974323499952220  2.7323025166307380 10.8245929676133450
 -29.4533304863296905 52.0628860351164349  6.5086738389768808
 -29.5991851012273699 52.2660115927733671  9.6274220676775073
 40.2461491883805422 26.7808808388799235  8.0357286356534807
 40.5544655116006822 30.0539458052061264 11.0540415360710149
 40.5159770525799487 29.9419200606681457  7.9357663174858590
 40.8171254274399118 33.2485964600897930 10.9171631762000896
 40.7892121551456910 33.1015320544885157  7.7995720568963423
 41.0787995644140480 36.4389866375736418 10.7454444849517525
 41.0668019912176661 36.2592356762838719  7.6286532622145788
 41.3402907558558468 39.6223620822952611 10.5433641968301401
 41.3515263432333526 39.4148988334586434  7.4264353666643395
 41.6003384257428479 42.7988117795535032 10.3174464026181489
 41.6417144228543208 42.5716084394533070  7.2002879033960943
 41.8631468960174047 45.9650836092002493 10.0791744969743657
 41.9393315959075181 45.7296546632461514  6.9615320830914067
 42.1302032472657899 49.1208897050224920  9.8431762791888548
 42.2420185079226798 48.8923194146523343  6.7250599324166869
 43.1896591870814319 28.2042146574378165 11.0682836109409486
 40.2921735568328998 26.8555279890136909 11.1544110692107576
 43.1258806447962968 28.1255574350253745  7.9490716587514179
 43.4004122185029431 31.2849970971685849  7.8445504560144084
 44.6549892048583956 13.6620295162761902  7.8894973314370445
 45.0439443322097759 16.7762912060866860 11.0602847212823274
 44.9252374586468619 16.8255545047351340  7.9427806772222196
 45.3079947501335525 19.9678774940540400 11.0856806347403314
 45.1949425411989978 19.9883586061695553  7.9672404567660200
 45.5668141385685246 23.1603625602081742 11.0803032231090945
 44.7759037842624394 13.5865138061779014 11.0068177684178057
 45.4645439257657529 23.1496310090748310  7.9610981995935530
 45.7381459226559102 26.3088022287245629  7.9228495792579627
 46.0786465782866159 29.5382874514041625 10.9734740106647326
 46.0147378991886811 29.4670787167457640  7.8534951681198750
 46.3321195509627515 32.7219949263335863 10.8771240751204612
 46.2963176201330029 32.6244768299959276  7.7565464785357063
 46.5819103234330925 35.9034354910084019 10.7566535735305084
 45.8243198322499623 26.3509063398626466 11.0424253646131785
 44.3800440392481264 10.4975353888978304  7.8124718880312471
 44.5004648300794585 10.4030481978738756 10.9299006547641611
 44.0988934498056295  7.3274615406642347  7.7225419162287627
 43.7041355008788130 34.5821083658420463 10.8278041933989115
 43.6792211599225695 34.4416594056046250  7.7089961846310535
 43.9596610382870452 37.7643122238949118 10.6647002439963412
 43.9640306315617408 37.5986701159384609  7.5459033139794007
 44.2124665559921937 40.9407601609253007 10.4798197135059468
 44.2535858969025497 40.7552052482076519  7.3614391377210984
 44.4672159986754707 44.1113084156193764 10.2807529141623366
 44.5503342450501947 43.9126941016678103  7.1625274719317167
 -27.2772742563167796 47.2741615937561761 10.0767227522206060
 -27.1512386497196267 47.0718824169553045  6.9582391838746567
 43.6262758569523257  0.9293762789424146 10.7176256123133893
 43.5196688458118075  0.9599866935216200  7.5962470738341654
 43.9233100830957355  4.0756664731949375 10.7621392804536047
 43.8119081138150079  4.1480429407463628  7.6423574040023574
 44.2156964151982521  7.2312655349322679 10.8408600239673643
 43.4478764613521449 31.3956484112710292 10.9635221466041379
 46.5808152987122028 35.7823318618579052  7.6361118999984763
 39.9777913034602292 23.6192723000380269  8.0968449959615612
 39.7115432349499997 20.4557600249473950  8.1181308771259797
 35.1448466082654676  0.0479024820429058 10.8577546586791840
 35.1601606622534391  0.0609793326979808  7.7348342014446523
 35.4401997937540116  3.1941344842092398 10.8960231580795437
 35.4527486494983535  3.2512591762706511  7.7741821427665245
 35.7336851009321776  6.3468953549580434 10.9735787238137039
 35.7413319746880305  6.4351670283506390  7.8529317985467539
 37.6206362084537957 58.9490057240922312  5.9667852383105506
 36.0229989599026439  9.5138128537588145 11.0711865752788547
 36.3062569099332180 12.6958807079966771 11.1634344629634263
 36.2994475967290100 12.7762419406452761  8.0444370547163420
 36.5826997343168898 15.8882657661281446 11.2306680378098012
 36.5699341059855811 15.9397062162502596  8.1123250516913021
 36.8548942779578752 19.0874053392935217 11.2645410138672872
 36.8380917763507227 19.1039238039893320  8.1463571298098145
 36.0235872775809156  9.6096663070950719  7.9518916094999534
 37.5596163247127350 59.0383283091426065  9.0938621971457803
 37.3140542479501036 55.7468187179963621  6.0993641064238524
 37.2672134357000076 55.9192988821035186  9.2235840662737338
 35.0341215798834824 30.4105328383498374  7.9449186238920753
 35.2975292231653555 33.7423045392560823 10.9112177019216290
 35.3042294092100306 33.5750967855641562  7.7947054873072874
 35.5731089396577929 36.9429572405727100 10.7209209013394346
 35.5769650905695087 36.7370301210264714  7.6051895768043707
 35.8508124276913094 40.1372572983416802 10.4930708080671735
 35.8523777540529025 39.8969051076459493  7.3780966657048603
 36.1304567749746539 43.3207413872123013 10.2343619452737737
 36.1322002667052686 43.0556803102697572  7.1197171593335238
 36.4112230251108997 46.4909920509274457  9.9575494227235684
 36.4184215791506816 46.2161640051752372  6.8420618218639211
 36.6950932377445369 49.6468555214146718  9.6815916085637461
 36.7125609063010288 49.3822952951187730  6.5637895911500976
 36.9796411486067527 52.7898621771004812  9.4284482235550868
 37.0111632833725679 52.5584214698148813  6.3077991307348338
 37.1231381243423044 22.2904024451615186 11.2603631699490006
 40.0283597155740125 23.6545667879267860 11.2151974317961542
 37.1043090587228264 22.2681876582350959  8.1421679984565252
 37.3709198054410408 25.4320652649547760  8.0968434632859960
 -31.7589060718245477 57.0906567243578849  6.1148569830561996
 38.0709771242982811  1.3893484525341946 10.8557382456595306
 38.0454074333000847  1.4246338375927872  7.7332179951968127
 38.3660632165488735  4.5379876139574939 10.9108026655156305
 38.3372341560230936  4.6125490350157321  7.7896403151626439
 38.6579400287151671  7.6970720583494456 10.9973716392178744
 -31.8870711876767672 57.2222403772102481  9.2389439891375869
 38.6225875868454338  7.7917060916081162  7.8777261080649907
 38.9019000604400205 10.9612536887950256  7.9725336676423408
 39.2233591903964722 14.0576634242586493 11.1695764933915278
 39.1752013074174243 14.1259095942982409  8.0513491077469812
 39.4957589937145386 17.2531211822019941 11.2196491562772120
 39.4444620542023969 17.2906976265439241  8.1018060872738999
 39.7635395435344137 20.4529796417387111 11.2361733065693628
 38.9446022453850276 10.8710414486058493 11.0913854897010946
 39.9355640783760393 53.8988119573857887  6.2786541762736796
 39.8295950691801295 54.0963084132948424  9.3998816585210925
 39.6289469730463253 50.7204555002718962  6.5000253585949119
 37.6560568290503213 28.6983079717027003 11.1274614075422544
 37.6392606670093954 28.5952049478139543  8.0098851304020222
 37.9227161219159186 31.8997447310728717 11.0002365029492584
 37.9091825501568707 31.7583170694703334  7.8833086492744853
 38.1901735806302014 35.0983651978759212 10.8346617211562020
 38.1815904469164877 34.9188643368850222  7.7182548451989144
 38.4588781049798101 38.2914375399021054 10.6316896471300080
 38.4589952683888612 38.0769566421443670  7.5157374470519267
 38.7284279158663480 41.4756602027844608 10.3956544725520708
 38.7418134356544286 41.2327710028903027  7.2801668282462524
 38.9991019060803765 44.6494197907606960 10.1370075773204196
 39.0311066921533794 44.3904020901248799  7.0210883904316486
 39.2726048461892319 47.8104438632170101  9.8715710025331393
 39.3274900953100044 47.5518880804986210  6.7544666743575474
 39.5484952080668535 50.9594067489976652  9.6186944311192750
 37.3896382508982015 25.4949917613530381 11.2149365690380236
 46.8314934779949965 39.0799475482702618 10.6163614329202716
 46.8701724113194018 38.9389104471569993  7.4963657683541483
 47.0813651571582241 42.2526963281097068 10.4614185515725158
 57.3360884017814314  1.3516780488533897  6.6976067910972308
 57.8821740208794751  4.4446731431008706  9.8640803281270468
 57.6332916536186772  4.5454270467036642  6.7477704517699673
 58.1660018075247933  7.5847616923561141  9.9665187296821536
 57.9301906974201444  7.7290583593137585  6.8514034693572583
 58.4401331220859532 10.7359017248381097 10.1008173072219627
 57.5905221265902298  1.3131715351127904  9.8154592319190801
 58.2277618139695363 10.9011254246189644  6.9852974494315401
 58.5243698622953161 14.0654472375054276  7.1305423703619377
 58.9582709709123236 17.0630013950268591 10.3924543058527057
 58.8184674542200270 17.2253704580819225  7.2755435466411074
 59.2098570871977401 20.2337117761799270 10.5316644556237620
 59.1118342789457003 20.3837103767802184  7.4128668751006437
 -12.5447447922249200 23.4080805004401427 10.6598039540373897
 58.7041002439348958 13.8962381874676915 10.2468957586223048
 -14.9327859537110985 28.5158589220368768  7.7058015365803882
 -14.9199126487758225 28.4493507456990642 10.8283521833232310
 56.7816837788201525 25.3582738217603456  7.6411189005248605
 54.9915050182218650  3.1252782097786000 10.0631681106097268
 54.7475259319915892  3.1948950610057296  6.9461868420277080
 55.2810822191380353  6.2655996781127472 10.1364782994956819
 55.0420754940054948  6.3805370818585825  7.0208732511318583
 55.5600860209589129  9.4183250189696786 10.2430919468571897
 55.3350618715790219  9.5554851115609925  7.1285681594204400
 55.8282515517006175 12.5812214461260332 10.3612806724119029
 55.6260215597391010 12.7212312871170532  7.2459370023895584
 56.0870715307642271 15.7494749472086752 10.4769467940852756
 55.9157576994838479 15.8818470896142259  7.3605084978177517
 56.3389075830602124 18.9221813146149707 10.5844085998382145
 56.2038198569550005 19.0421908684895627  7.4661011718635653
 56.5879077317241581 22.0953460915763493 10.6805542534487614
 56.4923740871851194 22.2004347860867064  7.5603764543301413
 56.8358707611445837 25.2712371438908754 10.7628533624300466
 -12.6006427075485874 23.5416332998102504  7.5393644193069225
 18.4522008022124133 62.3585430457390757  6.9249623054252769
 60.4699108682298316  2.6282527558441147  9.6027310020250294
 60.7586939064398663  5.7573120620861635  9.6870516204666330
 65.9027634055549356  2.1217390507837153  9.2177322534988821
 65.7406867679453484  2.1939956637436193  6.0936339990175066
 66.1925927181373481  5.2413309929612737  9.3171525191689071
 66.0445531290307883  5.3952720032626731  6.1950559851481044
 66.4782522418139763  8.3702321541330047  9.4884333544231421
 66.3496126048250261  8.5831170035161382  6.3692425684317904
 64.0402511315989500 13.5864571773258387  6.8237336499166181
 -5.2453690245275988 11.5121839280032301  9.7071947873609172
 68.4591033184846651  0.3083787425050365  9.0819889146998385
 68.3631069597675491  0.3292667955166299  5.9543932297362900
 68.7519779114740004  3.4238246539246671  9.1413062705120822
 68.6660507015577224  3.5372485698993099  6.0153976870319781
 -2.9594908197305538  6.5451925274917580  9.2879389746756384
 -3.0333901892336250  6.7356047250691971  6.1648623533715332
 -5.3502600606309985 11.7577185112514808  6.5896331375515995
 64.1712733231720591 13.3545175016197177  9.9408335265891452
 63.7372688162659600 10.4189651368455589  6.6159330947856736
 63.9003978658573502 10.2042800022966844  9.7325797666203027
 60.5272897456919239  5.8936771108507759  6.5693052849901532
 61.0385401048659446  8.8972354695942943  9.8245210412264399
 60.8284258071317439  9.0757669244670183  6.7082796641732507
 61.3091968324132139 12.0466560457479464  9.9937120214885464
 61.1299923415720130 12.2457771128392636  6.8773516671473756
 61.5709517884114348 15.2054870593700233 10.1753868807890928
 61.4304516815253265 15.4075453813248799  7.0584097806181640
 -10.1765684855371035 18.3728288314069204 10.3562876502875341
 -10.2752589310974489 18.5665488449395610  7.2386594516636436
 63.0459589864885857  0.8153397014088982  9.3752757100151047
 62.8283915036318845  0.8471781216138904  6.2530382738753154
 63.3372748099711629  3.9372648727050654  9.4285090629002752
 63.1296032504716393  4.0492069810950140  6.3075735003946178
 63.6220542612712165  7.0655626711381663  9.5543956756643720
 63.4326278120446361  7.2411022914457144  6.4358814867483378
 60.2269547391878675  2.7008050371845314  6.4840627603581709
 18.6952120270539695 62.3482005395206329 10.0430843800086205
 54.4479016990732489 30.3328628713927024  7.7318292269216506
 54.4580955157084787 30.3133163823716956 10.8548794914781404
 48.7091138673313750 27.6787090479156710 10.9485991651370007
 48.6328447667464516 27.6494393302323118  7.8276703113476920
 48.9595853934393972 30.8607307675736600 10.8943829763618076
 48.9163529288478998 30.8079020989293220  7.7727097103314442
 49.2063295397242584 34.0405864963368714 10.8191210495339849
 49.2016119635337716 33.9657664262218475  7.6972193293988038
 48.3528078856329060 24.4917027002414294  7.8587913059902768
 49.4542038925848644 37.2178165077358756 10.7251789322511719
 -22.3016731705808446 40.3922082164768170 10.6154852566300253
 -22.2225353453565404 40.2807941294370977  7.4946610979858699
 49.1719657674197776  0.4665144642950933 10.4407953571139540
 48.9893204147887786  0.4881861292245103  7.3214595255153361
 49.4691521581270877  3.6080288213461102 10.4727105740638908
 49.2818559506247311  3.6773242655063019  7.3546555854801738
 49.4905744175289612 37.1228729780340103  7.6035722577174631
 48.4568110110754304 24.4948904831600984 10.9787432368026128
 48.0772348322509018 21.3326256072439833  7.8633444857704102
 48.2021035409789746 21.3092147559965248 10.9820905975716965
 47.1634874909689188 42.0970734661893431  7.3420241818230965
 -24.6686009432556119 45.4203183461568543 10.2977157037119547
 -24.5413146299465836 45.2552013083310527  7.1791036349967108
 46.5496131880737352  2.2697720089926197 10.6093368019924998
 46.4014005207876394  2.3202032527538781  7.4897873703872930
 46.8456772332602256  5.4178878436705684 10.6684718454666090
 46.6928193576729313  5.5050915217503356  7.5500854384397025
 47.1335210140288439  8.5789560462350760 10.7538264575910425
 46.9773490932416848  8.6805236412657951  7.6370358181678393
 47.4127140604259836 11.7540615894337623 10.8405216036643317
 47.2572295180535349 11.8469647623723464  7.7238576970130648
 47.6815272084823434 14.9370013839572291 10.9112539829176018
 47.5313009128346380 15.0094196949401777  7.7942242510038691
 47.9445616468985207 18.1229385921065926 10.9589165863102451
 47.8044123267598380 18.1715814653886376  7.8413909464499341
 49.7614719127355869  6.7579825640325781 10.5453627908447256
 49.5713446630429431  6.8585579870857014  7.4284726730827293
 50.0440158732170204  9.9220800446973172 10.6362599064493963
 49.8557722600480844 10.0295601749730974  7.5203671005347310
 52.1606261808283946  5.0305632353729601  7.1947136220140537
 52.6674315981326657  8.0917993892774671 10.3986855766144632
 52.4504309613608442  8.2079539213059505  7.2831996783537001
 52.9428169686779029 11.2565087398184733 10.4986734185078312
 52.7374956669075914 11.3758881969156924  7.3835102057033613
 53.2064709819680033 14.4289500611189965 10.5943907041430752
 53.0211468541162532 14.5384526515608208  7.4786151396163039
 53.4630534427373263 17.6036053365793350 10.6781488366353745
 53.3041128016000982 17.6982157638680881  7.5606816174846339
 53.7148832438297745 20.7801245914988471 10.7475517379067682
 53.5873645575657989 20.8584998747392127  7.6278570370309833
 53.9635721504266925 23.9567282522128338 10.8009030824290431
 53.8718952084611686 24.0165352070959628  7.6796343407713579
 54.2114006589386292 27.1342823383216114 10.8366722769681214
 54.1600607357013573 27.1742149459528584  7.7143445324900322
 52.3812997978184853  4.9403556461911515 10.3117826232561107
 35.0255607288481130 30.5387798409680364 11.0618619358979764
 51.8679537207194414  1.8430041284348591  7.1432065469882398
 -19.8905280934306745 35.3073811951281158  7.6823288772202023
 50.3154290330411769 13.0967622618480597 10.7231889843244748
 50.1358419908919544 13.1934587939610726  7.6071913523828885
 50.5777203572795528 16.2762925495114459 10.7946448546694818
 50.4136089705428958 16.3545312513360379  7.6778636028567471
 50.8345610518146458 19.4571485345273061 10.8470176773150815
 50.6911380343394669 19.5156427171571067  7.7289635238436070
 51.0868976880667987 22.6375953478299330 10.8797661680882669
 50.9693551150178621 22.6746883760776825  7.7595912917120229
 51.3378522271648947 25.8183638272459746 10.8907693874298737
 51.2522704861869727 25.8331053942547975  7.7690237108149631
 51.5855570935712109 28.9978410630657955 10.8806738051297565
 51.5376382789777026 28.9910215603556765  7.7583206203103394
 51.8324086642508348 32.1769717922436058 10.8518700385916311
 51.8247765778436360 32.1492436859012969  7.7290429301910502
 -19.9242831984429607 35.3555152391525027 10.8051392378340552
 52.0870045615610096  1.7996079280855541 10.2611953601521240
 14.7104654622767370 51.4533147629728589  7.4249915827728428
 34.7655246531091606 27.2447707583265419  8.0552422153309777
 34.4974188409624318 24.0801859597248793  8.1241026926335227
 19.9767819273584273 17.2739142057798709 10.8012641620427843
 20.1352049255931469 17.3472053299731499  7.6841094202264548
 20.2687596130931063 20.4768373439263165 10.8757537395679869
 20.4018882625086206 20.5176239619987619  7.7570703222350446
 20.6667719532723773 23.6902063144224435  7.7951420108261971
 20.8614820227050757 26.8896947730948028 10.9198919096825406
 19.8650233591102605 14.1786414948630579  7.5783093975726077
 20.9312284342948907 26.8661834009262357  7.7987778661742180
 21.1944355896524641 30.0446702712955620  7.7707040788654318
 21.4609861947086777 33.3015571631546550 10.8352392895790413
 21.4577676820899477 33.2242622268838517  7.7133805080191546
 21.7625729790985574 36.5068467698218200 10.7484362109677392
 21.7203880715590678 36.4031338628337480  7.6270236624198890
 22.0644783653962158 39.7098638187906943 10.6320975392151684
 21.1602437004845534 30.0957920749790766 10.8923412448774517
 19.6850463105902236 14.0773064054908268 10.6944346820484046
 19.5915538750869587 11.0102064142990699  7.4478631714330703
 19.3926562673338587 10.8942183175582521 10.5627742676552288
 19.9062207099195092 47.7779024251570874  7.2512605199937044
 20.3923330591696761 51.1031523462544897 10.2034534718466645
 20.1823238039618751 50.9525688116295896  7.0874764884333699
 20.6930525392683258 54.2635328199247056 10.0443233774433605
 20.4635774102605978 54.1315831761908939  6.9279415030068936
 20.9938301621226522 57.4081094076659966  9.9132346200719628
 20.7500027160408003 57.3177637577322159  6.7954259748920887
 21.2931668696159626 60.5402010748574426  9.8321216802204194
 21.0404108830073149 60.5109731965543318  6.7140548902823305
 18.5016138391155920  1.4362915394257254 10.2174377862249166
 18.7419539740820653  1.4720551140377727  7.1007815009411193
 18.8007740165328769  4.5764112842824050 10.3018181893824927
 19.0308278672333380  4.6584413939159210  7.1860741204851077
 19.0980281498515545  7.7274159655425239 10.4242559980860907
 19.3135342737960336  7.8378726914743195  7.3094553427205131
 21.9835557589850445 39.5808605232687611  7.5118965471417081
 20.0918491036523399 47.9267398966897957 10.3681050072923515
 22.3662773763534020 42.9092568942232973 10.4874663224015041
 22.6697323990888009 46.1023697197982756 10.3178737263801388
 22.5859152616287417 15.4440251927686081 10.8883073304119087
 22.7372868591144162 15.5219340771149970  7.7718378826812025
 22.8726555244432177 18.6446468163168753 10.9654343836794848
 23.0075216979907999 18.6891563804484484  7.8478072638739951
 23.1600399615456851 21.8497228141327504 11.0050942786318924
 23.2751830188706350 21.8573544973395677  7.8862963465567510
 22.4654954751396083 12.3554794426720633  7.6639842010752650
 23.4503767532111702 25.0570839141766086 11.0056716448872400
 23.7439345691393768 28.2639414640657343 10.9692977571275865
 23.8077052766632917 28.2017912571264162  7.8489391922351768
 24.0390553654107890 31.4708679004560175 10.8995569709652553
 24.0721934699149429 31.3789385855800127  7.7789586161241466
 24.3365389648661079 34.6767617899893352 10.7987323983638301
 24.3357030101916401 34.5565048656830882  7.6781386236192972
 23.5417101260588737 25.0281402467332725  7.8858838953720687
 22.2989427659449255 12.2533737786304915 10.7798861241883515
 22.1892562576790411  9.1849122728268657  7.5382056268592867
 22.0088799331342244  9.0769891855930336 10.6534282590114380
 22.5147062746756994 45.9302369292527572  7.2008792100240075
 22.9724061618918860 49.2832033565713061 10.1307022237158719
 22.7863390636020462 49.1035728127624509  7.0143332748541996
 23.2756459223696552 52.4486792212841380  9.9417235616618420
 23.0637448410382753 52.2809751453704621  6.8255398819007578
 23.5774960548397736 55.5979404904347234  9.7729392535742008
 23.3463614826652837 55.4641828571222391  6.6551352811325248
 23.8780199421280521 58.7324276645303982  9.6477728107155851
 23.6354100142691372 58.6572696138768421  6.5288844772694352
 24.1751818176724917 61.8592080496684460  9.5882811399518424
 23.9283633062839343 61.8572194550732846  6.4689422567582957
 21.4173637514967368  2.7709010835787922 10.4357539838988824
 21.6213686611647624  2.8244838075555387  7.3186940611005076
 21.7148296047778011  5.9171106423398649 10.5311166929586921
 21.9082219003142669  6.0084585826989665  7.4148631260298838
 22.2471790881891813 42.7566269751868830  7.3691294173610515
 24.6356207980888726 37.8801169194119183 10.6667521677551811
 19.6347086736035337 44.6052584082657759  7.4014673224153142
 19.3690182881140878 41.4298941148813000  7.5269277810692614
 15.1053113284238343 24.1374240826785851 10.7532794429861358
 15.1767645234337678 24.2030784163885109  7.6316060833221009
 15.4067561059545355 27.3431659847201161 10.8194887967745785
 15.4385177114375143 27.3822678511475566  7.6968511487258153
 15.7089489936898161 30.5493186236320113 10.8555322471866553
 15.7009227521905288 30.5628266488441582  7.7327003221919037
 14.9148724897405422 21.0260182086487362  7.5371197765503135
 16.0107772440684499 33.7552783600832669 10.8628674150874822
 16.3120338206127755 36.9608600004561723 10.8407380040151526
 16.2271859061532346 36.9232290575148241  7.7190762567818147
 16.6120334125590325 40.1650616881488531 10.7874352257056980
 16.4927163780198178 40.0995165592709384  7.6674812599932318
 16.9092281046013468 43.3672397990114646 10.7021312256809917
 16.7594975997340079 43.2743449934961575  7.5837686855360822
 15.9637980396638888 33.7439070742750076  7.7401243202204215
 14.8048277049261490 20.9343090418508737 10.6571197297851246
 14.6511273727430584 17.8518849084308897  7.4141823961800295
 14.5050238134899026 17.7352102087929033 10.5324223069798801
 14.9941553044247833 54.6314565282950042  7.2997456749676495
 15.4872688088511961 57.8804608977076285 10.3172282232937036
 15.2827310811979533 57.8169440628354749  7.1992217920266501
 15.7868797938999350 61.0189979268787681 10.2624027810803966
 15.5734751337453243 61.0073320218277644  7.1438669069225869
 13.0013116043263484  1.9181581361890716  9.7819549901207772
 13.2680776783679804  1.9694018513146079  6.6652883175809876
 13.3006956097817941  5.0527463982947118  9.8894155817248830
 13.5564871573326453  5.1581593617045973  6.7730368199452826
 13.6010467354773557  8.2001606258385422 10.0407331992536406
 13.8375441403786965  8.3381980860267610  6.9255548991217974
 13.9020825240477368 11.3638579805012689 10.2124830437535614
 14.1130985642402802 11.5118043861519990  7.0967877995555435
 14.2032642548353110 14.5432923707437922 10.3819158436834833
 14.3836175919623859 14.6815203360419222  7.2649026537211485
 17.2044610125296700 46.5645603717020578 10.5872009438612285
 19.7912211884761504 44.7371146420073771 10.5191761040912919
 17.0296243820711410 46.4476534823598328  7.4698881176440990
 17.3058132066966834 49.6195280926472080  7.3330258423327361
 17.5279781932696750 19.1816298376632624  7.5976593140410698
 17.6815044756881363 22.3077755454288820 10.7975879776726185
 17.7916018992015879 22.3563048889152611  7.6772788378710013
 17.9812420130609354 25.5134649077570543 10.8474139563367231
 18.0541246794058630 25.5331866081607899  7.7256709212021173
 18.2828962628655347 28.7196777362399125 10.8656960636468014
 17.3841829866194395 19.1042350989419987 10.7160630866246223
 18.3167275027809531 28.7123390476495111  7.7432882898940480
 18.5790389163283187 31.8937010285947800  7.7317303255227712
 18.8876051870573463 35.1314777983763804 10.8146936038587924
 18.8414980578071756 35.0738806828793059  7.6922372415869509
 19.1908300752053123 38.3360678057073017 10.7453499916711532
 19.1051298225139732 38.2525490208774102  7.6241856767692777
 19.4915272737389387 41.5386289629579721 10.6464062400063906
 18.5849729099152690 31.9260279249331980 10.8544176429750632
 17.2612196409021905 16.0102597495202552  7.4874886605985695
 17.0871942247858755 15.9055944495496782 10.6043099024341529
 16.9907346187583101 12.8418704018616481  7.3505262082834353
 17.7978431935167656 52.9195923526324847 10.3051966702383826
 17.5861519429744391 52.7951726064823745  7.1889494470461770
 18.0960378424943116 56.0740657252259354 10.1755229723296079
 17.8708619236732211 55.9765570885422576  7.0580552191840775
 18.3963409445357335 59.2144601511524016 10.0823399077947400
 18.1603624965117270 59.1652427064383488  6.9644766099899877
 15.5965877010342577  0.1091594454486025  9.9788117566240704
 15.8611099238289093  0.1233669630704923  6.8621844389023527
 15.8940248360453094  3.2432732120827668 10.0476386649171641
 16.1518793527677538  3.3126680624828420  6.9316706879374754
 16.1937794310258489  6.3856789195580888 10.1662124693874549
 16.4372605295343632  6.4956468324828895  7.0507471064074503
 16.4920346645661233  9.5433654281328018 10.3133508295390914
 16.7161201874506880  9.6714583986301950  7.1985610355026539
 16.7896351097061292 12.7169672751280114 10.4663436293726750
 17.5009339501860488 49.7494659788469917 10.4496809323177331
 24.5993585462724980 37.7324719911908772  7.5468993223253458
 24.9362275162989420 41.0803584921763871 10.5050185428636560
 24.8634482615009205 40.9069477496335239  7.3864982704586115
 30.1796612764244863  6.8081841086888328 10.9163785101202659
 30.2617625951990412  6.8983633090818621  7.7968172785891365
 30.4688043677285805  9.9759908796685384 11.0218182464251750
 30.5428196491319639 10.0730894440266923  7.9034865532664194
 30.7520016394805751 13.1579893743845933 11.1217032644700566
 30.8186173484763266 13.2398347597892130  8.0032712222662443
 29.9753036959960220  3.7148742118756655  7.7081396191163227
 31.0312109352737444 16.3518026400968317 11.1960967669297542
 31.3070590000378672 19.5529734569277593 11.2351119691487025
 31.3587481100550995 19.5666470255129390  8.1167847999435025
 31.5799616546781010 22.7582239163173021 11.2325836016435119
 31.6247949942552147 22.7303185446060994  8.1139870427579588
 31.8539435661681729 25.9648746109224398 11.1857893042031478
 31.8926614141823279 25.8945043905418686  8.0672490819063452
 31.0901379870033843 16.4030970043168871  8.0780188826920245
 29.8855545035395309  3.6546512376729923 10.8292691999175670
 29.6850550959820616  0.5253618579097465  7.6576744934668692
 29.5894567593779492  0.5088932453060298 10.7797684910029066
 30.0915480813826797 37.2249783397293825  7.5582300098864907
 30.3828492755848885 40.6170519772723040 10.4641512867406643
 30.3594426673477287 40.3927974388449940  7.3486087284193422
 30.6782740294907441 43.8081043213576180 10.2239726732414837
 30.6300691772486608 43.5582682953040958  7.1081898777257564
 30.9743648286409936 46.9868235255320741  9.9614261481452395
 30.9043946981390683 46.7243101316580010  6.8454634410047852
 31.2717994946667730 50.1493335494338695  9.6943168919444158
 31.1843875501249777 49.8956780024786042  6.5774846264298512
 31.5700306565092355 53.2967941231613267  9.4472504943909197
 31.4703963936852276 53.0762591053642794  6.3278357025458769
 31.8672601488189891 56.4288031952491806  9.2461122473499504
 31.7629765583162822 56.2684070590692613  6.1223751321175399
 32.1634256690481948 59.5492738448589733  9.1179402869248403
 32.0609297535079847 59.4743820955120839  5.9914489757383560
 32.1284894052556069 29.1716179442780366 11.0954038786596136
 30.0910666209519917 37.4183393840626053 10.6746477378088169
 32.1608866402540556 29.0607185915124226  7.9775377993246916
 32.4299491024469404 32.2289400180383865  7.8478801159927905
 32.5677841294930488  1.8882021703762946  7.7303047882641982
 32.8099394472983121  5.0000273772087409 10.9165452859974419
 32.8582702665255297  5.0759090798270368  7.7953671666056579
 33.1008667743008900  8.1596099217893894 11.0110628158294865
 33.1427045831863651  8.2555958618182270  7.8916971337667361
 33.3877993600705523 11.3343667823204051 11.1130956964999701
 32.5149867324920621  1.8511385428407841 10.8524713284454020
 33.4224037241468821 11.4256106124094785  7.9940114809866119
 33.6953799773101110 14.5898535229689870  8.0796092065459124
 33.9434981507424354 17.7205043160415734 11.2520266422110833
 33.9644617521533192 17.7533972779130949  8.1337152939037569
 34.2152893637505571 20.9225665321255967 11.2681999119877183
 34.2310994790033121 20.9169284025449684  8.1498140461617652
 34.4854223925105003 24.1273674403625229 11.2423341404951138
 33.6676580221368198 14.5229747000791161 11.1982610988213480
 34.9908965132684173 60.8161872077859655  5.9100149804519724
 35.0085341521436177 60.8518246532901514  9.0388874119614702
 34.6880378945572545 57.6073964052674015  5.9979685033524266
 32.6862642400303116 35.5822829893770844 10.7960283145043210
 32.6993940984736184 35.3961365009659303  7.6798571789180592
 32.9706274244397406 38.7823481863156871 10.5895270766789533
 32.9705215705376062 38.5604923582958392  7.4743965931904652
 33.2575368990790139 41.9751700240799153 10.3491846795269034
 33.2428344389346435 41.7230339276327342  7.2343693726411384
 33.5464998818997273 45.1570906133375445 10.0820569536608744
 33.5200387121965449 44.8855893069604264  6.9670499803700903
 33.8365455106654736 48.3242687392036174  9.8024357187091002
 33.8031763513958623 48.0513451744703346  6.6863588613023888
 34.1282591289056825 51.4751218247714561  9.5325340409074393
 34.0925867844147703 51.2233122681020561  6.4138432424666085
 34.4211025517889055 54.6123612041425588  9.2971428644882295
 34.3877770139174785 54.4080121027422123  6.1745238989601710
 34.7140624071094948 57.7364071541749126  9.1241236959426537
 32.4056174967455348 32.3776583204176660 10.9648513219516168
 29.8235609934002568 34.0545145362629498  7.7341164656687669
 29.8017413820421240 34.2143803439338612 10.8514730265770893
 29.5560398831091895 30.8832196475347089  7.8747961643490294
 25.0646775577512742 10.5362350273669509  7.7314539325947518
 25.2085507351956046 13.6175103485169195 10.9588641158622977
 25.3392975392353108 13.7036206457780292  7.8420370817674758
 25.4911482824712010 16.8131771986934559 11.0436027862097568
 25.6102247271305856 16.8689073311360325  7.9265138042401304
 25.7730676946191650 20.0157059193134117 11.0930305353121383
 24.9223549198749339 10.4343025432985925 10.8480276134575373
 25.8805329503211041 20.0343903306547269  7.9747807525374190
 26.1483760130715375 23.2004996958744663  7.9822421541405637
 26.3405504840804277 26.4300463473187541 11.0674901289899665
 26.4163122843124505 26.3690216020314914  7.9478815968250105
 26.6280150683623944 29.6378311675610178 10.9943802503306305
 26.6822274498996670 29.5412767114877326  7.8747901209584406
 26.9190600363427492 32.8437876829849245 10.8862528097609719
 26.0549869958770124 23.2221925563040550 11.1013574848920626
 24.7858700776451677  7.3621980436386512  7.6124990411006088
 24.6318897752468828  7.2654520706930992 10.7296643906116778
 24.5018125184195092  4.1806532969183730  7.5089756797369764
 25.2389053620929893 44.2760823406261892 10.3160643822599969
 25.1289628030224321 44.0802030163191390  7.1987954870511563
 25.5429417390335765 47.4613594324783250 10.1057559513947499
 25.3983652446894546 47.2517785243547550  6.9888046240624480
 25.8460541986485488 50.6311917451735880  9.8868234665462236
 25.6719743770096187 50.4264524500340343  6.7699219944467375
 26.1493978143739874 53.7851229340501149  9.6806453930355350
 25.9524056933086378 53.6071804973693702  6.5628463914177946
 26.4505782945764558 56.9242656333865398  9.5111811061931455
 26.2388051232855020 56.7980259780244054  6.3912370346837308
 26.7487451229544604 60.0506771093284826  9.4034264727557435
 26.5302070244457120 59.9989303872938891  6.2823616572158496
 24.0395109934358224  0.9685399242953024 10.5617920437210948
 24.2117709191681811  0.9930917379902783  7.4425079984464482
 24.3373887749077582  4.1119139544266066 10.6270987856740735
 26.9477851622207893 32.7152918836201820  7.7670666387541489
 27.2131823938840753 36.0483807597822761 10.7449396522615874
 27.2135263927693174 35.8893413186006995  7.6263977163019749
 27.5090957145865467 39.2507252373075985 10.5712941790136750
 27.5495776968741133  8.6194202292744198 10.8937667851994711
 27.6632844219149945  8.7177968337722849  7.7759142820585714
 27.8375348530041080 11.7949918652394459 11.0043784606942445
 27.9414885445352539 11.8882116782326737  7.8866801971789338
 28.1193193703946598 14.9844427005591356 11.0976246173474316
 28.2142580096634994 15.0537122278239668  7.9801558783069106
 28.3984961523334540 18.1828085197250431 11.1596856903698551
 28.4848874082962453 18.2175383618831503  8.0417901490880688
 28.6757139259690312 21.3867480413172153 11.1828524162928833
 28.7533013881496018 21.3812295807190402  8.0641922500745835
 28.9534004885730134 24.5942618946449194 11.1622797454536808
 29.0208485202615982 24.5463074323960200  8.0431170746449094
 29.2327491811616618 27.8019137246207002 11.0978471100435172
 29.2882810792969153 27.7132729422208044  7.9787906414260013
 29.5155547106819114 31.0086238228123570 10.9929150195636858
 27.3815936888325915  5.5394304087039226  7.6690139959706798
 34.7553241366678378 27.3336146570295959 11.1730549010801568
 27.2581219655394591  5.4589206058752611 10.7883339036749923
 26.9621035993830525  2.3096241143478005 10.7105237477080983
 27.4792796001787849 39.0621849896041908  7.4537413217164481
 27.8071918636026503 42.4482103434744644 10.3674698241314562
 27.7450340117981540 42.2332716151177650  7.2507695290104985
 28.1090115652759067 45.6364810933845959 10.1379727507864743
 28.0144542260617442 45.4015818154133655  7.0212578975671258
 28.4100664224114468 48.8109328279183856  9.8925593092601503
 28.2870452429310859 48.5722446104838710  6.7757398925014671
 28.7122910837005847 51.9690157518256868  9.6518789796391573
 28.5661605593238512 51.7494188236720305  6.5343544270658596
 29.0127007822218879 55.1125311867506653  9.4405565095719535
 28.8506225035529411 54.9360250327047694  6.3201591624747051
 29.3116087768859686 58.2412998835051425  9.2836153271143171
 29.1422701719589803 58.1346521558384381  6.1606962799528455
 29.6083091122279889 61.3604554934789235  9.2058976780465134
 29.4387982230244312 61.3416236882913211  6.0812381981845753
 27.0937904826328371  2.3527112762781672  7.5904300744846935
 20.5637532853985618 23.6828113017535991 10.9151521527179600
 -0.7075586195320617  1.6710342897113153  5.9224109580943809
 -18.6525721468529220 51.2161616064980620 10.3719402486832646
 -23.8703515465532483 54.8804558328410224  9.8463348259203656
 -23.9361303698772652 51.5804075581129311  6.8593679678114183
 -24.1450044297554562 51.7353158103334891  9.9766372929830318
 -24.2405723684341936 48.4151359113261393  7.0144197204325627
 -24.4109658476922036 48.5818274807097339 10.1324992464308998
 -25.9248577358765573 59.7842043814698130  6.3967221283907216
 -26.1718791030668889 59.8315114167300024  9.5163842696326899
 -26.2296374703508839 56.5912292060183262  6.4608471402337928
 -26.4595079437214729 56.7054711288050655  9.5802157791339191
 -26.5372499509404491 53.4078257378988610  6.5899066052340256
 -26.7389951809768966 53.5709723612426458  9.7076448040688170
 -27.0123565170471380 50.4273218017700771  9.8798657547815427
 -28.5311693584828525 61.6384740541038170  6.1886839478562665
 -28.7428414599812356 61.6449138778690084  9.3112032382524426
 -28.8349941516453647 58.4369210298588726  6.2195704535294354
 -29.0339312731598156 58.5243345420889511  9.3415812826935607
 -29.1444641978500165 55.2432873091548160  6.3324424687613092
 -29.3203617731438726 55.3994573513112343  9.4528560394202596
 -31.4514084670831622 60.2927809120341891  6.0336419991867229
 -31.5954186345787775 60.3391609365582298  9.1588028561084869
 -18.4409839782870506 51.1029378810345492  7.2556245726331348
 -23.6319133988309922 54.7545718723537647  6.7292282186536401
 -23.5867905446024295 58.0163352051586685  9.7605223881607603
 -26.8458747350535702 50.2354511166018511  6.7621722304906680
 -23.2956124832597133 61.1454165595891226  9.7370925779590980
 -18.7330192120736285 47.9404155397843752  7.3566392876378268
 -23.3280455331315792 57.9396447980593337  6.6435371483829719
 -18.9181521613289299 48.0498134408606390 10.4738156774092239
 -19.0236118453561716 44.7809398692015748  7.4538584494734081
 -19.1763411630739853 44.8790874523733052 10.5723453089512329
 -19.3129950512251440 41.6215663979037345  7.5423385179780436
 -0.6984146776716466  1.6098091823292795  9.0507627921254699
 -19.6776040700617223 38.5315456471389197 10.7410842203649644
 -20.4370568722668366 59.2887364568129556  6.8535870327650459
 -20.6995813565201061 59.3336237600625012  9.9700710300739548
 -19.4281711435630768 41.7055980831010942 10.6625753891525381
 -20.9876526741661920 56.1972656767662642 10.0207140387679150
 -21.0366497273216631 52.9260977934989256  7.0004059571535064
 -21.2674283156285462 53.0507945090368480 10.1163660492018224
 -21.3361675080241966 49.7588991871970734  7.1196658529696091
 -21.5372166372807108 49.8944000740974332 10.2369821500430564
 -21.6338379952715059 46.5980583774599282  7.2481796009006807
 -21.7975502636827088 46.7313949506869122 10.3660680597048760
 -21.9288726444840343 43.4384751010639860  7.3752428682346638
 -20.7365626120538202 56.1025876246160848  6.9046703281128927
 -22.0511936794299004 43.5627369299943510 10.4941751952230344
 -23.0280715041681354 61.1322392000228803  6.6199145439744305
 21.4957140880837621 31.8040754155407548 17.4582850909902412
 20.6299918957142054 18.6236792726689124 14.0296409497743362
 20.7478636855566876 21.8662907831713476 17.4557686220461044
 20.8481470572590375 21.9070580473414864 14.0968288242559119
 20.9973947682885651 25.1794814801252542 17.4916753310478050
 21.2820818832073080 28.4662151457271690 14.1328581658437074
 -5.4425153107014905 18.8096115049244013 13.5221034050226461
 21.2472546855493718 28.4920074719813528 17.4931183486957131
 -5.3857674411590351 18.5909942927619802 16.8705266729899392
 20.4996098772430351 18.5534627771220784 17.3869962009004304
 21.0656137468526197 25.1875867225881009 14.1319414322151857
 -5.1593680459032019 21.9056444616235559 17.0751754999309604
 -4.9482815435479761 25.4085054002486430 13.9083693045240260
 20.2531800501796511 15.2427014392075808 17.2910779628400029
 -5.1960588580747569 22.1127868526429552 13.7240467328690254
 20.1907588796687598 12.0356373199720998 13.8258891136601427
 20.0125936761978984 11.9345040168954259 17.1789135559813921
 19.9752155268877978  8.7229803474058123 13.7143845907584296
 19.7797315482638076  8.6295374757675241 17.0650583872845374
 -4.9315633410562318 25.2252945635350265 17.2627845004300902
 19.7620292048616335  5.3968314223225491 13.6180633544979255
 19.5535999850268638  5.3273359470608401 16.9668475889352983
 19.5503477114603790  2.0615404437903480 13.5499016257025318
 19.3332876056342684  2.0268906278841334 16.8987783901769859
 20.4034657317808410 60.0330758065727892 13.2234351642722423
 21.4964609801502000 31.7435800916848336 14.0987846279656335
 20.4099131449219584 15.3345027153523965 13.9357609958214805
 21.7426643720997284 35.1155377669429711 17.3869633700769803
 23.3860237445957573 61.5104064098193319 13.0302122639695721
 -5.6861323651583433 15.4974785106783983 13.3160054390941109
 -5.8249050106400135 53.6589579210826741 17.4767491200165672
 22.5047292132747891  3.5207601242691511 13.7441323147573744
 22.3130195415987203  3.4740371729223258 17.0953445879420585
 -5.7352172000469590 53.5916006862026535 14.1181768114984081
 22.2917268406390114  0.1850089835626709 13.7007430599501099
 22.0940517452420622  0.1743336491107354 17.0520682333941807
 20.6177266468180491 60.0614228012770326 16.5699017558154189
 23.5851170147076097 61.5161706155046701 16.3751207001505499
 -5.6034188803982676 56.9613091878239217 17.4269109286363495
 23.1738390912748251 58.1578109117523425 13.0745635624509333
 23.3703341501423090 58.2212131765928902 16.4193332741830389
 -5.5137878696486569 56.9158569819823441 14.0685649179735535
 22.9656687586423018 54.8140847102852362 13.1702626333078392
 23.1539191171909238 54.9267757954463320 16.5154952391040126
 22.7578722494365451 51.4840791714614738 13.3060307806788582
 22.9324212044634521 51.6324973649113161 16.6528106260096749
 -5.3849163872147559 60.2613764680757740 17.4032576666791989
 22.5495581851189542 48.1703516515177412 13.4670001102762118
 22.7050701088192106 48.3368597415163421 16.8152266061490110
 -5.2970094546074620 60.2462876023508969 14.0450799387057170
 22.3405701507380243 44.8712048403734229 13.6350974694502902
 22.4715899535521757 45.0376891767626901 16.9851642303361956
 22.1308179856652352 41.5826018554638068 13.7924928000112583
 22.2323935713449181 41.7337295055246287 17.1449098973496596
 -5.6106996461155925 15.2820349707115160 16.6624001704225364
 21.9202454470100037 38.3002794055610849 13.9259408941806875
 21.9887220076368237 38.4258759117376556 17.2812763398193923
 21.7089195525443692 35.0211244667405026 14.0291117205256235
 -4.7022214576011807 28.5473331407693074 17.4241353019799980
 -3.9972340406763291 38.5228483236411989 17.7014204704105538
 20.4016000591754043 56.7662143493382558 16.6331151955109000
 -3.7174835341993728 41.8398825030121841 14.3519977511912131
 17.4364309835903271 13.8991788293609915 13.7420597650333018
 17.2642433745307535 13.7835301492645144 17.0945408189372792
 17.2226016202668148 10.5926278414177339 13.6129603608008178
 17.0286142258945858 10.4791689958673295 16.9633670501055782
 -3.5217578864389512 45.1717914449642493 17.6882592445561855
 17.0106616142088818  7.2715600386124368 13.4942752387013769
 16.7999206428188437  7.1772737686396377 16.8422843622276197
 -3.4769750671341799 45.1269824005461331 14.3266298925844087
 16.8001056556833817  3.9377636771961697 13.4007867892422947
 16.5779343587861128  3.8764447312378896 16.7474560112113195
 16.5889885945987317  0.5952780728004292 13.3445803825399931
 16.3608085592219723  0.5766436823074572 16.6915955368918496
 -3.2866282255487680 48.4885311888096524 17.6332647668053255
 17.6472031313882134 61.9077165023195022 13.3992090265856838
 17.8614909153747092 61.9060328358218186 16.7471977048629945
 -3.2408245299888052 48.4203072182603975 14.2721714977617840
 17.4341476146266174 58.5649019712716807 13.4328847661694120
 17.6456309054443601 58.6104431618569492 16.7807282888406952
 17.2233870140761418 55.2291815099351098 13.5077602702190358
 17.4266224067416076 55.3140060311846824 16.8559080291479866
 -3.0571734056977871 51.7980748191494413 17.5646210986676437
 17.0116229604530069 51.9041763991434451 13.6133513174539686
 17.2024352018241729 52.0165411805083195 16.9630863222372703
 -3.0102857240771983 51.7254250158821662 14.2044816033003087
 16.7976039062111369 48.5936706784423009 13.7358913847840469
 16.9721084339109183 48.7164468561420918 17.0877321398974509
 17.5070734025734218 17.0901110806731076 17.2203252581982618
 17.6514037252645863 17.1936711099541668 13.8657180594620648
 -3.7596196522327805 41.8492686180574580 17.7139778191754083
 17.7535224071615971 20.3991852650550776 17.3271527075490575
 -4.7002243467113107 28.6991861475082501 14.0669628472262058
 19.9840867890706733 53.3548829888979199 13.3911005175018154
 20.1813830286194786 53.4709040798330406 16.7385473387187638
 19.7741209732156307 50.0351247055488599 13.5240939386670540
 19.9550642477788109 50.1744757815332676 16.8732876913035419
 -4.4697782670371140 31.8707163197687002 17.5537195745409207
 19.5633913839695701 46.7307967705186940 13.6696007075671151
 19.7226303132409235 46.8752365634024173 17.0201540848379622
 -4.4519778547377866 31.9865761406274238 14.1942006693141298
 19.3520003351311871 43.4385600525137576 13.8094478088740455
 19.4838549118530295 43.5720102201298900 17.1622432447211288
 19.1410281059684522 40.1540511191458052 13.9291861912868615
 19.2410498880236958 40.2645932732134639 17.2844172255972914
 20.1929630909454012 56.6887470366515345 13.2867926951871098
 -4.2343771757188859 35.1957483501465944 17.6473424996307138
 18.9953439786431133 36.9545571748947097 17.3776082307432667
 -4.2047204125744333 35.2716250970853480 14.2862037912770727
 18.7187294630614183 33.5952127482909972 14.0784182329023704
 18.7483730247922331 33.6439414255527964 17.4378124209768934
 18.5066580690981972 30.3179111959364249 14.1028733075845309
 18.5006798291114052 30.3329141441336212 17.4632085115538516
 22.5364608364685850  6.7758435503097978 17.1705996720533847
 18.2935885411862209 27.0404287394299594 14.0924244110160313
 18.2515047080960606 27.0217090715301467 17.4520585225914218
 -3.9597430820576598 38.5554625480725690 14.3395819899127250
 18.0793823741808382 23.7614223975485359 14.0476997700247104
 18.0019565649732272 23.7101943846256127 17.4059883596630236
 17.8655228953735268 20.4798095196741841 13.9707598029423572
 18.9300174751757275 36.8736948805688058 14.0198689261287424
 22.7185288797397185  6.8502213282496918 13.8187261167091044
 24.7364309475337620 36.5859416804357664 17.3126095439466532
 22.9347402839727224 10.1690384680655388 13.9135253940946750
 29.3014407679765405 61.1411763879943493 16.0834539906122558
 -8.2426176508799038 58.7891384434482660 13.9666696207703751
 28.9612987143540046 57.7622374174997262 12.7975588371008726
 29.0873226433905252 57.8466616629462465 16.1405808801318429
 28.7520297615228309 54.4114878231688763 12.9138755097766893
 28.8725097134305173 54.5515312659745604 16.2573740210860400
 -8.1556192570604509 62.1181221331916831 17.3200502274145443
 28.5428843594427981 51.0751597078221238 13.0767741265796502
 28.6541656084018754 51.2566952306894166 16.4214123490831163
 -8.0271723401508375 62.1229902988900164 13.9636173184010293
 28.3326291568397686 47.7559510732485251 13.2710602381602421
 28.4312957117722647 47.9618697185673142 16.6174149088884668
 28.1207209754981839 44.4533556735617239 13.4795184428109831
 28.2025973176907563 44.6640879842677023 16.8274623064633495
 -8.1273790685589891 20.4439232257210364 17.0314872833047666
 27.9071782063472575 41.1621735308783201 13.6823700437913747
 27.9684034372233867 41.3610933506553167 17.0326734167487217
 -8.1941718672602359 20.6398688027271220 13.6810012180344014
 27.6911306069532230 37.8781342138082451 13.8645771699804055
 27.7281444665760759 38.0531085795800763 17.2176615100900037
 27.4733697102779963 34.5979996289765239 14.0171838131176010
 27.4841566419861216 34.7419845969033076 17.3733790896220519
 -7.9021460995025929 23.7649916118301334 17.2068198112934283
 27.2537745323626019 31.3198570539124184 14.1351111604241755
 27.2379424306854716 31.4284494535121404 17.4939532311086978
 -7.9408675462890166 23.9417198135864666 13.8536303898280266
 27.0313414184590819 28.0415613954382401 14.2155509748294708
 29.1736245444385922 61.1232509774354824 12.7404001606582149
 26.9889518817086405 28.1128955519275827 17.5762187240467505
 -8.3737978374865616 58.8192991225077932 17.3231862014056226
 28.1883972183958349  3.0992146074292051 13.9952763648694223
 -9.1617507473009177 45.5334109341321849 14.1876779209862711
 30.4620369256379426 36.0290120232741486 13.9430479695338505
 30.4750286994644597 36.2057493326084341 17.2977154975713141
 30.2377833611098055 32.7491870353022847 14.0963993957700868
 30.2314371745463326 32.8919525763826712 17.4542349108743267
  2.2397963893293316 44.7541605726900258 17.6988039711279477
 30.0103011817057670 29.4703186040129026 14.2129630616609788
 29.9846306487902510 29.5754998857937146 17.5731962103817239
 -8.9217774627046200 48.8312535562070593 14.1282165486432216
 29.7795178471897906 26.1910429436573686 14.2909850147200821
 29.7354842672615121 26.2560879515940186 17.6522029365145023
 29.5464412784018364 22.9112492249793078 14.3284258151838628
 29.4867916655492870 22.9338599350406085 17.6900371690302407
 -8.8156292081641254 52.2150228030996217 17.4175977161402749
 29.3130727574074861 19.6293516253605986 14.3246057382777963
 29.2398112823857339 19.6115357772694452 17.6862558458714858
 -8.6879256570961854 52.1392827147855229 14.0603351244979908
 29.0798944830434962 16.3426265632556529 14.2833574274634003
 28.9950094300410690 16.2920748302009493 17.6443394860054461
 28.8491756328526598 13.0488071210836818 14.2149711130620968
 28.7538852727166550 12.9773937385245848 17.5748742082570217
 -8.5926787294522846 55.5187007618092210 17.3584419554162324
 28.6239356964821319  9.7439400785100130 14.1330837416197159
 28.5185126849634898  9.6680561886553935 17.4915766562347379
 -8.4618078248311654 55.4600523232216460 14.0019114562043541
 28.4042543606730717  6.4257670955821364 14.0553053440408764
 28.2892885992773806  6.3633902390253194 17.4121290405644018
 28.0655681759174769  3.0613345795091886 17.3520052587626843
 26.8051639333325902 24.7623145076437048 14.2585669851446735
 26.7385708148117445 24.7947756874092171 17.6198055826959816
 -7.6765320532569277 27.0895238714908757 17.3604775817140116
 25.1239605920137734 43.0149205569192716 13.6392966404586513
 25.2201625032774039 43.2006675950631376 16.9893891026805761
 -6.6835208722539345 40.3983835603265078 14.3033583053759372
 24.9127171476045746 39.7292430010892446 13.8116091541415749
 24.9806087824801430 39.8952027403927758 17.1641902926221839
 24.6993981201645489 36.4483536138633966 13.9570298665635910
 16.5824476040344102 45.2970560651240106 13.8581513724340546
 -6.5175285862901298 43.7202717103907119 17.6514319311227013
 24.4850791436626984 33.1700321741746862 14.0701245132712653
 24.4904633660403732 33.2743280364815917 17.4281985001658839
 -6.4393711743105602 43.6865196179840751 14.2902112514671842
 24.2688395767224847 29.8926087353016818 14.1473671469643190
 24.2428303756456458 29.9611462109276943 17.5071705539464872
 24.0498328853740766 26.6142797363221817 14.1880392306059946
 23.9930832360955648 26.6469325861346675 17.5485348371497629
 -6.2822315229634444 47.0399607740239603 17.6069971185675875
 23.8279324123394254 23.3343458382503179 14.1932180747915879
 23.7429240148185094 23.3314615967804713 17.5537324719782575
 -6.1988838280633933 46.9783881229889388 14.2466120447894671
 23.6047709376124324 20.0524017010572742 14.1634991191703499
 23.4940625893749768 20.0152748045665305 17.5231659592312212
 23.3798697472207593 16.7664753304509517 14.1008952392918321
 23.2467762806190166 16.7002924170333209 17.4590168465194964
 -6.0511768579708773 50.3529418834226519 17.5430036289283748
 23.1552692950993340 13.4734346128518609 14.0133363561091766
 23.0029060738072069 13.3883372468214539 17.3694233691762285
 -5.9638741741537249 50.2783416244005323 14.1832542466362259
 -6.7527912458554491 40.3957768610109795 17.6647039525573994
 25.4541242429762491 46.5011791683338487 16.7988506403577134
 25.3336021861332767 46.3095524383007628 13.4510354668090084
 25.6821293866422735 49.7968803366803456 16.6102405382837937
 26.5767319447306711 21.4814737242268841 14.2636719398288463
 26.4895107042522717 21.4752004985595413 17.6248166369067967
 -7.6876653506041981 27.2387642653151971 14.0039849987449205
 26.3473750901972927 18.1977705212231058 14.2313556252119131
 26.2424793034473609 18.1563211178467441 17.5916331239700483
 26.1179285184497729 14.9083428418443624 14.1671993192206056
 25.9977881989182222 14.8406220005977421 17.5261919349908553
 -7.4491739215986152 30.4151606225571030 17.4863078196034785
 25.8921092798804509 11.6102354196633719 14.0825209674122291
 25.7581011628902452 11.5290902792370513 17.4398366683465476
 -7.4341174376055967 30.5326598502768789 14.1272994397730880
 25.6717984429629951  8.2988554811105395 13.9928364326537107
 25.5250898393237371  8.2224935064106202 17.3481563546038728
 22.7660730572480183 10.0802094267011277 17.2675442119996703
 25.4554119618067176  4.9751751552439663 13.9151424719043515
 -7.2191463184382565 33.7412811289025072 17.5806195411086783
 25.2414642661057620  1.6441020814714702 13.8616765389893466
 25.0775263711557912  1.6184680566304221 17.2159062801969149
 -7.1811032127948211 33.8236497827887632 14.2203374601068706
 26.1672517984904687 59.6364975410559737 12.8876577718482999
 26.3364794314924495 59.6802382155562512 16.2311740296348113
 25.9578636893597974 56.2832067310876738 12.9674961999995659
 26.1216897381817112 56.3852635611095039 16.3111612490691869
 -6.9866677457418191 37.0684858029230639 17.6411817062675276
 25.7502167802654895 52.9425721697166480 13.0974230315706652
 25.9044604968394943 53.0909429093025906 16.4421286871960390
 -6.9304272864503211 37.1117989914263191 14.2800692177197970
 25.5422840137398097 49.6176226970282386 13.2640479506086173
 25.2988211495759323  4.9191943843764907 17.2691082004236875
 16.7347295696703888 45.4129203327328952 17.2120563289662982
 14.6683642259365374 15.7602342254708816 13.6785629066857730
 16.3678955552390271 42.0097086770465467 13.9645255454801074
  6.9862499634143562 31.1674164399811069 14.1456776903928709
  7.0143042464222116 31.0729730491719245 17.5049684814885715
 -0.3453117473790488  8.3049427411664887 16.1862423775640849
  6.7642537233894799 27.8894929875679232 14.0315690219905651
  6.7679756839081060 27.7590563459462665 17.3886022856650868
 -0.3472091857653725  8.4702589811771389 12.8431417040449833
  6.5439283035817262 24.6100446801133970 13.8819129264950210
  6.5232117647991430 24.4469244513236177 17.2360651252376300
  6.3254929713409718 21.3260859131237517 13.7017681540906668
  6.2814575077065680 21.1374884222465127 17.0531499834831735
 -0.1254772079842030 11.6040051105897941 16.3692267153961382
  6.1096134995184430 18.0349069542142324 13.5004092861272262
  6.0447209711058685 17.8323349213956526 16.8491476546449626
 -0.1252831527271590 11.8063834094464664 13.0253512321797498
  5.8955685720146622 14.7330287907193469 13.2919593413249721
  5.8131703710593960 14.5321680221775154 16.6389523435615594
  5.6831977044588529 11.4161778088991497 13.0946548991253344
  5.5869283874010245 11.2342258105745199 16.4398351566851559
  0.0979468905551017 14.9044069957425123 16.5810471071076968
  5.4724277204698408  8.0837422411823052 12.9232130771512583
  5.3657099552111838  7.9360250051520911 16.2671339433525333
  0.0995795405904881 15.1273937018136433 13.2349246691068902
  5.2614361775024738  4.7370210456482900 12.7919166390907755
  5.1486268939232680  4.6373179082509637 16.1348241491422115
  5.0478487569997812  1.3780855302489883 12.7153399396613462
  4.9341872403799769  1.3402110442730857 16.0582908901185739
  0.3253080840656895 18.2075749459309080 16.8056502419713674
  7.2618638929268657 34.3884940793054454 17.5829171889500699
  6.0509502779323254 59.4034561557750322 14.0070118259917979
  7.2102388023496067 34.4460977048319918 14.2223262299541418
  7.5095882485720793 37.7066312930210970 17.6219600710519124
  8.3331631943825997  9.3999403551218599 16.4490048025519755
 -0.0630492983009274 53.2421195260335054 17.5497321155198840
  8.2685458537428023  6.2153479868148134 12.9608292517538128
  8.1131828311744574  6.1008381056242857 16.3042351674360049
 -0.0597932523968557 53.1745416665011490 14.1897472864603955
  8.0585399301665586  2.8647754901129003 12.8608865157422514
  7.8970248540794614  2.8019068547427359 16.2040796279613240
  8.9982062783547487 60.8582556303211888 13.8914138864489285
  9.1337409740054873 60.8694114191822848 17.2469717463459631
  0.1594541417748015 56.5449929691544071 17.4941958541601004
  8.7829395190528796 57.5268851796726892 13.9265465399960018
  8.9146060254965214 57.5717825752341810 17.2822071690160968
  0.1600745745458615 56.4975557392105969 14.1343487807686028
  8.5672129247107609 54.2016596223077372 13.9898301900894175
  8.6923768027964261 54.2716708321033181 17.3457369212961829
  8.3477834170601870 50.8863194052821655 14.0705196434838182
  8.4660701556778744 50.9682374390268862 17.4279945485697283
  0.3789703280280130 59.8456491304742570 17.4624943120410556
  8.1233033035524969 47.5843140413710373 14.1535698997444666
  8.2343013735568729 47.6594496430804497 17.5124015072337507
  0.3762971434980668 59.8258385766252303 14.1025116757264737
  7.8946408302984628 44.2924594836909336 14.2215724922849205
  7.9966037760199855 44.3450002559361707 17.5815426345353494
  7.6651674796014158 41.0071684763574424 14.2603851043329914
  7.7549092111459483 41.0263823310181053 17.6209398219155595
 -0.5614847225844143  5.0072546451331830 16.0479906080002905
  7.4366866176006150 37.7258009826307656 14.2611949291711113
 -0.5663786639241746  5.1192974452286579 12.7052418220917094
  6.1440294889078935 59.4290358235502154 17.3651285523528820
  0.3269286649564320 18.4348567103714558 13.4574768920832160
  5.8352664997060959 56.0757693001897906 14.0511078323512795
  3.0687527970180049 16.3677469504298685 16.7022696747137367
  2.8881961019123481 13.2752776767128839 13.1399381344096735
  2.8419772813193003 13.0682978640805167 16.4854991607775823
  1.5131323369644762 34.7831788973853264 17.6511589705344925
  2.6716620757842406  9.9482330882032848 12.9450081831149628
  2.6194545061264498  9.7698388943730485 16.2889265392991334
  1.4943812441516247 34.8649722053174642 14.2901839308656822
  2.4569677216473993  6.6062920580706814 12.7849596325458172
  2.4011351296872294  6.4714908603059005 16.1279196350557896
  2.2418328717875422  3.2503200255459022 12.6759104532703937
  2.1860099520762177  3.1743156209643208 16.0183913934666080
  1.7562605850585071 38.1070690759277042 17.7106270540529636
 -33.9753462274028166 62.2404847052872370 12.6311623040264980
 -34.0282438529222375 62.2344401758163457 15.9738642624418024
  1.7317340426213526 38.1447889716738473 14.3490265150153853
  3.3209214546506547 61.2803745539854674 14.0658935637965534
  3.3715222866696566 61.2863991647035462 17.4253857992307140
  3.1053981828614643 57.9503824281234898 14.0893772514265745
  3.1519389390080770 57.9877952709540310 17.4487367240869631
  1.9989456547908622 41.4318714757725672 17.7255693312754481
  2.8884172234986845 54.6251762749704142 14.1390719505873612
  2.9304161647402296 54.6860334952144100 17.4983790123989102
  1.9690206150445060 41.4258656510833418 14.3636497781208785
  2.6663956346081030 51.3078135495170429 14.2069211037140644
  2.7056451925626481 51.3814329006581687 17.5671570665995347
  2.4383965122911420 48.0037356257464154 14.2794321568674185
  2.4760232759853564 48.0712889074575287 17.6405371621154927
  3.1071076853321733 16.5869074191937180 13.3550866680640734
  1.2577604476742690 31.5847108469509763 14.1898703686764787
  3.3003841760493136 19.6712239321779094 16.9231486427377362
  3.3282367259788153 19.8852928758819800 13.5741722171542527
  5.9234058037770723 56.1294901957261132 17.4089254541052476
  5.6170786364116188 52.7545304342348373 14.1171299581629572
  5.6996068781669909 52.8269547843809875 17.4756631730796173
  0.5567751894660690 21.5154178992061880 17.0273496738376693
  5.3934344744468259 49.4447036703474581 14.1941712847117838
  5.4720518834565617 49.5202379620533790 17.5540495869969213
  0.5565728669149274 21.7313612890637273 13.6768595891833602
  5.1642807705801097 46.1474666646829945 14.2655232562657783
  5.2385221580036818 46.2071950298771768 17.6260560248301488
  4.9316035546420451 42.8589967380606325 14.3133726870941196
  4.9993475258166891 42.8881694461244081 17.6744995641047851
  0.7918928744881337 24.8281084812678650 17.2316739418369842
  4.6982028493062762 39.5762964714271490 14.3248851660508727
  8.4772571388054700  9.5521709244348312 13.1042217121603599
  4.7564062929835504 39.5656453106715915 17.6861594640102595
  4.4650374582723904 36.2963533848315549 14.2938161581007162
  4.5111239843386146 36.2432020450190961 17.6550314837214337
  4.2334423244498858 33.0169118187104331 14.2212231945351064
  4.2652326537013980 32.9236947838092178 17.5814906777539051
  1.0297227414768986 28.1440629047947724 17.4081506795530458
  4.0038564382763022 29.7378377720661469 14.1096222851134883
  4.0200279467027134 29.6069597902426338 17.4680104411704171
  1.0223196406511201 28.3036830876127858 14.0510728699061058
  3.7767247833866007 26.4581604833985367 13.9611960819695877
  3.7769545867964052 26.2921537165607404 17.3165406708681289
  3.5514246537176715 23.1748942812625884 13.7801094761923526
  3.5366122020453381 22.9797400298997800 17.1320443290760771
  1.2704331719156752 31.4624155303836730 17.5492598207767045
  0.7886783444341549 25.0201672770703460 13.8782161106852158
 -2.8327797639956827 55.1020484373213648 17.5027816252372297
  8.5583255037591712 12.6980077186947860 16.6242643411234496
 -0.2859813349517047 49.8626558087282135 14.2590134446803134
 13.8289115978215893  2.4700149083150489 13.1826817147422375
 13.6096191143514069  2.4221194502028509 16.5280439024475356
 -2.9122603976242805 13.6561216761766282 13.1538398103065326
 14.6869867583945179 60.4409669323353995 13.5913511274913397
 14.8848090290943045 60.4588475016475115 16.9418081988766573
 14.4739611514267228 57.1049681308269257 13.6393732147510232
 14.6668475938730971 57.1621255834274464 16.9895110067364392
 -2.6444714172817618 16.7448637696767477 16.7143554708494584
 14.2609738516006956 53.7765180005206958 13.7198448567113456
 14.4450189950597085 53.8638548697335366 17.0705087168445573
 -2.6781336364176078 16.9723407837004601 13.3672981158873245
 14.0452972237899640 50.4598968336608351 13.8214501216300256
 14.2177828618269206 50.5632870477222909 17.1744360387220318
 13.8265918576260987 47.1579255800987980 13.9285294923260565
 13.9836707735012276 47.2588542761547714 17.2832615760095258
 -2.4170119795558684 20.0531670883371262 16.9355890812410763
 13.6063364219549321 43.8667461555715832 14.0234706124356627
 13.7431833037951261 43.9502715517451534 17.3802572534905764
 -2.4412376508473264 20.2773046232615819 13.5858913348456412
 13.3877322251410593 40.5821126656548330 14.0938258466970794
 13.4995128666672066 40.6382340193007821 17.4520379772603000
 13.1708644152752825 37.3011282716946226 14.1318498960040788
 13.2535159176695725 37.3250570201037988 17.4913424660944017
 -2.1868963248906743 23.3665262751093117 17.1467403004288492
 12.9549319945693462 34.0219317500652636 14.1359233673523885
 13.0060805692248973 34.0122869846624525 17.4959333174180713
 -2.2018231324194573 23.5728565255222904 13.7942681438069563
 -2.8689967224958490 13.4409888602937020 16.4985602584296629
 12.7399870417169616 30.7441918226094053 14.1050748644843313
 13.8277085713718240  5.7221283236425462 16.6129600072063113
 14.0511059225168164  9.0225105723877466 16.7349576701532605
 16.4924912596005129 42.1052473128679736 17.3202446875237221
 -2.7865312071441646 55.0443620912427747 14.1433971624579424
 16.1546320035158786 38.7275055568194020 14.0436480862319168
 16.2478503526973839 38.7946769712241775 17.4013238966870034
 15.9417330104912622 35.4479717442181013 14.0905926885712773
 16.0010299532761344 35.4832735790492109 17.4499032168747803
 -2.6126788469848399 58.4035003833140962 17.4622993847527255
 15.7289848023524552 32.1698184751460801 14.1039948423698220
 15.7536521905488360 32.1720818888313573 17.4642268427815281
 -2.5683312394538937 58.3711450309285169 14.1026885181990345
 15.5162612112625631 28.8926522622056297 14.0826670246140928
 15.5053721882762030 28.8608800111264721 17.4424857935871351
 15.3035384272796868 25.6146596646582587 14.0263366248962331
 15.2561288676895934 25.5498978344352530 17.3845536741922899
 -2.3938954670194708 61.7028024897289598 17.4503607318996252
 15.0908371718771850 22.3345524021446522 13.9371576696999675
 15.0074952187164303 22.2395164438259627 17.2933091272144388
 -2.3526049724945315 61.7024164646921989 14.0904605972666257
 14.8794505741974987 19.0507057481406257 13.8187754383702828
 14.7611482546986164 18.9311698205335190 17.1725380087205544
 30.7151929323099573 39.5164341481516956 17.1091292724968085
 14.5184330029904860 15.6260789226098264 17.0301617933080607
 -3.0905191904154856 10.1396530175512538 16.3033077426894124
 14.4576806341272075 12.4588745264809866 13.5294730279578612
 14.2813395990834415 12.3234538099408653 16.8791968574806575
 -3.1427693155637830 10.3267193228480938 12.9597656083267339
 14.2476584259473285  9.1433447913599508 13.3869659659729177
 14.0384678789917672  5.8128527937672256 13.2670127408631764
 12.7583405633113980 30.7000536821021655 17.4648398973818857
 12.5258538850781083 27.4668178156477509 14.0381116374695516
 12.5098413410450533 27.3883126337933582 17.3964710580179869
 -1.0011568736939704 39.9771169145367153 17.7330670902558012
 10.8593865408654882 45.7251078284528916 14.0923408793223572
 10.9912258446043900 45.8018358496932478 17.4498244913769085
 -0.9945020949767082 39.9925391112576420 14.3711347777376197
 10.6341448640648437 42.4371781018334815 14.1587784681300608
 10.7499692448175441 42.4880070970549042 17.5179257762813911
 10.4107414781437537 39.1543156391729568 14.1933500653054079
 10.5056367294873194 39.1718835303921864 17.5534115134061430
 -0.7609148088754526 43.3016621829034136 17.7278459899383556
 10.1891795683612383 35.8740441396224412 14.1920261504839722
 10.2584026994148463 35.8561548543286435 17.5522965397108095
 -0.7550404067516503 43.2761305257948621 14.3656627442369889
  9.9697643004791345 32.5951720608731534 14.1547187952665041
 10.0102986452470493 32.5417777020262520 17.5145077065011172
  9.7519969100688861 29.3176375255282018 14.0807026779488087
  9.7624645136131090 29.2285929672132312 17.4393185649116909
 -0.5225754308520633 46.6217054052187052 17.6857315100733921
  9.5353190252426412 26.0396382380479174 13.9702026670168653
  9.5152291292948821 25.9165903988300101 17.3266120584446064
 -0.5179810413640169 46.5647303176750285 14.3240877479468072
  9.3195556870314427 22.7590954522723834 13.8264657924036598
  9.2691366468333847 22.6065610474509597 17.1803461359318916
  9.1064535912283677 19.4735831648859232 13.6551923043310879
  9.0266303404779844 19.2995167463580977 17.0065434688719037
 -0.2898265396371417 49.9353607183869030 17.6200371270996321
  8.8960179923943095 16.1799072324878992 13.4667303358620689
  8.7896934508263058 15.9968937239722724 16.8157311397337743
 11.2277381931956874 49.1113077551978847 17.3603235989251274
 11.0831005190313370 49.0209836518478284 14.0043035435235250
 11.4578315062665013 52.4155355423533820 17.2646316623886200
 11.3029521673182867 52.3292819953681771 13.9105081289867876
 -1.9545603821083160 26.6841992863659421 17.3349784707399053
 12.3122325946312330 24.1878049654555198 13.9365584548605987
 12.2615567886091821 24.0776339822051355 17.2928450303277188
 -1.9607628081139450 26.8615151411077306 13.9798785672098447
 12.0998020475552490 20.9056781783843810 13.8043975884034076
 12.0149950820624749 20.7688694505124687 17.1580699538978685
 11.8896804736087631 17.6182190280657878 13.6474504175958007
 11.7724738590179907 17.4634663022255516 16.9988204243398613
 -1.7195627700832863 30.0041052925912197 17.4927368585074774
 11.6807217170288933 14.3212080503841257 13.4777062577888653
 11.5353812826811541 14.1617639989827566 16.8268270708895251
 -1.7190268991822002 30.1464824701447505 14.1344989731317749
 11.4720240771721880 11.0106225450269672 13.3112772406297921
  8.6863316776620483 12.8738231970396075 13.2774378382709397
 11.3045001504427916 10.8622904357543870 16.6584410290731846
 11.0801649079367959  7.5630014252774975 16.5095799681641964
 -1.4815537370235934 33.3260605899427276 17.6141931076996592
 11.0550220762988634  4.3437971835959441 13.0505020396254654
 10.8612029536916275  4.2632823837622524 16.3943706647404461
 -1.4767835141483150 33.4292700670262590 14.2536006785645704
 10.8440039814723121  0.9919217519688793 12.9827465362902554
 10.6455505710799834  0.9642917825858176 16.3269392458425742
 11.7331208613589002 58.9811941114931315 13.7707224952265079
 11.9022454734399332 59.0143130844362105 17.1238618814805754
 -1.2416120788554690 36.6506048235149180 17.6953213833727432
 11.5189238615487728 55.6510506986730320 13.8282346184912956
 11.6821570704920088 55.7160678676995360 17.1811620581158842
 -1.2351144125859597 36.7109480084750714 14.3336914751958027
 11.2635393860087198  7.6844209313950431 13.1642345904394631
 30.6842669208994643 39.3122781309111460 13.7579523256246858
 -9.0426831668077252 48.9057750564133684 17.4864453156842856
 30.9501323598890394 42.8228867172017971 16.8968833434745704
 48.3880695593157455  6.6267750931193987 13.8130973330999680
 48.5600902380755173  6.5505225560997573 17.1667595915017692
 -19.6283765406906987 59.6053043282894137 13.3352643138215221
 48.1658193877459340  3.2967267838442100 13.7638748858060804
 48.3393063955821205  3.2514963094780520 17.1169224011898038
 11.9479483615326565 62.3169947999549336 13.7479831735040214
 12.1199201902773570 62.3108704331419787 17.1010344284364102
 -18.4293387729870446 37.8977834736300565 17.3851499478598015
 -23.8261102900413384 41.4912710319539428 13.7696468594021137
 -23.9137259958353390 41.6339142510093652 17.1232995296572348
 -18.3565509387516883 37.8398278512114814 14.0271232542562903
 47.9181990696176356 38.1854283480037822 13.9041355806483544
 47.8663040939021727 38.3084301021913731 17.2599838566197299
 47.6596454288019657 34.8826802465297376 14.0184062222503361
 47.6425779469092987 34.9806518728022482 17.3763754489771216
 -18.2059203864980610 41.2258397926929163 17.3121276364306347
 47.4008788751996022 31.5826603151671748 14.1077417469891166
 47.4171521616449496 31.6515323132312965 17.4673193737718933
 -18.0980496748684772 41.1434135686314164 13.9561494580417556
 47.1425526192266631 28.2843412858701519 14.1688899186801400
 47.1896218869858401 28.3224805667150896 17.5292130829037731
 46.8853811395729068 24.9877022595181941 14.2017543375722255
 46.9611090300332990 24.9942598423120401 17.5618500738704491
 -17.9820846764254370 44.5496047874710541 17.2206402795026214
 46.6309827091789231 21.6927630398653974 14.2050482439231267
 46.7307106701464221 21.6685535881131557 17.5651109026551318
 -17.8412839217865553 44.4500925675926837 13.8667622902154566
 -19.8550054569139043 59.6335687058283028 16.6817464818826124
 46.3800476209936292 18.3980423698093389 14.1796668871009057
 48.7865668193298845  9.8531467429837232 17.2401621463170009
 49.0170775150441358 13.1619154504586220 17.3216036137005815
 51.3204009660217508  4.6957478572732381 16.9683320605425010
 -20.5758960660888306 46.2829497721567122 13.6799354248839276
 50.9033155449374206  1.4248581992282419 13.5841582380372312
 51.1027187710972228  1.3987009686866350 16.9346816005251952
 -21.0895439435584500 39.6653558418701735 13.9130583269063468
 -21.1722061204280934 39.7673652436755773 17.2690345095571480
 -20.5063046897644270 49.7252762802848025 16.9068933698060562
 50.6531164148283537 36.3615190463916633 14.0053048446534802
 50.6078583164247959 36.4390045063497254 17.3636779781655868
 -20.3261960767767320 49.6002416332438187 13.5574917818909917
 50.3922332636144432 33.0589082592951158 14.0758775048322136
 50.3848396964969822 33.1098412697587889 17.4352765878498950
 50.1315261793272100 29.7576354472791884 14.1207790649691969
 50.1599843524950728 29.7797527950413503 17.4810744365723139
 -20.2867225552779082 53.0320086895160756 16.7979217140633033
 49.8722371324718381 26.4574279386467879 14.1392083676956748
 49.9343411581720176 26.4497734774916538 17.4988365869588876
 -20.0834791342117214 52.9266732730747833 13.4496348908825212
 49.6143711661269364 23.1580760357049122 14.1305378464371447
 49.7079525086312941 23.1213999145742655 17.4891868977041902
 49.3584287815874063 19.8585195078557994 14.0960329230234667
 49.4794311524366393 19.7966325247490751 17.4534676718312127
 -20.0696226336278336 56.3338920057139987 16.7193711354918051
 49.1058314338922770 16.5579620426563956 14.0389549739496005
 49.2487681192248417 16.4766610061769185 17.3956120939002048
 -19.8510482827922985 56.2625047602473884 13.3719648247884155
 48.8590476720390967 13.2555436349086886 13.9661754365227235
 48.6193537869122991  9.9466678817096010 13.8858198818574774
 51.1226072091921111  4.7614805629654198 13.6175549903788227
 46.4975906224320923 18.3463914157002534 17.5389661369012018
 46.2626874114031565 15.0287175931206676 17.4874757560195064
 43.9810209297641421 23.5435266171085544 17.6370379650420546
 -16.8844475524369741 61.0835423470703773 16.8691973456512230
 43.6560682415164294 20.2400684697304385 14.2819850348433626
 -9.2739947270660057 45.5894851104754153 17.5469294827683520
 -16.6641859930930281 61.0766619431114037 13.5206602973684582
 43.4104837143004403 16.9490291211356094 14.2554685061375519
 43.5076470433140443 16.8987731581796545 17.6158870447844151
 43.1692011432524012 13.6542250685076407 14.2027076648167991
 43.2702963421392326 13.5823081235963929 17.5623789235139469
 -15.9088673250471082 32.6964902650815716 17.4698578199030585
 42.9338400059970056 10.3512977628882545 14.1340926121163548
 43.0358036401935067 10.2717312066498891 17.4928451180627214
 -15.8860012961226769 32.7141509216577262 14.1098098606826685
 42.7052390359530634  7.0360060014347354 14.0664370585735448
 42.8063600141245146  6.9676122562510896 17.4245876520165268
 42.4841923848644072  3.7108372118730322 14.0164104102617344
 42.5838644860450017  3.6672631489756640 17.3740722140658868
 -15.6847695806175800 36.0268297180435724 17.4660134907093365
 42.2677789401592605  0.3795145533920648 13.9942777612276590
 42.3644044998292770  0.3698832505343178 17.3522193964054665
 -15.6257799592613065 36.0147229360014904 14.1066377330905244
 -28.8371246660792977 51.7999794032679759 13.0588108712875055
 -28.9581697645726699 51.9631668231780850 16.4035934499755776
 42.9256524651345543 48.4673679890738711 13.2322167504115438
 42.8264196141613951 48.6590022127575779 16.5788057426980124
 -15.4605611354124530 39.3562719427018521 17.4356228626331351
 42.6816948821527902 45.1474580721072698 13.4273041627970109
 43.9046095796548670 23.5297474612549138 14.2757926573487257
 46.1335304637198433 15.1019017246263196 14.1292739115158223
 44.2140945212892760 26.8692888168611539 17.5965217825742215
 -16.8821894672262225 57.7361150554119789 13.5339175770796611
 -17.7590037625653778 47.8675756483687778 17.1194080092409386
 45.8929848775663629 11.8010749224850766 14.0612848861022623
 46.0287632602493701 11.7158703259859696 17.4182896465186232
 -17.5895300861981951 47.7601524545349960 13.7673165805774556
 45.6592126399012699  8.4901031210600237 13.9878961841933673
 45.7980443200861842  8.4093301801967275 17.3442943813614434
 45.4335497387349463  5.1673134035510841 13.9271693452178020
 45.5734329061616990  5.1079664994087581 17.2829667731323120
 -17.5371112607760402 51.1787143667003335 17.0197546064513077
 45.2151640965169292  1.8365647723308935 13.8920605958635335
 45.3535707515784523  1.8098068380227514 17.2475719232582563
 -17.3442597019409668 51.0761751320073216 13.6689903535067003
 -26.3173666436114289 46.6317583871562817 13.4273363074641754
 -26.4343628807940867 46.8100203700944206 16.7758812917670710
 45.4338130370707134 43.3176791614960734 13.6042608259966009
 45.3473133260068906 43.4951469035012721 16.9549084259742777
 -17.3167191434905838 54.4835465088318927 16.9362402047246228
 45.1796316065197985 40.0101926976810702 13.7757732500307242
 45.1248568502683796 40.1745476614327757 17.1287347427758547
 -17.1077446742556063 54.4016089501033946 13.5863138532126797
 44.9243066478164010 36.7080094143008608 13.9300977727271640
 44.9002123538657401 36.8494321018424387 17.2860471950531753
 44.6685894327003794 33.4095257908131771 14.0607349649533333
 44.6741736646710308 33.5226707619791142 17.4191419733347850
 -17.0996993770298609 57.7842519277391773 16.8829841751934779
 44.4123732704389198 30.1137934079147449 14.1632745573679042
 44.4452884045521515 30.1955548913856227 17.5233462290452700
 44.1571987950938549 26.8205201832608751 14.2355416440927200
 42.6055840503389192 45.3499575211559431 16.7755410230333943
 -20.7272606519917026 46.4121124264728806 17.0309341030828669
 51.3506018232636023  8.0903944597015656 13.6837365866479104
 62.9842254111519821  7.2136136577983425 16.3470336317349449
 62.6021139930141004  3.9964761373941853 12.9088337631480883
 62.7679207184907426  3.9154484547998223 16.2519429249400602
 -26.2146717563490448 50.1188777869687172 16.6068305172838357
 62.3824365808984922  0.6397371625933992 12.8675715890963502
 62.5525640726987575  0.6191479909418570 16.2111525967662367
 -26.0703345567579099 49.9554032474994614 13.2601119466115254
 60.8094049422167799 19.1590401483392014 13.6735280491153954
 60.9091585816811190 18.9824292376554951 17.0246364082880284
 60.5550684674093276 15.8467903512407489 13.5122966356858853
 60.6851696421271711 15.6670968113431837 16.8605470593614548
 -25.9971119429862547 53.4222295292654294 16.4643467437315039
 60.3050228072634553 12.5269237468473733 13.3544452312345410
 60.4611240320689234 12.3575722561579440 16.7009956446708792
 -25.8298412832826152 53.2914423101270387 13.1195455102536762
 60.0618364622627467  9.1967215635605388 13.2144740960015987
 60.2381654391653640  9.0541106533812581 16.5600458317757564
 59.8283316617017675  5.8563533250118560 13.1071583467627235
 60.0182507338971121  5.7542250197989322 16.4520100393098936
 -25.7826323398872894 56.7227112180350019 16.3641757283291795
 59.6044130906912457  2.5081531150561869 13.0430810570413591
 59.8016468686046707  2.4562092070841772 16.3873994122892412
 -25.5981112988227260 56.6379384782488202 13.0200740152528294
 -13.6736924006940299 24.2886496710755999 13.9478760204506305
 -13.6120764361537887 24.1687662378054426 17.3042340941539514
 58.0697417694647484 20.9840795260442370 13.8345508488856677
 58.1670881047317394 20.8433185759982678 17.1882603298355505
 62.8296017697216840  7.3463933909853694 13.0033475839529942
 -25.5695757119837914 60.0219493288208952 16.3163204243530799
 -28.1570200961323245 61.8613476385683825 12.8182909120500916
 63.0655735035846305 10.6864464173704476 13.1418317025787701
 -0.7835699445610506  1.7561243640208160 12.6265693523463991
 -0.7753545450377751  1.7106037600889472 15.9694050587697358
 -31.2795850852584643 60.3999284733795250 16.0484557656147828
 -3.3689148713510568  6.9828169753263660 12.8006560539675345
 -3.3085713036193845  6.8405977128607827 16.1439998376372849
 -31.1708718331345125 60.3690008951056640 12.7056753604884296
 68.4119193902576086  3.6256461680135161 12.6933748509142745
 68.4793919440956245  3.5428868192691754 16.0362106150942942
 68.1939977037911689  0.2599057244691759 12.6494271172155877
 68.2658682066686282  0.2466915576310325 15.9921383244822266
 -28.7433628309076354 55.2638859831008915 16.2671024892547287
 -5.9258126831091245 12.1747119163797581 13.1207654560131175
 -5.8338709064346785 11.9772695950793651 16.4657396966441887
 -28.6036747765878872 55.1457198569038951 12.9235381756850423
 65.8422987285933630  8.8386835842634994 12.9515664437254294
 65.9483119860072691  8.6758295991137100 16.2951831330523795
 65.6137483547513369  5.4896042400038692 12.8237784585109171
 65.7315595974890954  5.3770989631127160 16.1666279661139036
 -28.5313165139593217 58.5626689515710481 16.1834125070790762
 65.3916987812669248  2.1309059397458343 12.7502749673062574
 65.5171848032105117  2.0801765494217208 16.0930590220660115
 -28.3774276585997072 58.5008784087109461 12.8404737330805645
 -8.4455899413835560 17.3311892944157648 13.4956379175705532
 -8.3517744411356833 17.1286455296238884 16.8440372646123357
 63.3085867860995464 14.0142704711750863 13.3109414953271656
 63.4269790973647147 13.8189501637374583 16.6576431433409482
 -28.3185261432695725 61.8605023037663102 16.1615110130955983
 63.2042534006087919 10.5143271960939728 16.4867127346903963
 51.5426261708817108  7.9956657379923337 17.0357111227395954
 57.8122336978204743 17.6754228725427787 13.7055751447594663
 -25.3744827727689959 59.9913709974115719 12.9726112436948267
 -22.8339426756439110 54.7801730872274675 13.2281369710446484
 54.0895865599477190  6.2322362574970658 13.4666786393837370
 54.2966613502939879  6.1436706657806823 16.8158174026619136
 53.8656522152323944  2.8949121697211249 13.4120839582024107
 54.0785968759173841  2.8457594233162284 16.7603399657810677
 -22.8202254304315311 58.1797490493241654 16.5076224857253138
 -18.6169041984716657 34.5379479265873570 14.0750925137583902
 -18.6523293484175809 34.5679353561917679 17.4349397610330037
 -22.6062016789979090 58.1253803583056765 13.1624464875395208
 53.1236376443484346 31.2359727812932313 14.0990919191888793
 53.1272471815953722 31.2377501075310029 17.4594394424356345
 52.8620503009019700 27.9340007746887053 14.0982744405331726
 52.9035719489480414 27.9079354480807424 17.4578647235764528
 -22.6066973236602529 61.4790478612937363 16.4912192554419335
 52.6023504075951962 24.6323892510273836 14.0722911335974601
 52.6797238431181896 24.5785697230281919 17.4304926368486441
 -22.3860167435730695 61.4759671459627484 13.1459109385307382
 52.3441660069081394 21.3302757568440171 14.0216447241935267
 52.4543613598283756 21.2514322802021631 17.3782637242060503
 52.0876136806321952 18.0261491505676759 13.9501845798347812
 52.2270521645564259 17.9286581250567139 17.3047985266835305
 -20.9495440437195874 43.0926057919238872 17.1557187244701552
 51.8348940596738643 14.7195590255798052 13.8640613584643315
 51.9983741386566649 14.6114345245243360 17.2174390407557603
 -20.8310753944160503 42.9720496590954113 13.8020831734811598
 51.5885826471953948 11.4090880624571653 13.7715026215330845
 51.7696949879096167 11.3002695719455080 17.1237707250260627
 54.5199671686482716  9.4450531809866032 16.9038611323195980
 57.9426210242767894 17.5226230404491439 17.0566297881388813
 54.3244378406960635  9.5614056879616314 13.5542501034632554
 54.7463826992062863 12.7520762549531028 17.0113487212532846
 57.5580255224797170 14.3618742968802966 13.5701539904436679
 57.7176628482230072 14.2078883668979685 16.9192146038328097
 57.3095578902360927 11.0410997439080187 13.4396893745205901
 57.4927622033577492 10.8995697196329449 16.7872360882329410
 -23.6921381754713316 44.9545475505502878 16.9733172106693893
 57.0695847486475216  7.7108136158890543 13.3276316546985356
 57.2690235018133222  7.5967827883201799 16.6747501196997909
 -23.5696896200947670 44.8012526269945255 13.6224862850192121
 56.8403550654944567  4.3720576011127061 13.2482433382257021
 57.0497754461571418  4.2973342853606802 16.5944786143338447
 56.6197706602349911  1.0260137849262991 13.2107784762427283
 56.8338983321423470  1.0003828958484484 16.5569667678569417
 -23.4714596352914882 48.2688476162847806 16.8217416905795822
 -16.1473522135171024 29.4132071398601802 14.0868854553838059
 -16.1324672925067141 29.3663112431733531 17.4469544902955782
 -23.3177357294923659 48.1174679925595328 13.4732350065049165
 55.5943295675320783 26.1113455227240969 14.0397085531813328
 55.6474263268158253 26.0372342382181117 17.3979775076819436
 55.3345565489876066 22.8082620437944676 13.9692840464340708
 55.4241919620931540 22.7094756763367656 17.3254156839893128
 -23.2520340203328431 51.5768422914749607 16.6832695481173978
 55.0762405907991948 19.5029313198903935 13.8781807668486543
 55.1992132635187147 19.3847432385962186 17.2321140808204660
 -23.0714234435554673 51.4432295112076190 13.3362243709489015
 54.8200492400437369 16.1942996143217712 13.7723850557049392
 54.9729735607069259 16.0654669581416769 17.1241986688922552
 54.5687817021933128 12.8813253696006313 13.6611235249844061
 -23.0348298568048833 54.8796088459715961 16.5742610772285239
 -15.3678656437239756 39.3154737921191781 14.0776389172573637
 43.7453283411893352 20.2195832203928987 17.6430352762101599
 42.3827525161138965 42.0353630100718973 16.9772066787016520
 -11.8028827846632947 50.7687789756952270 17.3303769441537732
 35.4837438619002370 25.7746862764520444 14.3431111077895359
 35.4838549244507817 25.8440071674988978 17.7047903580791832
 -11.6462648521196446 50.6859229786282341 13.9747110676133168
 35.2429395597535589 22.4931838705288207 14.3902611629462811
 35.2403320958349013 22.5188705639319551 17.7524731162274527
 35.0030812165139125 19.2100588484751285 14.3944686847493131
 34.9957057769726916 19.1949771430420668 17.7567975724820002
 -11.5791700785105771 54.0747137015275143 17.2612035140020872
 34.7649730420460870 15.9229117536785019 14.3605542995955009
 34.7522419457289971 15.8745134387628983 17.7226927954589648
 -11.4143413402162786 54.0029224968860504 13.9066692513031605
 35.7274170573459671 29.1674059014762648 17.6140792643538013
 34.5312819712815084 12.6286821133662546 14.2991551847975362
 34.3028838423442437  9.3223613619881469 14.2254625087604989
 34.2784725167387023  9.2503814923721848 17.5861905030303944
 -11.3596501927353160 57.3763338365802937 17.2129259504175849
 34.0806946780501789  6.0032278498141896 14.1587797490177145
 34.0506187649122509  5.9468541839052262 17.5186198917448301
 -11.1911983964190274 57.3305016649760830 13.8589908583456189
 33.8637038684413270  2.6772980449397537 14.1110769531201132
 33.8279306940341726  2.6455021338084537 17.4709331375530503
 35.0016326785178435 60.7433809334094619 12.6180316601977420
 35.0136526184811174 60.7708256734046515 15.9606520391303235
 -11.1420898716378236 60.6756945485484209 17.1960289147824668
 34.7854326373371094 57.3776216087270896 12.6816856451339302
 34.5127946924199946 12.5590165124925832 17.6606611300806620
 34.8012060787758628 57.4751920998888721 16.0241846450789396
 35.7252218145378961 29.0561058296807424 14.2535615575671244
 35.9659197656935845 32.3382959937585568 14.1247926266555410
 36.8210352270804293  4.0866852583701565 17.4909395416517732
 -12.6385397553615935 37.4872977974082815 14.1624295029143799
 36.5928726223500007  0.8013493106964287 14.1010133589523505
 36.6000682163112856  0.7876668388691556 17.4611734420601543
 37.8097750952207221 58.8724917597779438 12.6585182248244550
 37.7628200847889985 58.9379454209522251 16.0012182187961756
 -12.4873889972408350 40.8131246384199500 17.5069482254348898
 37.5897529688478258 55.5107955015701222 12.7546023397556016
 37.5503629036090985 55.6408506809706225 16.0975708852289898
 -12.3838961553741598 40.7841355885209964 14.1480854064611421
 37.3664285692980584 52.1621533543748868 12.9089040689359642
 37.3356382975215908 52.3425750225970532 16.2519921987621778
 35.9688993226563340 32.4881406113410662 17.4830007782132206
 37.1397354361072800 48.8293233293929845 13.1036800390674557
 -12.2590800820203683 44.1375395000283817 17.4657966005204237
 36.9103352657905148 45.5112140628919377 13.3213119760416667
 36.8964770034238754 45.7391743424317738 16.6682732032012133
 -12.1321081521577998 44.0812629716705899 14.1077653693269962
 36.6774479072349067 42.2058534215634324 13.5467272654707926
 36.6709307146096606 42.4328711805049466 16.8962743266193911
 42.4342189936753158 41.8375454238170335 13.6268211115066045
 36.4406674512811435 39.1218903008994801 17.1163187584698733
 -12.0297966340905624 47.4564379352235690 17.4035489713635840
 36.2046160961966450 35.6224911171112666 13.9598304390147927
 36.2067207087673069 35.8064939627742334 17.3150949176906721
 -11.8858228705905287 47.3803849337838940 14.0469193629828286
 37.1178532379847823 49.0420635540190943 16.4481726111490723
 -10.9741151873718774 60.6644886665425886 13.8422517364872277
 34.5685672413814586 54.0223793595677293 12.8093809838287367
 34.5871204483350709 54.1790819583983350 16.1523034067380102
 31.7520293110363667 14.4256057943273408 17.6696004663823878
 31.5768263449652373 11.1873108051750467 14.2355251401433964
 31.5145500240862262 11.1133666034921763 17.5961002277955139
 -9.9669887666978845 35.6133290955388659 17.5701876022219921
 31.3529083145050116  7.8746550632625310 14.1591568869763140
 31.2828517615432951  7.8071492177534996 17.5185657416850233
 -9.9096867555113768 35.6570854294743356 14.2097051921037671
 31.1342716549100871  4.5517441716757157 14.0955443936471365
 31.0572391491870192  4.5041374244894348 17.4541321980448920
 30.9191501699421316  1.2230255952220495 14.0543916487926399
 30.8356330211752940  1.2038119840121493 17.4131860925212791
 -9.7379299129835477 38.9413719054464593 17.5940691410325627
 31.8068086551067246 14.4866106477768604 14.3081463192996345
 31.9771772574968445 59.2492699611633498 12.6761155488400235
 -9.6567175555170479 38.9491027897536952 14.2336860938862131
 31.7639658459335408 55.8900685527414680 12.7702616611246746
 31.8378856452597212 56.0133229739522065 16.1132471242342241
 31.5518959173846554 52.5435860610453176 12.9207354876860592
 31.6220890463097675 52.7175729788216714 16.2641354903730750
 -9.5067919640686505 42.2675535112331957 17.5854455671813419
 31.3384408868382600 49.2132341809475733 13.1117873649401275
 31.4027390809872706 49.4214517093693431 16.4566261730765113
 -9.4075539409677411 42.2402782889103250 14.2253782760658964
 31.1225302765942295 45.9002363961590589 13.3272169962097369
 31.1791306452421324 46.1239611144055104 16.6736540913011844
 30.9043100693147537 42.6016696781501025 13.5486307222964832
 32.0515273619930738 59.3081280186018773 16.0187827245741907
 -10.1655942033207118 32.3622095900278097 14.1554266479344868
 31.9943581122087650 17.7439017850443719 17.7219931589137651
 32.0410934349396896 17.7767838120517112 14.3599568426137996
 34.3503269675264136 50.6822149073563466 12.9873121258272857
 34.3705152738791142 50.8815810949010370 16.3309919544295710
 -10.8694998662704538 22.3036761870277225 17.1799948018011079
 34.1293584920530790 47.3587258481343483 13.1974981685464510
 34.1502980771561582 47.5825370702258112 16.5430361840669455
 -10.9365383221159913 22.4652488171983045 13.8265352659156910
 33.9055704997364415 44.0504163675722964 13.4233325500318585
 33.9260419269866063 44.2813861031036353 16.7709043017799146
 33.6792674274120998 40.7539714121597214 13.6478345444911042
 33.6960955086791500 40.9760357418998638 16.9977338034798002
 -10.6456019375055320 25.6291955039978490 17.3173549141869572
 33.4511815625099018 37.4655432331166622 13.8552782026346062
 33.4608984396530076 37.6653911477562104 17.2085378006556979
 -10.6793717923821116 25.7667855659311726 13.9613584903600696
 33.2209848790636713 34.1824631621047317 14.0352628094947072
 33.2215591767176761 34.3511328943086411 17.3919272953846225
 32.9880161645430121 30.9018640602755994 14.1810148304165811
 32.9786860964826829 31.0337372414852908 17.5403584778865103
 -10.4209568573216256 28.9568098233693405 17.4305469059970015
 32.7522704911547535 27.6217303115204587 14.2884279332131854
 32.7325553900718731 27.7135393952137541 17.6494285247391467
 -10.4224725613905900 29.0654179786519542 14.0722810610311502
 32.5150033650975843 24.3416920555902827 14.3549555097436770
 32.4858908684376360 24.3903545097945269 17.7166272445154895
 32.2777563649770514 21.0609211641774792 14.3782381189449371
 32.2396466313487053 21.0662472243273129 17.7402695876345753
 -10.1945840651145598 32.2850623321179953 17.5152092564322928
 36.8086970981813337  4.1305379780327440 14.1309548323347762
 -12.7140241493543211 37.4851736062336229 17.5218841495192912
 36.4417579745067428 38.9106736018485648 13.7642158257112186
 40.3839874050932082 53.6515722090864671 12.8852842374845000
 39.8138260558483097  5.5269847963024512 17.4744802963516968
 -14.3739194752373933 52.5425715191087477 13.7912529913101221
 39.5376899435440521  2.2559814932314781 14.0754683025714655
 39.5926858397195645  2.2274774125098267 17.4347751666832167
 -31.3921628184629355 57.0057913774562337 12.7643878315197448
 -31.4912802339356865 57.1022451889353704 16.1074822143313376
 -14.3408423265331226 55.9315387781532323 17.0800263345295029
 37.0450687310104954  7.3882740002025891 17.5454155314995965
 40.2986625172643116 53.8034575377448832 16.2288479720968901
 -14.1449935698222866 55.8686673245983272 13.7283123710393369
 40.1525266984077760 50.3105757062961629 13.0547223113898472
 40.0824936797790130 50.5027140733621280 16.3990943807358356
 39.9173137713228954 46.9842851363795120 13.2550675950697627
 39.8629272625212536 47.1985773348209534 16.6010837690538153
 -14.1239624421237817 59.2315165492340654 17.0469482280033446
 39.6786361039244113 43.6706981351154653 13.4696558826544859
 39.6402796855522652 43.8902214362604681 16.8183307250012462
 -13.9247736866357368 59.2030309886379413 13.6957110873533541
 39.4361407023937929 40.3675586605937653 13.6830577551885426
 39.4143069079150337 40.5774635752225308 17.0344524306243983
 39.1916227074683832 37.0724330451827839 13.8812686352451991
 39.1854022377100293 37.2600395481970779 17.2354558562402538
 -13.3891845058682737 27.4966140530094876 17.3987121808717440
 39.7556286352887156  5.5833123253834076 14.1151570499520442
 -14.5612522729568106 52.6284876017485743 17.1439214869618368
 40.0402407455014142  8.8296582136668871 17.5364082502206671
 39.9795871592919809  8.9030526693995782 14.1764280697867378
 42.1840302907238254 38.5356245643028856 13.8156700446427223
 42.1574299793249594 38.7155767671436450 17.1690023068653019
 -15.2356812133265400 42.6828177975408281 17.3813264838013595
 41.9329183800730334 35.2390829774609884 13.9834488423199765
 41.9301260260903845 35.3926298273357105 17.3398659038210106
 -15.1114831576181707 42.6174268470304796 14.0248032287164826
 41.6810981068003983 31.9464037337673581 14.1240761831568200
 41.7000324652303647 32.0687740992095272 17.4830073942272008
 41.4295120155694718 28.6567800002299542 14.2329211088378660
 41.4661672930156939 28.7446477549942649 17.5937305071499885
 -15.0098132629876186 46.0045486009885138 17.3085552851548812
 38.9464781493838643 33.7826637532182659 14.0539300293800640
 41.1797274520404457 25.3696764375803134 14.3071511320263127
 -14.8586045056335347 45.9210854294101694 13.9536268157186019
 40.9328788010328850 22.0836192736127224 14.3436686106199307
 40.9919108027411596 22.0943985694522489 17.7055493268041069
 40.6885922997645579 18.7966544766008994 14.3419947872457385
 40.7521526698076215 18.7710202277000029 17.7038690130636738
 -14.7845576303612347 49.3199769416154155 17.2255594392769105
 40.4470291415581187 15.5065656336786386 14.3065861568235402
 40.5119360553908123 15.4515532614357163 17.6681415897542422
 -14.6126429831643971 49.2277585100650228 13.8717043911337932
 40.2104165350268445 12.2104469840909999 14.2466672468014384
 40.2739125187693290 12.1371715578591672 17.6073674737666082
 41.2298895506209888 25.4197458581016669 17.6687398124429897
 38.9533331231277771 33.9400417833345003 17.4109807048137135
  2.2053205262633826 44.7111183789417623 14.3372277745586221
 -13.1649457670464862 30.8260633579161585 17.4678370944774422
 -13.4142991752637801 27.5903172523097560 14.0403515001846380
 37.7253693142379305 17.3583828141119731 14.3709226125320146
 37.7535060212719387 17.3226402219393165 17.7332370124128467
 -12.9396230757611068 34.1557912722979609 17.5089933787230585
 37.9667568216863529 20.6447184436466600 14.3870699663136481
 -13.1550073717579199 30.8900486614730454 14.1084044594713660
 38.2376923226222445 23.9699921805805864 17.7257216526220276
 37.4876480904922857 14.0673888496486974 14.3227633785868438
 38.2095448443867909 23.9287355689452319 14.3637124812982542
 37.5126247753074509 14.0051101347232940 17.6844875859949582
 -12.8959744754095027 34.1891586779590000 14.1491368059811702
 38.4780828591008870 27.2952272118075747 17.6600779196691064
 38.4543321377362659 27.2120388515265184 14.2987051647772603
 37.2551808064696459 10.7674155244747336 14.2546403306275717
 37.2759066218326467 10.6934571743679054 17.6157281519474687
 37.9961201213749789 20.6446742461222179 17.7495054191414710
 38.7004442451007762 30.4962865945572332 14.1944006437963441
 38.7175391744581745 30.6184424534409558 17.5541308113421373
 37.0287991391949518  7.4540052160647061 14.1850420071700469
 -11.3639921222288720 42.3867563621136796 15.8460214432400530
 -2.9053936091676538 40.1228319755074025 16.0465997928848054
 -28.0556276453725673 50.1584787787460513 14.8457752945153310
 -11.8457246405507277 35.7627467969213271 15.8579774712120862
 -16.6052568787360819 49.4049761930059717 15.4455024562778593
 -17.8053394950320580 32.8291745340115639 15.7771228947477979
 -20.3008129061115596 37.9927849453110511 15.6621030825249541
 -4.7169800513986297 55.2148708800855914 15.7928858002250401
 -6.1268925735934427 35.3679082041958424 15.9507144929514197
 -10.8887179628402428 49.0056057826106795 15.7336526955414922
 -0.8834970783942216 28.3566525405594554 15.7387599904535875
 -22.0938668115995611 53.1060402266315492 15.0034125348419582
 -9.9982294759835160 62.2624020153058737 15.5669009916445962
 -27.8280451679410419 53.4797144739131127 14.6921776066778413
  0.3148635054650498 44.8719437877514693 16.0341437855863589
 -11.1243965769590627 45.6963600670538312 15.7993443986251378
 -12.0878322623106929 32.4491507963918338 15.8209750844861023
 -14.1023003055712906 44.2399012269431751 15.7108030426690153
 -1.1206425035663095 25.0546681901957307 15.5631622898738069
 -14.8255909041862850 34.2971813447290046 15.8050706907240741
 -17.0807938227277347 42.7766300778332749 15.6288474732271130
 -18.6814759251232232 61.2163378094372206 15.0671508684609243
 -4.4977555538346268 58.5295422125874651 15.7539003826525335
 -5.4065316201264562 45.2876150143845564 15.9780536264352477
 -0.6447316210749431 31.6581045510853656 15.8801160117464750
 -10.2148247428401930 58.9455090884162374 15.5671785373641729
 -14.5837308396721905 37.6122571708030478 15.7987163272869680
 -10.6583622073755677 52.3160095226227284 15.6616602238669831
  0.0761358025132016 41.5676549170970802 16.0596209841846544
 -5.1709131969454667 48.5942327387542932 15.9222429309317590
 -3.1459022437662547 36.8173594252436587 16.0110640269014972
 -30.3732146138016859 58.6564120939004283 14.4222352891981256
 -0.1640828755433624 38.2634850691543420 16.0436492993348701
 -21.8693508220310449 56.4272958288850219 14.9177280500538831
 -16.8412170993474106 46.0913234122247886 15.5404848050205420
 -14.3428078081162749 40.9267898380249093 15.7662365924229135
 -17.3216543042484723 39.4611312379915375 15.7016248820596207
 -7.2481465612611844 60.3959934490949450 15.6715860633802322
 -21.6507304565145375 59.7513505602302004 14.8771518626750474
 -17.5631777953826216 36.1451648374874352 15.7518990373708334
 -11.6045469008026636 39.0755814328620943 15.8664899720450965
 -5.8856906819520320 38.6750677196412056 15.9981344414858828
 -0.4045629190701063 34.9601259064464855 15.9829597770353526
 -30.1568159400307358 61.9873830921419753 14.3979258231358056
 -27.6055128699489565 56.8053175750684218 14.5839561013910508
 -30.5917040902864343 55.3276419718948489 14.5120236289045650
 -4.9410575002977319 51.9026107855828158 15.8536397952459591
 -5.6456776313744950 41.9816307003988172 16.0061549319216354
 -7.4656323471062151 57.0802676089847836 15.6931310053702138
 -3.6277317969793126 30.2081457607373309 15.8172589191808672
 -7.6870999100679720 53.7660419104331382 15.7423444387122213
 -10.4338664763590820 55.6295858761938717 15.6015256507590010
 -1.9690179781418604 53.3498392162584452 15.8634951058099443
 -12.3298485323387084 29.1352027361114772 15.7557404334078015
 -16.3741390505795721 52.7194273871090928 15.3561070198606870
 -4.8072687093894517 13.6706950043287332 14.8589496277080588
 -12.9646901588103827 60.8105755026945474 15.4209563242333818
 -15.9308310922487149 59.3550126689353164 15.2545879434118294
 -9.1076901828687191 33.9122124036889900 15.8802371054684848
 -19.3479441092571527 51.2562386190701318 15.2293991942589564
 -4.1048308092709629 23.5974861585368387 15.4859116034730171
 -2.4870308972560946  5.1870423709989009 14.3844759896631267
 -24.8457777078706208 54.9552642762261101 14.7829887991995808
 -2.1953989011123345 50.0398037074772262 15.9327996316550706
 -15.0680661436844829 30.9818426925967358 15.7843205344607203
 -7.3261066806859692 18.8221759134289748 15.2368351921084848
 -13.6308944527786036 50.8631802878200929 15.5584310052138353
 -13.1817422524646570 57.4928062645900226 15.4361954218518829
 -2.2676167131340628  8.5112732617262257 14.5224934918246618
 -8.8658927632507076 37.2225084421395849 15.9283229297857201
 -1.5299019318073648 59.9784100197476491 15.7808850668513081
 -7.0881130959426235 22.1329043073106213 15.4279260657789372
 -24.6248455263357577 58.2802199307663997 14.7107247485098309
 -22.7986880672807999 43.1555827061432282 15.4064153261932120
 -19.5817030141377160 47.9404973661686782 15.3416115053971627
 -15.3098977094163544 27.6667569967952538 15.7369674288925729
 -8.3851318804251953 43.8394653968415042 15.9228728776272916
 -19.8193712163128311 44.6249394618551349 15.4589601808796004
 -1.7477607723335515 56.6634844842190546 15.8098320856671570
 -8.6251439655807811 40.5316469978212268 15.9425820397499791
 -13.4031138367794345 54.1765846418658938 15.4855050924722590
 -24.4079242783007793 61.6072345991280983 14.6922438113150022
 -4.3412166940215204 20.2902488516804773 15.2824707370403612
 -4.5753622006666879 16.9817911950233444 15.0683697900864413
 -10.0710594669718763 20.6635014737674325 15.4015130228245969
 -25.0728106844968650 51.6331786082929582 14.9016863817267478
 -22.5602095964069136 46.4712212265445359 15.2636517057128955
 -6.3686933816501554 32.0603869418703127 15.8663714567684728
 -1.3558290127658090 21.7520317583120644 15.3595702249345241
 -2.6654769905566207 43.4278667745477804 16.0402400328326422
 -7.9142723536913220 50.4551583774845014 15.8089101617121308
 -7.5621289758333745 15.5105694727454768 15.0404313566836709
 -27.3873070495261928 60.1338255536715351 14.5320416688911429
 -22.3248664284634835 49.7876551206373392 15.1241101406257386
 -9.8310544827324033 23.9764943943994737 15.5584565771682612
 -3.8671223528521703 26.9033543949193898 15.6664822153197711
 -1.5881944164866197 18.4479453906310624 15.1386898799741942
 -4.2805711564010105 61.8450867580565813 15.7446930342545208
 -18.8982296385603412 57.8941983605504689 15.0810326758835451
 -12.5712417361642945 25.8210976037816984 15.6631929255998479
 -6.8492320905765975 25.4432494287104518 15.6011913676892657
 -25.5408057773807506 44.9995337970949620 15.2222645229335285
 -6.6097381209110404 28.7523430270339588 15.7487585977329037
 -1.8176704960426990 15.1408664684629244 14.9153159546766130
 -9.5906295662157799 27.2890257697909497 15.6934719369608207
 -16.1493522397784268 56.0362019099100408 15.2883474921374916
 -13.8643072194338881 47.5518512603617651 15.6385674389452927
 -2.4278243456414246 46.7331268853675397 15.9981895509663818
 -5.0355910832009272 10.3554606547711874 14.6686040106286804
 -25.3049639772799040 48.3150971253713095 15.0538714059868184
 -12.8121703572567842 22.5065926665871316 15.5472103646719795
 -2.0443182792115584 11.8291541508164926 14.7049629920216809
 -19.1195263548105352 54.5740291854342843 15.1378879104251531
 -9.3494484033051481 30.6009963905470990 15.8015157617964910
 -8.1472976548243121 47.1469723354939703 15.8748838992922430
 -20.0597389970244393 41.3091481228982715 15.5689112721574574
 -3.3869145112623333 33.5125204199583706 15.9333887309847064
 19.1179613773772630 25.3163291402082464 15.7732462899138905
  0.7784565035759737 51.4856821761527144 15.9045637088724607
 37.2786642601368001 37.2981767493208309 15.5478201131200890
 37.0411375106642069 33.9958380661594575 15.7300918592497752
 36.8011062989780200 30.6936650876277035 15.8786092413790723
 36.5588512199163276 27.3913755374452386 15.9889616572957092
 36.3163852912793743 24.0882484147134299 16.0580582890409893
 36.0742809678053789 20.7843653771500314 16.0836211144733348
 35.8323638659520824 17.4806514190441966 16.0677837999280868
 35.5931811522226624 14.1769608607889293 16.0182511670956131
 37.5137536187675877 40.6014534232971585 15.3388808170418169
 35.3586408993329755 10.8715615058034949 15.9475309735812392
 34.9076413846154310  4.2511618432398279 15.8172584220909176
 34.6888948041406096  0.9371597579187299 15.7833910418140846
 35.8627681159543954 59.0291260462627534 14.3019163633748541
 35.6475149427651061 55.6999549293051786 14.4003605382333912
 35.4303073566135680 52.3769566260822543 14.5576199060829481
 35.2105258270512991 49.0611274677062639 14.7567625999376499
 34.9876038941739864 45.7525078287985991 14.9796433182314814
 34.7606656002943097 42.4491366154880225 15.2101569173335047
 35.1298379097263904  7.5631677531124932 15.8746117946601917
 34.5293826145724054 39.1482402232237661 15.4319859740221670
 37.7459866240079478 43.9067263390100422 15.1147518779480272
 38.1998490956442609 50.5298377171951287 14.6813467545319014
 41.1884670907823960 52.0034930693772495 14.6574421851852836
 40.9614372954901569 48.6849214497387592 14.8431040234036171
 40.7307900899406974 45.3714669595968800 15.0513109415948030
 40.4968991462795458 42.0612085252895724 15.2654702449957682
 40.2608288687546860 38.7531570111823740 15.4704971014293307
 40.0229152093066531 35.4465382183665980 15.6543871786612208
 39.7827833613939248 32.1410743899619291 15.8095533670856003
 39.5407490257159537 28.8365025064757958 15.9306491917815247
 37.9743674734476926 47.2156072928098993 14.8903635482826626
 39.2979825783070638 25.5322522403567831 16.0141783991226383
 38.8136515976966621 18.9227470016983261 16.0589055022057678
 38.5728720085353061 15.6188571683597104 16.0246708235608857
 38.3355355803869813 12.3144773410264428 15.9637042732292596
 38.1030661608899663  9.0077811854184695 15.8912013393151526
 37.8776451851619029  5.6977190715605062 15.8275207318930349
 37.6577649617109245  2.3845862352330913 15.7852290454646660
 38.6395375178673675 57.1774269465238305 14.3769568690379668
 38.4214923689479519 53.8505101533006822 14.5041554107689130
 39.0556483923796307 22.2274337083843356 16.0570332235496664
 40.4084943041992375  0.5176476364605460 15.7265115850237560
 34.2952688182755097 35.8484809895915433 15.6313463125108623
 33.8180194529000104 29.2489315357557444 15.9297111833599114
 29.8723788782810722 14.5959948594823388 15.9580933208002591
 29.6388397911716055 11.2910951639047124 15.8812709755034405
 29.4109261246329083  7.9827446673116098 15.7994777660889945
 29.1886954580826838  4.6703266357969513 15.7305262521635054
 28.9703190466978029  1.3558466391364037 15.6848427554860876
 30.0913793614518497 59.4052018515725777 14.3894340430726206
 29.8791250542880853 56.0786129093615173 14.4810542232060175
 29.6663965349572329 52.7584319973720852 14.6274299038370685
 30.1103830039298792 17.8994435355477570 16.0136211172402128
 29.4518375378667443 49.4464385457235309 14.8142836176266002
 29.0113398855679243 42.8436939778039942 15.2412278729522264
 28.7849747870298813 39.5467425512342956 15.4439500029576529
 28.5550333920726764 36.2505268384732915 15.6212223809216226
 28.3222753869896948 32.9546422214914543 15.7659588445950334
 28.0865126939121943 29.6578837175720231 15.8735941592210015
 27.8477872142044838 26.3596316105471118 15.9427493248072754
 27.6079380420640668 23.0597331165631267 15.9726113372429133
 27.3686489832809983 19.7586433508532089 15.9626329280877695
 29.2336879195153791 46.1425144175810900 15.0253346058790758
 34.0582299191545061 32.5490268456095961 15.7991491396901402
 30.3507734447684712 21.2021986902214152 16.0353213389671403
 30.8334411361625058 27.8047333158648300 15.9528062565350481
 33.5759206372242147 25.9477462852612888 16.0199859681129126
 33.3338798964298419 22.6452739336509445 16.0670987325502885
 33.0918817140157913 19.3421761217725070 16.0701845828445471
 32.8514387206525384 16.0386941281466804 16.0343010656444847
 32.6150569910439287 12.7342938613393279 15.9700358913852440
 32.3837044049565037  9.4275773409901102 15.8926538881768806
 32.1584312021945351  6.1171316651511978 15.8215512463422492
 31.9385594239839179  2.8036114256081710 15.7695039724037915
 30.5920370082652084 24.5040936393850188 16.0154986428181907
 33.0832052062219546 60.8816287730967645 14.2966696260251247
 32.6555566811174955 54.2266044960624214 14.4872795580696092
 32.4401965355166482 50.9085669129769229 14.6645853419194090
 32.2221517678206624 47.5988313375445458 14.8750439316731864
 32.0000539840141300 44.2959913105180405 15.1011038585210731
 31.7735942427686737 40.9966131990787943 15.3245745459110640
 31.5434123419690877 37.6986025949355721 15.5300839856939472
 31.3100172633521758 34.4012510940983560 15.7073065907853167
 31.0733446532334270 31.1035769812334628 15.8494643545970835
 32.8695295407452335 57.5516916748286889 14.3599421934739393
 40.6269303178299950  3.8316137006552431 15.7512396858994936
 40.8490480788625590  7.1434985292427937 15.8031369822254728
 41.0782640472058134 10.4518006740421789 15.8722061871430302
 55.9687336600504608 17.7220483274295972 15.4612126297487098
 55.7290011468643414 14.4087598010616613 15.3415706079168501
 55.4919042474438911 11.0956281735979534 15.2231349832694658
 55.2598899693560739  7.7817542472154644 15.1187164461695165
 55.0350697993868252  4.4655540676911025 15.0430095496142577
 54.8165456998327585  1.1463867727259187 15.0067573661268732
 53.9549184447347230 29.5132450092181742 15.7770131996930569
 53.7129979338711223 26.1976855227074665 15.7519413605786216
 56.2099023659423622 21.0363762145742150 15.5721157807317461
 53.4713008434776640 22.8826202377631844 15.7021180138655811
 52.9886909983296306 16.2556998258067331 15.5401607600260121
 52.7499014922907605 12.9444927989231253 15.4420619218705379
 52.5146496919693391  9.6335224065009566 15.3443535432441447
 52.2858066909859147  6.3213336323868985 15.2618500120997052
 52.0641248017193448  3.0054715353911723 15.2088443809532059
 51.4602483860809983 34.6767202294533945 15.7335239974979508
 51.2178743238053542 31.3606182686791506 15.7812047792132208
 50.9752977905885984 28.0453486695501049 15.8026947095793986
 53.2296820122825380 19.5685243307347356 15.6295482336314393
 50.7332831180647545 24.7306723064084188 15.7972427486551084
 56.4513318202965806 24.3514346445301797 15.6654551765452741
 58.0109200062400276  5.9317372647421456 14.8916813367275562
 69.2991641933626994  1.8573737436547497 14.3056885339388451
 66.7430742470245661  7.0344744116109723 14.5129544109128865
 66.5233185497997255  3.7080506877217934 14.4076468782021561
 66.3068490039353264  0.3785500710275849 14.3640089736254950
 64.2070130755856638 12.1967397394149373 14.8532526601521475
 63.9776531021386532  8.8790515753581474 14.6905488818038101
 63.7534884877665888  5.5567163888686126 14.5676781110809159
 63.5341087234532722  2.2305250574454449 14.4965772417822301
 57.7896515451361878  2.6110081830063603 14.8296495940214896
 61.6926582463705415 17.3505959408382786 15.2311320267402106
 61.2207763041653479 10.7215207199613545 14.9001750835099216
 60.9916376865615604  7.4034500386599245 14.7689821490772317
 60.7685561300002064  4.0815611135381848 14.6787786555518043
 60.5506278359374690  0.7567147072656578 14.6382283520584373
 58.9498019950110219 19.1921964888929821 15.4125766632866750
 58.7098998907213740 15.8781469950752356 15.2676489548615884
 58.4721033979125124 12.5642305101088780 15.1233909383377512
 58.2382734559182111  9.2490178658877689 14.9932216808601417
 61.4553637812728937 14.0368160743742898 15.0594856734665559
 50.4916714202771288 21.4172188393946925 15.7653874106297565
 50.2499362994499563 18.1055424700730576 15.7102449599422478
 50.0098307949273959 14.7962311320265147 15.6376050526602182
 44.7743597356058771 21.8145741322267277 15.9423646304600286
 44.5325236061011367 18.5080055174482432 15.9275173001155270
 44.2919032335744802 15.2024449831614916 15.8836170283796445
 44.0546120431265962 11.8968185537656073 15.8186859933221751
 43.8221300663629236  8.5892990792718482 15.7460744187464421
 43.5968184324192052  5.2788566107719141 15.6846540316739915
 43.3770644190539869  1.9652320673413812 15.6474449379892544
 43.7150000946863670 46.8420854999545568 15.0287893817519631
 45.0163059531712761 25.1225714841799110 15.9244153709194372
 43.4798699831663029 43.5283824596589497 15.2239016774064186
 43.0035145263421654 36.9046372297046901 15.5892542265946954
 42.7633868767581191 33.5945556729735557 15.7388935189373225
 42.5215520439413126 30.2860345682788896 15.8590538047666509
 42.2788256490615524 26.9790284703048329 15.9466990062427989
 42.0363294349499981 23.6727695155631572 15.9989609485141813
 41.7942863924508359 20.3670290870316570 16.0133544693772052
 41.5526880979132756 17.0620605764179345 15.9917789882332464
 41.3134421325344263 13.7575853225453493 15.9411282575149649
 43.2424734787216849 40.2160174289460528 15.4150557226156799
 45.2588046624995783 28.4322195598778968 15.8742970421904381
 45.5014172636059726 31.7435607956830736 15.7940351500196368
 45.7429814159375994 35.0564304723638713 15.6842701290022326
 49.7725228854745154 11.4877482934499522 15.5542663865826842
 49.5402376481318285  8.1783298980994719 15.4716713504439856
 49.3149666578960861  4.8659616363336085 15.4069808627799514
 49.0956173294808877  1.5502765177378568 15.3730270629015582
 48.9635431615210948 39.8397161125480679 15.5399924627969241
 48.7226182439840798 36.5238497968670544 15.6559937058706868
 48.4808173565715634 33.2085722868701438 15.7495588122665318
 48.2384193814734701 29.8938955163265518 15.8161140373880578
 47.9957888852347807 26.5805056924903802 15.8543407729958865
 47.7538488777551322 23.2683891041976381 15.8640813217712591
 47.5119872525151621 19.9585923971535060 15.8455772954637659
 47.2708405893686177 16.6507638664789113 15.8012187902479955
 47.0319300840397929 13.3442058198316431 15.7365583202160693
 46.7966545955536617 10.0368041651924447 15.6604046791482521
 46.5677659267795150  6.7272722523447310 15.5890339454972615
 46.3457891401790008  3.4143118638639840 15.5390472337960617
 46.1278015592084785  0.0991076654623815 15.5210078127499873
 46.2237679582038723 41.6849035325906030 15.3912781007208093
 45.9837539629942995 38.3703095397758744 15.5482785971189870
 27.1301948132493571 16.4564920807986610 15.9157091510288051
  0.5496854126536409 48.1776279065791400 15.9769722741407900
 26.8945828516517054 13.1532919209959953 15.8414367955003819
 26.4396761823839483  6.5367133345221831 15.6682631917121125
  9.2573090102234925  7.7539820483642350 14.7365564940394904
  9.0430958324718311  4.4330287652370792 14.6145594857171943
  8.8296503325159161  1.1064769588607719 14.5425708928743251
  9.9100744537548540 59.1398012330850449 15.5407654395922243
  9.6924325978793178 55.8255642321996106 15.5938711824275824
  9.4720901590608388 52.5138397891263438 15.6714561320633194
  9.2473813480291529 49.2061257666880252 15.7603057928929893
  9.0171136257307971 45.9016803054421985 15.8421864452086982
  9.4738684596238976 11.0671604465712470 14.8944377262127485
  8.7834480566257191 42.5993893527425342 15.9011904199738705
  8.3125969552049597 35.9987015870323930 15.9115756711796248
  8.0774022786632997 32.7011564542317288 15.8590591429678174
  7.8435081658766022 29.4050786137047808 15.7689280947262667
  7.6107459633937165 26.1096415760792659 15.6414051701444894
  7.3793377003725800 22.8137805497389401 15.4800155683595371
  7.1512554382267597 19.5171207728357921 15.2914088149829634
  6.9269993082853958 16.2183640122678767 15.0871183805112334
  6.7058264115104613 12.9153566525085495 14.8841997272716409
  8.5484324940943655 39.2982901870630457 15.9258327401662232
  6.4878638273549827  9.6049146894298953 14.6998019798290542
  9.6933271245349015 14.3723752329499010 15.0748077630076462
 10.1419906107733944 20.9684121562682080 15.4377893212054058
 12.9057122433058105 19.1225793535113304 15.4325617209118082
 12.6799754557295454 15.8251780797409154 15.2735234340001398
 12.4571479965057250 12.5237623702563958 15.1081092332597251
 12.2378520037067542  9.2157218464798998 14.9525718828803278
 12.0215393067264369  5.9000809224026929 14.8224058200233717
 11.8077652982396657  2.5772784664340946 14.7315100966796848
 12.8781601063744571 60.5896380983675797 15.3777113008753155
 12.6622259053363564 57.2739174197917507 15.4213306266030994
  9.9160419156858044 17.6718394727233878 15.2616704940945418
 12.4442191821089931 53.9602591855038867 15.4962100886782768
 11.9961910068367832 47.3463840589057554 15.6908950592799545
 11.7652183826124030 44.0446608565220430 15.7757491868837985
 11.5328504760868213 40.7449757481734096 15.8335134723413002
 11.3000949041317256 37.4464853268828364 15.8569366432371925
 11.0672191753396749 34.1494976753641808 15.8447832139996514
 10.8349370025649048 30.8537865251922305 15.7966509922428404
 10.6029907531762415 27.5589015025600688 15.7111001030968520
 10.3716917292280275 24.2638285384034305 15.5899790078450700
 12.2229605290142729 50.6510129809779599 15.5918022786640105
 13.1341691401741283 22.4183440596412851 15.5711664031986512
  6.2726357534075285  6.2864814516281760 14.5478576537003441
  7.1582720626677414 61.0066208302869413 15.6439992107235959
  3.2938751825720831 46.3164502580232238 15.9841455979834812
  3.0576149915921813 43.0117297772973899 16.0299225863798434
  2.8188690504247473 39.7082948276743437 16.0379363047767498
  2.5792223385576758 36.4059226220487844 16.0017647253829693
  2.3397887035047256 33.1052152857949054 15.9219653986592942
  2.1014338120385974 29.8058384746072100 15.8018900378622806
  1.8651594601374055 26.5071753538129258 15.6443249744793746
  1.6310081260297125 23.2076165845619080 15.4542527275984796
  3.5252919809209025 49.6228795165815626 15.9141250972890518
  1.3996825031317839 19.9072586723134677 15.2402841355217067
  0.9470250860849762 13.2982062448297249 14.7942056180904924
  0.7252681781048390  9.9845704135031905 14.5940372175448836
  0.5067717411351134  6.6640750114277649 14.4300810626658027
  0.2903968106625696  3.3369345980121059 14.3187603111593020
  0.0755735720432669  0.0053879949178334 14.2735750690576531
  1.4384917236879067 61.4264008376340556 15.7720615178031895
  1.2210608100682245 58.1117234256952315 15.7917391800678661
  1.0016728460300028 54.7975674532804433 15.8380687008910481
  1.1717129852540404 16.6048605819779418 15.0148973135709767
  6.0589118800091173  2.9608446459847211 14.4423963504523059
  3.7506081990878011 52.9323616672017039 15.8386463375234054
  4.1899134259723816 59.5593676381416941 15.7360205543540186
  6.9411920281449255 57.6923185657221396 15.6757671395905245
  6.7217976269593427 54.3789870060236709 15.7348301975658309
  6.4991870783415759 51.0684601161391640 15.8119440741925725
  6.2712344267218123 47.7614885093547272 15.8918978224481986
  6.0379284742433352 44.4567837035656552 15.9562899548371639
  5.8016236013219071 41.1535963593323402 15.9899309884791823
  5.5637791419348881 37.8516480259740504 15.9830423688359691
  5.3257051606644481 34.5516552463423281 15.9335301795361861
  3.9716265814303870 56.2452004223603694 15.7760740238569070
  5.0886203367229026 31.2534548960608021 15.8441135195496923
  4.6197417403582799 24.6597756104552523 15.5526306400017464
  4.3888439063263567 21.3620632936117190 15.3588846584446319
  4.1614144596747868 18.0629011823440528 15.1451550202641272
  3.9373449203208075 14.7609897910700880 14.9260050060250489
  3.7164960756404311 11.4529153703087623 14.7191100444469498
  3.4990277721450145  8.1370898716976736 14.5397369682500859
  3.2835800378160123  4.8138249187679554 14.4027063997989284
  3.0690385312410453  1.4847324214372595 14.3236665259193057
  4.8532268963802174 27.9566623947908433 15.7163786559813445
 13.3646673060164201 25.7134764146619403 15.6808685092180262
 13.5958183825401004 29.0081861318630843 15.7574086526889801
 13.8267799508156308 32.3027718504991626 15.7977463393791773
 23.9108072432301348 53.1482711164914008 14.8530685382839618
 23.6962934802240888 49.8393576126874578 15.0112081853939312
 23.4781310672086612 46.5372227829463796 15.1872497993740190
 23.2560906407579253 43.2395752794216151 15.3624952773692147
 23.0307194109703772 39.9437390924803637 15.5203091707662555
 22.8025134982762019 36.6488940488527248 15.6504746016918403
 22.5730342925340359 33.3543031984508929 15.7478897212082760
 22.3419683657074231 30.0594784591281297 15.8095683596267484
 24.1231082822719429 56.4649692271623280 14.7298359476210798
 22.1087387323058060 26.7640572510377694 15.8347222582856162
 21.6393542166246462 20.1695903647856447 15.7808368855287835
 21.4044587298137721 16.8701820735461858 15.7052045122813126
 21.1712385361068343 13.5688076115415939 15.6059734146289415
 20.9430572849346781 10.2634063841128924 15.4957529716536566
 20.7202443743389395  6.9526992457909325 15.3915618906672176
 20.5020510506888662  3.6370569689867813 15.3099729556156063
 20.2863972057957795  0.3188183779147089 15.2618914533157675
 21.5720283088084663 61.6443973617600705 14.8162475523661872
 21.8740436143789481 23.4674045734987793 15.8248605301288237
 21.3588403188596274 58.3226459153530641 14.8570642220150297
 24.3350036065387911 59.7877527896269356 14.6552846336916236
 23.4701290772843691  5.0885002784299074 15.5027241014905002
 26.2202029631894398  3.2223621461132632 15.6029221850692217
 27.3171368156583050 61.2590140039002051 14.4858113764634648
 27.1045235869096750 57.9323716957458998 14.5393279330304210
 26.8930318166735631 54.6102960395274906 14.6504268800235717
 26.6802729817559978 51.2960122013404671 14.8069342729631508
 26.4647901155730167 47.9898197821423480 14.9938413832308743
 26.2451657850620279 44.6899741145853611 15.1931279553668492
 26.0217831840919871 41.3933748746995320 15.3853466047079639
 23.2529322609100930  1.7722409287609004 15.4443208861562660
 25.7943863112439864 38.0976466002030492 15.5556725104050546
 25.3326346854047415 31.5074369891628407 15.8009625087054548
 25.0982936641150260 28.2112540650763819 15.8685367185878494
 24.8614183175820465 24.9137213458236957 15.8992331266320548
 24.6239795200244913 21.6149577423701444 15.8936145812548659
 24.3867794446713901 18.3147461480775355 15.8519106331115296
 24.1504183440603768 15.0132985450815557 15.7790481985790958
 23.9181535034040103 11.7095985781096843 15.6857847508135482
 23.6914463075827157  8.4016420339259419 15.5875398831581542
 25.5644347498264040 34.8026978483869485 15.6958007102948489
 21.1459814679414890 55.0040744331408931 14.9466973050581728
 20.9313718856623296 51.6919634416586931 15.0740564386248366
 20.7134239467287635 48.3868739284737686 15.2240091539194964
 16.3577082988423399 27.1628225886112844 15.7489219994462406
 16.1263647360738069 23.8677372890567518 15.6844474507525522
 15.8959374746483455 20.5720303924799097 15.5879036301709579
 15.6668571186770524 17.2750768979097415 15.4643161191990597
 15.4395821076622486 13.9755136980078376 15.3237642221318779
 15.2158777153362106 10.6711331526246678 15.1804251745175893
 14.9960239374481450  7.3602724981708949 15.0499635091617012
 14.7801760495518426  4.0424850084411394 14.9480381664487876
 16.5886698648681019 30.4571668077644020 15.7788776756683369
 14.5662142677800865  0.7197700596798808 14.8874172678592522
 15.6312034844567513 58.7258288645446740 15.2254958628794395
 15.4156519074589369 55.4099523849621178 15.2944269974223275
 15.1973325454666970 52.0980428477495607 15.3927055849511891
 14.9749459022215046 48.7918938526764734 15.5063694241506163
 14.7477132091292749 45.4902683760913575 15.6169254314617696
 14.5180967809589685 42.1917055339599045 15.7090772760392330
 14.2880838651287529 38.8942635186066852 15.7723754387345814
 14.0574364634414231 35.5980081112466564 15.8022345477727253
 15.8458197467157316 62.0437659807202380 15.1952307484978171
 16.8185744253429235 33.7514521052661962 15.7729852972497362
 17.0480928185124299 37.0463354791557222 15.7326635114625919
 17.2768185321359056 40.3421480594359139 15.6591905848937003
 20.4914058133844428 45.0869410850024295 15.3785638260058573
 20.2663490519308560 41.7903329916451511 15.5206640294248359
 20.0391372300342177 38.4948278213717145 15.6376806811765370
 19.8105539836199931 35.2000946101013596 15.7234275376100339
 19.5810729262095045 31.9056885636630341 15.7755560583929011
 19.3503011233359175 28.6114073048894184 15.7921108975017042
 18.8855898657098287 22.0203198471651689 15.7203909508024822
 18.6535534270372843 18.7230289110987407 15.6360808824838884
 18.4218106888278257 15.4240456593563771 15.5264874787923635
 18.1932369777327985 12.1215919794601916 15.4029662346470619
 17.9694269068797539  8.8139692529018667 15.2798171653834967
 17.7501573492230307  5.5003535190120942 15.1740582873083998
 17.5345987896681308  2.1815364293352455 15.0997819000332196
 18.6002443001028865 60.1823013824582702 15.0179432939431745
 18.3867416455370503 56.8635576200739834 15.0764099015910347
 18.1714865937294867 53.5488699151203562 15.1733696664628734
 17.9531560161394488 50.2401489877129777 15.2968074339218489
 17.7305274697441355 46.9372921817990019 15.4299987910509078
 17.5044160830773201 43.6388116905226440 15.5555203395981962
 26.6643673559217582  9.8472191717596100 15.7529586309068623
 -33.1472016902370470 60.5089930238632547 14.3145036268046919
