Mo S  Se W 
 1.0000000000000000
    74.7013646955293069    0.0000000000000000    0.0000000000000000
   -37.3506718598584584   64.6932839020655024    0.0000000000000000
     0.0000000000000000    0.0000000000000000   24.4856654507443388
 Mo  S   Se  W  
 549 1098 1016 508
Cartesian
 58.8595090981425741 10.5334932533231207  8.5243588536265751
  5.9205721451367497 49.1055076815378087  9.5141674276545736
  6.1222561199449590 52.2892345152661733  9.4101495072037640
 36.9611989547549413 15.1083314583434145  9.6331816744567806
  6.3279042004469979 55.4690835700336109  9.2996019336875193
 36.7632537972205924 11.9223535018156248  9.5661615853384010
  6.5385495909378255 58.6463406156848919  9.2069778378365328
  6.7544525919789349 61.8220951195838779  9.1501136395005442
 36.5591533613442579  8.7409531503777060  9.4789244043960270
  5.7132728158048893  2.6891271131924208  7.7214661102430293
 36.3496666791906051  5.5625636458376269  9.3939735101213238
  5.9309631543739991  5.8616047913669806  7.8781896142413119
  6.1453303405042652  9.0348140033113093  8.0866944913494248
 36.1349703352612011  2.3850251017491768  9.3329636748710545
  6.3581993560405587 12.2114706721073638  8.3222267496083475
 37.1292193565525537 61.4171693380083710  7.4062762559186277
  6.5697327149107920 15.3936239243698267  8.5604205429118814
  6.7783019819259751 18.5816109753088767  8.7844216368747698
 37.1554828601328069 18.2969494604191709  9.6704748882471563
 36.9077841202344956 58.2453393164969597  7.5109502019917480
  5.7225854124583568 45.9178069019377801  9.5936394730004686
  5.5264431987545750 42.7250867196614763  9.6391780359026757
 38.7031603048058130 43.7930563495691416  8.6535577680569649
  3.5096050533297021 10.8092446199050620  8.1035002129131861
  3.7221579694470739 13.9855479042623241  8.3680292300618220
 38.5029355045618544 40.6159845742561529  8.8976249638764813
  3.9315267487736718 17.1671684655387722  8.6271362685675399
 38.3057779704061758 37.4341856258570758  9.1149218471748981
  4.1380771935801040 20.3550936002288267  8.8657945248582362
  4.3417659199792009 23.5473328505145716  9.0775660016762902
 38.1111636797292235 34.2488475350106540  9.3000372087074048
  4.5425151180364374 26.7424576426762037  9.2601483402235161
 37.9179843186813770 31.0617083971134385  9.4501211719885010
  4.7420456707862249 29.9385050261031900  9.4115112463547295
  4.9404032512968721 33.1356238059622186  9.5278446640577030
 37.7272090474739912 27.8715078477646188  9.5634996810697377
  5.1366908397431228 36.3329673794720946  9.6061962446636571
 37.5373920051023262 24.6794843757486078  9.6387715522998878
  5.3318350083321659 39.5297498170425996  9.6440201129716545
 37.3475815515654261 21.4877123021442493  9.6739745041574885
  6.9845274361395315 21.7748367738347959  8.9858647585276792
 36.6898705629235451 55.0766491780155079  7.6973311242792022
  7.1878647966971325 24.9710981543398844  9.1609330716356361
  8.5649488099465678  4.0877266836337833  7.9732806591222456
 34.6797519157779135 23.2510384708854403  9.6674598988743217
  8.7803772553739670  7.2615961328895589  8.1385414996975829
  8.9934573662308033 10.4382351452117383  8.3385427259568097
 34.4875620309499880 20.0583165417475549  9.6836765949536847
  9.2057518612509952 13.6193878933537729  8.5495305831712702
 34.2934930815782408 16.8673369859955145  9.6609895408961908
  9.4161811269782962 16.8066682613488076  8.7518599051271710
  9.6240744213703753 19.9995756685884452  8.9356019098556612
 34.0962493401300009 13.6794767249969524  9.6050808962526872
  9.8298994983923738 23.1965937154768476  9.0953946492754039
 33.8950796137296351 10.4957998212761989  9.5224328597555008
 10.0338165470449265 26.3960101576916628  9.2289471462610617
 10.2364646764955580 29.5961648932624328  9.3351052410030775
 33.6888479370628673  7.3153629490969072  9.4302732475851077
 10.4393572820728657 32.7966573832578234  9.4118478580074498
 33.4769816726374714  4.1369862605987455  9.3528453293904832
 34.8714003654314411 26.4448081917896474  9.6087435704583246
  8.3465215654616181  0.9146370936999074  7.8660106545565389
  9.6269246364882797 63.2440770869228857  9.0140290042541338
 35.0634750038996472 29.6383857315392163  9.5092598720719952
  7.3902500352869378 28.1691113670415447  9.3080720065596108
 36.4742706787677733 51.9091621516222688  7.9388976080204339
  7.5909077266494860 31.3681456992016798  9.4248697759958908
 36.2629905740444514 48.7402508509395389  8.2086561493650709
  7.7911806482174004 34.5667811062880759  9.5080175326798226
  7.9898748904320644 37.7651494539643124  9.5556200186658842
 36.0558006896238865 45.5673804439589745  8.4850580010465233
  8.1876826272155725 40.9624471101426479  9.5647036551113267
  3.2954815042121246  7.6368822795539222  7.8566972466944138
 35.8516538632060531 42.3897283603466732  8.7495960089942422
  8.5835591740193244 47.3481817381362191  9.4636877646197721
 35.6516822304614536 39.2070328440282765  8.9892413150298385
  8.7836129813621202 50.5344272660665865  9.3642933967643494
 35.4536626966880419 36.0197713742239145  9.1975281596220508
  8.9873842610926715 53.7160829266031570  9.2478205943285783
  9.1955902333220862 56.8936329732166683  9.1371103036549925
 35.2577045550871944 32.8301751171466236  9.3716203584864548
  9.4093696313389152 60.0695273910615839  9.0546131407128847
  8.3848348949133733 44.1573818934077664  9.5331255842103690
 38.9073703536474937 46.9660016061319681  8.3931109416813765
  3.0786226296850954  4.4658781841634223  7.6537757114338216
  2.8587463796771524  1.2930916087564919  7.5208061798767689
 -1.5601855633174919 17.5287921574559498  8.6107117736289656
 -1.3564733864885694 20.7089841040517619  8.8770287539167665
 41.8830484376816941  5.2328358695767943  9.3027979694419347
 -1.1567161273649222 23.8944092670150354  9.1141190661161229
 41.6674684869842835  2.0567180756640973  9.2463320948889738
 -0.9598653649634008 27.0839887679738176  9.3157035019508960
 -0.7655906043223535 30.2758354484766521  9.4792518623767812
 42.1851749068695270 54.6967692082329009  7.9063658144162767
 -0.5724959670143791 33.4688051849948209  9.6032479341747194
 41.9710964620291804 51.5296082651451144  8.1170416149322548
 -0.3806866844453432 36.6628354350785841  9.6871897239028044
 -0.1903814734000470 39.8580220813722264  9.7307537251237903
 41.7616407660014630 48.3617830697776441  8.3507594311998545
  0.0001583404058957 43.0520434942975712  9.7327299549027995
 41.5572458120495369 45.1912119674108084  8.5897350701197865
  0.1934327083803880 46.2438835836283886  9.6955847852927377
  0.3896322519413967 49.4317881967165320  9.6257525868790790
 42.0931941471382487  8.4104393947696305  9.3827267704491906
 -1.7681041610111230 14.3543298154549053  8.3270908655401179
 42.2969216950476863 11.5904463604668244  9.4644420364361128
 -1.9801123659555810 11.1844543671113872  8.0425365219153591
 -3.0486220424777266 38.4264966174385094  9.7188097944021621
 43.6312642814436487 33.8845195945322999  9.2880143442235159
 -2.8597801278564980 41.6193156180215311  9.7401163362475334
 -2.6691086107908957 44.8116726792136220  9.7225518232154240
 43.4406000830299206 30.7033040402013349  9.4090438066703861
 -2.4757113505721953 48.0015550108538420  9.6714096075385019
 43.2516485366793475 27.5192539498315156  9.4989083352417278
 -2.2781665324004430 51.1873244303209844  9.5920576327508940
 41.3568756238324440 42.0174274093728002  8.8197246690399371
 -2.0753023323547874 54.3691402758751607  9.4944024736867334
 -1.8654201026440886 57.5481311508155144  9.4015798143068867
 42.8756541805984170 21.1470287977952722  9.5756575536016424
 -1.6508793509572959 60.7257887417372473  9.3362499390993001
 -1.4332214260806337 63.9017100860641918  9.3114108845004750
 42.6857957927583982 17.9600555987276600  9.5646508316654106
 -2.4151751084098301  4.8482386301312879  7.5620778895655016
 42.4934298602962528 14.7743910357283497  9.5272818733203319
 -2.1959090586583523  8.0164633788865487  7.7783780216215401
 43.0637460816813231 24.3333922188443097  9.5549361723190351
 10.6415474509897106 35.9969253300653307  9.4578659180137112
  0.5902672214166398 52.6156045235166445  9.5309147661510298
  0.7962019272040558 55.7957818377739869  9.4287755819398225
  2.2832175504465932 34.8998700251576750  9.6209452714060628
 39.2224847118544488  6.9867328963753152  9.4052976167202029
  2.4756745373817397 38.0964335035624870  9.6844780550483041
  2.6678223329104873 41.2917288448467943  9.7055855128030686
 39.0091612432469574  3.8093548944783500  9.3321583290356038
  2.8612163923729086 44.4851717347021065  9.6842074613784082
 38.7925878497611762  0.6334035522583997  9.2913969951149511
  3.0570535314478566 47.6753166120510414  9.6254245209013298
 24.6694084313380415 39.9199914106389926  9.0103050455938209
 39.7661334244673910 59.6397764323446893  7.5342191326905406
  3.4591564461444517 54.0428091043295424  9.4315647070432362
 39.5462189906161541 56.4700694317834930  7.6763667134546667
  3.6680188734405106 57.2211500171295810  9.3319708539768413
  3.8815224335533833 60.3985336399594885  9.2604196739958020
 39.3291699270837825 53.3025738326169360  7.8838612009201281
  4.0987924215798932 63.5746757581904376  9.2298865786032422
 39.1161621350787456 50.1351548995504857  8.1307344910539747
 39.4293606901544180 10.1666341975280634  9.4917925222660386
  2.0878784392781160 31.7045656056859819  9.5170873745094777
  1.8917398005830444 28.5100803722368674  9.3742000108949046
 39.6294004829020921 13.3495050951685474  9.5679272750400202
  1.0078654392668855 58.9733235017976796  9.3444960984847523
 40.9661359614180540 35.6602704342783454  9.2164355570017253
  1.2241757889660589 62.1500861063138714  9.2954679704225924
 40.7740150199513707 32.4768582982078584  9.3718792615256010
  0.0007993408178027 -0.1021110499065299  7.3995698476046430
  0.2222548332273287  3.0713626511196530  7.4933289812760195
 40.5831786595928534 29.2911465197305922  9.4935453529851301
  0.4422776995266640  6.2422223749375236  7.6736715273989820
 41.1602449575908551 38.8407634750683428  9.0308172851900093
 40.3944642131221840 26.1029983346388228  9.5795661335137066
  0.8724891016795976 12.5829275317660176  8.1884365424922780
 40.2063271878145869 22.9138564631532091  9.6281743760567942
  1.0828989769412247 15.7577984113968750  8.4697538703964916
 40.0166771238484031 19.7243066248248589  9.6394876048890232
  1.2901675129058952 18.9387786185773379  8.7390062414553924
  1.4937239640361728 22.1260176867969314  8.9827578189224457
 39.8247079610811809 16.5357006824308534  9.6182475468837865
  1.6937949652396482 25.3166457205791637  9.1952916136550833
  0.6585246842271102  9.4116975062363775  7.9145955555466942
 43.8233205329680615 37.0638294765147833  9.1394127669384559
 10.8425375276981004 39.1961589206556695  9.4714835921189984
 11.0424085802358825 42.3934462422162426  9.4489900010584673
 20.2191774300334792 56.2088352016905972  8.4209474553909374
 28.3467742257202708 54.0658567730438762  7.9564792855020778
 20.4337721210760002 59.3803035246806274  8.2979803175989897
 28.1356452126263008 50.8921328502532120  8.1882056122750626
 20.6510043717584608 62.5511366965676885  8.2268910733576686
 19.3367862266765727  0.2011369922780064  8.7439735109719052
 27.9264562017215603 47.7136825401214040  8.4320188458662617
 19.5551534442212400  3.3753783132733468  8.7995210157327239
 27.7194836708557624 44.5290815798878157  8.6670962598376029
 19.7709027783040803  6.5510117784045612  8.8962553270915166
 19.9825543925512257  9.7295876860704809  9.0175865588541093
 27.5141774305505500 41.3382980930683956  8.8800738318553645
 20.1901123295642329 12.9129194286828888  9.1407590082024068
 27.3106405662386642 38.1436614127935698  9.0664873472988710
 20.3964245881310795 16.1010436724228931  9.2443003618046014
 20.6010598257165576 19.2953516415094413  9.3203509865428273
 27.1084117798487441 34.9463643611379311  9.2250649344648590
 20.0089372713162668 53.0334886647049473  8.5771860223399106
 20.8048887968113192 22.4933603079807760  9.3648961021096593
 28.5601391656573185 57.2368889079925509  7.7610855128583980
 28.7767209744335197 60.4079455173682405  7.6262393750035509
 17.5436514687737635 14.6785407034080055  9.0535220175803079
 17.7507863192732209 17.8702755752333964  9.1614464918656271
 28.5677709069429291 14.0068434000198625  9.5190086136146359
 17.9566184453108981 21.0673305604541738  9.2438877598348448
 28.3654117693829129 10.8223168050716865  9.4274590977019059
 18.1615469768085021 24.2673877352364684  9.2974417925598463
 18.3659659299422415 27.4687655386891016  9.3215545448994011
 28.1589262936514260  7.6417875024090431  9.3261500652230414
 18.5704236117576045 30.6712375455668216  9.3183015280080888
 27.9467302666931836  4.4636877045285033  9.2399448051928061
 18.7750744429253338 33.8738654576921121  9.2881628964480285
 18.9795120791212568 37.0758194821591616  9.2312666583827792
 27.7294407868118995  1.2874035764562854  9.1859623856081694
 19.1840785872412489 40.2759525293191203  9.1476483010530885
 28.9965430118778578 63.5797162997638949  7.5732869800672855
 19.3891063708739466 43.4736059947167135  9.0370914044821937
 19.5939599813391716 46.6668432802870967  8.9008347577672939
 19.8003528929052806 49.8531694873496178  8.7438614635224106
 26.9060957818793653 31.7484280172692728  9.3541747302102110
 21.0084871773431168 25.6932664425417556  9.3755948174159656
 21.2114987382456874 28.8947639127781386  9.3552694255618327
 -12.4941499698033347 64.5577161549550027  9.0619567830751393
 22.6348303688792249  7.9716874579818047  9.1047031104883054
 22.8427158598343816 11.1521951644673400  9.2200447450387895
 26.1420508927394515 62.1832832453973410  7.7737281187348044
 23.0481018928317454 14.3376422782565331  9.3252657996327404
 25.9243077510730195 59.0118437854690185  7.8618714448973082
 23.2508013208193383 17.5281528865355085  9.4037290178851993
 23.4531109555090573 20.7232116084837834  9.4489937840184339
 25.7101857929180007 55.8402909179349152  8.0149017032217458
 23.6542664357512677 23.9212631307322248  9.4565106534924173
 25.4984674733807068 52.6671620547008530  8.2113541165344284
 23.8557140124923173 27.1210920127709727  9.4271532540071696
 24.0579204913303535 30.3214143511220762  9.3657544448087791
 25.2884373613397102 49.4896239050395721  8.4274762623642712
 24.2615419857459003 33.5217115521598288  9.2748411469206999
 25.0805275780565431 46.3057414128936387  8.6415716839206116
 24.4654374328618118 36.7215767596999640  9.1558617982831478
 22.4219524319900749  4.7944748350471196  9.0036824255748016
 25.0750498827133512  3.0399709738942415  9.1011591877245674
 22.2043687265198884  1.6189993737766752  8.9355484391053182
 23.5068200958201672 63.9541079327698085  7.9801662493494518
 26.7049715563079495 28.5493570819573677  9.4520943849543855
 21.4152077757555723 32.0967702265663135  9.3067426292023736
 26.5047600751916939 25.3506973146002217  9.5164286472263928
 21.6199417761151480 35.2984626213042318  9.2307919099004323
 21.8247684177625842 38.4992409270999261  9.1283618224006897
 26.3058357127877258 22.1532176148308544  9.5425248003364693
 22.0293912419393365 41.6972317135537480  9.0001960641856176
 26.1068628453236471 18.9574424637709313  9.5271685802355215
 28.7664941064170101 17.1958531265172709  9.5830881858094319
 22.2349708055866557 44.8917558819283897  8.8462094712296970
 25.9069815635512839 15.7657198727895871  9.4737000689823105
 22.6495994902168789 51.2633960184250341  8.4800619708922209
 25.7049554397229123 12.5785107461166561  9.3882990632044887
 22.8597418027420431 54.4396145566246119  8.2941497785521658
 23.0729221048738857 57.6118802053976538  8.1349904986405779
 25.4998883072729114  9.3956115313834108  9.2826562297730568
 23.2884302187288910 60.7832389130358237  8.0242280024361161
 25.2902388946266683  6.2166726697005918  9.1795646804839262
 22.4414180794901235 48.0810323738958303  8.6696159780461493
 17.3348479010057268 11.4920410736569423  8.9234546857306931
 28.9637077808221974 20.3888057967784881  9.6121651678035462
 17.1234200610604752  8.3117267260409804  8.7839538062072435
 12.6749918772215029 24.6195769072808268  9.1895592771005212
 32.6032597688883143 34.5990845114603687  9.2680010207250714
 12.8794270863948164 27.8211033582906353  9.2782088855011384
 32.4057713123297049 31.4057288805491481  9.4235473118052848
 13.0831990882719236 31.0234191732774534  9.3402120544327136
 13.2876087252239152 34.2245780686922387  9.3746550343840607
 32.2102312269603530 28.2106766414524017  9.5425503470205566
 13.4909187054821693 37.4251925557109857  9.3803816022874233
 32.0155241240833988 25.0152394779859222  9.6222352557962605
 13.6930921750331951 40.6247868594378829  9.3555255507752655
 13.8946530933192509 43.8220477512143063  9.2972376966110044
 31.8223592878908583 21.8201268777086455  9.6590630602784309
 14.0968680473836798 47.0146530020958693  9.2061275048789142
 31.6268046663263434 18.6269353133922841  9.6531795843159731
 14.3004942401160537 50.2012106171008980  9.0874162702645105
 14.5062784090880275 53.3826286962909222  8.9528858143345218
 31.4303570138793518 15.4372197428409699  9.6100383844625963
 12.4698208725106721 21.4200429879939307  9.0743227342815569
 32.8023645686619147 37.7906801351429493  9.0783384109603276
 12.2626661240722346 18.2235897764193133  8.9336360540296393
 33.0033265722042657 40.9792379758414569  8.8573027612812751
 34.4915338656856818 63.1963914802051647  7.3768345348177160
 11.2421039945690442 45.5875858329065338  9.3885945582796069
 11.4425127355388252 48.7767863740503600  9.2946272011306945
 34.2696694580099219 60.0230004032373401  7.4342882345847556
 11.6456365199475194 51.9605119804213587  9.1764227840552799
 34.0506627207653523 56.8527325126385605  7.5828974961145308
 11.8520604046332867 55.1395985064553997  9.0517418074896998
 12.0628419988036697 58.3154846260879296  8.9451232383000896
 14.7150196270928486 56.5588069526316204  8.8245574102149344
 33.8352668264923224 53.6845258758963837  7.8007844382519433
 33.6221986797885464 50.5145183913558142  8.0606337370598489
 11.1989814465403477  2.3163890138032146  8.1267545296554520
 11.4155671118037390  5.4908902680636089  8.2480339789639228
 33.4126716194249695 47.3415470694241236  8.3369553755019901
 11.6292357282940095  8.6668545204344536  8.4105537040489562
 33.2064857247378669 44.1634988128334882  8.6077991307134223
 11.8420758391647212 11.8462194698174770  8.5926650390234514
 12.0533916354935808 15.0319724211987502  8.7713571650520343
 12.2789345247995865 61.4893059106297883  8.8750223756328097
 33.2600042918135799  0.9604097516847168  9.3075162605112283
 31.2310226944299920 12.2505731088158853  9.5356913828594330
 15.1467712304395459 62.9049377013327202  8.6707986180235981
 30.3597069610829564 42.7532017146967647  8.7430750703026714
 16.5414297125490712 42.0510571105746749  9.2091044996064024
 16.7453773869684319 45.2467022239148307  9.1124620499251829
 30.1565121224923232 39.5634227552825450  8.9650813593557377
 16.9499166066669567 48.4371967501823875  8.9889969509120942
 29.9547863679731279 36.3699466818645760  9.1586034625316355
 17.1557219757035995 51.6206563179205702  8.8457336760939551
 17.3643835791021459 54.7984215818936633  8.6983560841275018
 29.7546487044248025 33.1744311672556336  9.3214701244843194
 17.5758337668020879 57.9728732053798623  8.5706820214689170
 29.5548987213775014 29.9780753275880052  9.4511114995844832
 17.7920845453845722 61.1444373484775667  8.4823787914387250
 18.0102773552484052 64.3150054817121770  8.4481814307406964
 29.3573400727601239 26.7810513553272180  9.5452124732947912
 16.6926271966930706  1.9605945514881786  8.5686038025293438
 29.1604591348046114 23.5838254845492159  9.6001546901487682
 16.9095747439074167  5.1352056114699627  8.6588046109006491
 16.3380083593179819 38.8518924736963456  9.2762059447850831
 30.5652582114262259 45.9378376316046868  8.4955400681879460
 16.1344848610021039 35.6506377958628633  9.3143786623419071
 15.9300749777542521 32.4487182694207590  9.3248754492455639
 31.0271539217159997  9.0681066345183634  9.4414030757247573
 13.8346529930779756  0.5498423962574081  8.3195157457552646
 30.8180267667524639  5.8892358054613991  9.3501379802490838
 14.0522023180125917  3.7238013692102871  8.3979178265334049
 14.2676429459436349  6.8988983939729973  8.5237302017893413
 30.6032186192990068  2.7120106847604517  9.2833297074842083
 14.4807884465953123 10.0769608605226448  8.6769990525347591
 31.6323602823815158 61.8019666849292975  7.4565507249114971
 14.9290124847326879 59.7325602970588463  8.7254392488334283
 14.6922001094463983 13.2600187180923452  8.8346893073580990
 31.4126141560908430 58.6304649887959570  7.5584921533962142
 15.1094551130486447 19.6440207066215820  9.0988689210247138
 31.1969945910620510 55.4604627383739626  7.7385102668481185
 15.3154402596584251 22.8426655526505940  9.1957380239613524
 15.5204237389231050 26.0437694155762181  9.2652595999333691
 30.9839977557123660 52.2902151651146809  7.9717600090114384
 15.7248075588053968 29.2464036329657411  9.3082355154830623
 30.7730567497877843 49.1164286868889235  8.2320273474193399
 14.9018779623029971 16.4492774498207872  8.9774110479615477
 -3.2379624904856525 35.2333949868752825  9.6574026689000156
  3.2559920276905148 50.8612998774905023  9.5371409155755131
 24.8743499464508098 43.1150975589799259  8.8382822245569912
 -21.7219093417895159 50.7856678309639946  8.8355481745232378
 -9.3330778378393440 26.0210374383952683  9.2349218963935069
 48.2131464715459757 17.6099412880859063  9.3542413959039852
 66.5691383959179888  2.0567758973169781  7.6121369030669506
 -9.5257599166684699 22.8425512111989448  9.0518779860533023
 -21.5186740664039995 53.9599176456028928  8.7218776077260038
 55.5785042188977059  2.7921022616799176  8.4729715882843895
 48.4031114176542019 20.7911788620140889  9.3874032614866767
 -9.7218689605482052 19.6676222727344374  8.8456965831027095
 -21.3091553038723482 57.1330748918497093  8.6191165082498582
 66.7897956464625508  5.2255933426623038  7.7369923351926335
 -9.8397925249016254 62.8048239703867566  9.1762362443752750
 48.5921255123856781 23.9716804978118816  9.3982272524518340
 -9.1432677665391733 29.2034040615468307  9.3893920677447564
 -21.0947197174080898 60.3063501193225875  8.5500471425619562
 54.6901383339927278 33.1276476964681237  9.3200689123971721
 48.7809897615978372 27.1518715801453610  9.3832784270205885
 67.0083327432727174  8.3921035590179542  7.9292739578782330
 -10.2716313327221744 56.4513296945688410  9.2854286913773390
 -20.8770335495183517 63.4801946221958957  8.5302290880819474
 -10.4780390878376952 53.2719011540262244  9.3777584660687978
 48.9695826330201243 30.3308634312666001  9.3429200316114684
 -19.8224558629660343 36.3045345298296951  9.3075717634364743
 -10.6774795855998157 50.0898394637918400  9.4646493359243067
 67.2229034635554967 11.5573973284460507  8.1656396358861958
 54.5006641790697657 29.9516120429363504  9.3126804145012674
 49.1598550208850327 33.5079407740640960  9.2791308212961550
 -10.8709591939186403 46.9052850819028180  9.5309905343384109
 -10.0577879667447245 59.6289275700136798  9.2124427346724662
 64.7797067608569819 16.4956994154354568  8.6246746661914102
 48.0216746357370212 14.4294776772564877  9.3028020557616582
 -8.9536987231366183 32.3881053740969094  9.5114805894390901
 46.6819385835684315 38.4631578889226589  9.0931444797390704
 -7.1838738249660459 61.0528228519359573  9.2736864689904479
 -24.3745727501567906 52.5549396354508360  8.5722782744893404
 46.8745624473779472 41.6376449923100154  8.9459595000329166
 63.9324939392170464  3.8293358694471946  7.8414821121654557
 -7.3997689055370239 57.8758772559984962  9.3328765764964974
 -24.1657462554078784 55.7264398562294829  8.4453671765065117
 -7.6095212668637551 54.6966158135940645  9.4198520346212060
 47.0703901922404953 44.8110733244360233  8.7847415696360223
 56.2047852956848217 12.3022903511166568  8.7746409150710374
 64.1509128790558520  6.9956692151268198  7.9850096250621139
 -7.8124403500175985 51.5150238841951094  9.5123284460989481
 -23.9524312528319179 58.8977607983566003  8.3494419206045691
 47.1957498495444483  1.7243639748942494  9.0216138246451933
 -8.0088758602904537 48.3306288604823209  9.5884650418558941
 -23.7349842209845008 62.0699339461771658  8.3034469028338638
 64.3653550386392084 10.1613249179603216  8.1780337282802638
 -8.2006876962394113 45.1432929021276124  9.6403549449700012
 47.4121911311421442  4.8983181924105503  9.0726754408589816
 56.0018626003563611  9.1317453121986425  8.6540894158658102
 -8.3899942279778550 41.9539026248070073  9.6632317939039361
 -22.3030502109800857 41.2584557291708336  9.1370447424801746
 47.6231470018272560  8.0735226004631091  9.1501097864886862
 -8.5778841139729156 38.7645362226626986  9.6501707203970906
 64.5753703830317676 13.3275960565239675  8.3979722424871532
 -22.1121541380128974 44.4345160107373687  9.0462612988353293
 -8.7652583540182523 35.5755156498381879  9.5988336276567860
 55.7927989063037515  5.9619315120728960  8.5473189537124092
 -21.9188894462967774 47.6103636274812345  8.9447143969901504
 -19.6343485505427431 39.4823704245312896  9.2752074820589989
 69.2053122871852935  0.2811824039661719  7.4493392202084427
 -11.0611245687095590 43.7187270405462769  9.5723672622296831
 49.3500925157564794 36.6842762153557800  9.1943671516126209
 -13.5393215456267377 48.6676397103395075  9.3824833172104984
 -17.1520530420986077 34.5275761149584213  9.3742782787468286
 51.0719219191895633 19.0190147632439164  9.2519951234683369
 53.5446785404185093 14.0716153085511699  8.9979063039398586
 -13.7307461491731360 45.4838725476133874  9.4410766482789654
 51.2623850295205230 22.1971862331155734  9.2976052760112271
 -16.9645540106327175 37.7069489383520775  9.3841834559450561
 -13.9198763178097504 42.2996176566973432  9.4761205755174061
 53.3467384583290354 10.8974404845639814  8.9011341236256811
 -16.7769689868671179 40.8878583141368708  9.3696446044692276
 -14.1068312630341648 39.1159980100750744  9.4830593902685631
 51.4516138053540644 25.3749891576599715  9.3237608219640027
 -14.2937688329464745 35.9327484031609359  9.4607972540189422
 -16.5889792411096693 44.0691410411743121  9.3312458732778865
 51.6409126684886530 28.5528170857659909  9.3278341945664831
 -14.4818243632216870 32.7519121425304505  9.4112112965057317
 53.1428805680628074  7.7251730391562781  8.8024680067161345
 -16.3984787989917642 47.2498793098086125  9.2723977660748336
 -14.6703340688200914 29.5728408761051007  9.3354542784929304
 51.8300397675140943 31.7300203199392783  9.3094964746262470
 52.9317824411010562  4.5540140993369818  8.7188140375456431
 -14.8594707281744824 26.3954240651768579  9.2354353757793213
 -16.2043248186981010 50.4304583837520326  9.1962925169632026
 52.0199121259708477 34.9054370478802483  9.2705997259762682
 -15.3655729190879775 63.1374257685723279  8.9134109741606160
 -16.0046075625405564 53.6099807641627564  9.1048867090151582
 -15.5834559572027285 59.9625088275375546  8.9419082825325891
 52.2086768969472388 38.0819917963313870  9.2123809181523164
 52.7158385144006800  1.3829781058333939  8.6697921219186060
 -13.3433418494045579 51.8497256912659381  9.3028601767014223
 56.4029472447256381 15.4740651050181501  8.8951488281956337
 50.8803675051703479 15.8409047315252245  9.1918027400792521
 53.7387820922667885 17.2467155644161210  9.0871306212157954
 -19.4459342888287310 42.6607264944352664  9.2228315814154254
 -11.2488747985165176 40.5314138319541328  9.5835211224085359
 54.3119592713333077 26.7750794410229744  9.2844919195550766
 49.5405886308921524 39.8599869385045338  9.0912813537348356
 -11.4362195447798332 37.3445716903035816  9.5602115206612091
 -19.2556245130317514 45.8392255588654507  9.1529861425818435
 69.4275137006165153  3.4530180904245502  7.5398451988113671
 -11.6233047928667457 34.1597749169704912  9.5037646901379631
 -19.0625535085011819 49.0172034361110107  9.0696742357781552
 12.4977386560630794 64.6623319496527245  8.8525830441171038
 -11.8120770133679009 30.9774004311237725  9.4166824518810426
 69.6481824294851890  6.6215982216339544  7.7148944547975935
 50.0657505368628790  3.1415218120329591  8.8803407258713865
 -18.8647398113557472 52.1944726672109667  8.9747444755404651
 -12.0008224315272471 27.7963489256999203  9.2997925979125853
 54.1222243421952740 23.5978030156428211  9.2351133640987033
 -12.1913828151840278 24.6178527452057629  9.1566789677924714
 50.2800695057213503  6.3142276901057741  8.9468599405643605
 -18.6601501179975990 55.3704112048850590  8.8748694389505616
 72.0650534207638600  1.6765924033714881  7.4212441658075265
 -12.3839803756551667 21.4423655401393525  8.9917646066602721
 50.4871044137834346  9.4879402126853840  9.0329453827691015
 -12.7131822601410320 61.3823924592678907  9.0711338655446223
 -18.4490255572363502 58.5456057528643754  8.7899704093481752
 53.9312079851762647 20.4221138453598243  9.1677579209819946
 -12.9296642376837756 58.2064116948801953  9.1245504308218521
 -18.2329103080317445 61.7201156999175566  8.7416995157349806
 50.6861868831876237 12.6636610553687152  9.1186426833907479
 -13.1402343202192586 55.0289552441368812  9.2094816262862658
 -17.3405564448447436 31.3504256071521787  9.3420512821550457
 -6.9656394047670238 64.2285502923604810  9.2555036475236498
 47.8257084543427879 11.2504215182673413  9.2329713356361918
 -15.7974677394526335 56.7868530341717772  9.0119422305405337
 56.9819067919413627 24.9966642787496340  9.2126780819057039
 61.5076970124374540  8.7646089134203518  8.2554852348801067
 -5.7186596500832572 40.1898381515677556  9.7118110287813124
 45.5445722877980614 19.3787490287542141  9.4831843804027827
 -27.0205206434466234 54.3244400356415156  8.2892213631060372
 -4.4133834030315153 16.1245377910075334  8.4977205309146804
 -31.8575374706027397 64.2094561658907281  7.6405148404263024
 -5.9069605713461275 36.9983449037685048  9.6741652892105936
 58.4372783949113312  4.1974663682155020  8.2779216272413123
 44.6172919808512205 49.7568604502102900  8.3692213357809102
 -26.8068797572264579 57.4942646115278109  8.1599840710135521
 44.7546135140571053  6.6542661712989686  9.2416936174874298
 45.7335563705960197 22.5629524432044555  9.4898095607836144
 -6.0959476549865848 33.8076539958039390  9.5974874492534568
 61.7178170892398654 11.9305752932872586  8.4343880079222444
 59.2623256562534309 16.8721457754218385  8.8294875875989174
 -4.2091439651193676 19.2989204664221887  8.7686998655424162
 56.7914104030852798 21.8212268061819046  9.1189359922320090
 -6.2856430420854359 30.6187164257941369  9.4822906241111902
 -32.0784281300580147 61.0364908654860372  7.6488961355749856
 -26.5897193655949735 60.6651692115486156  8.0811822298275260
 59.4578243569034015 20.0445874474703807  8.9773990468579328
 -5.5301569262136487 43.3811645015810541  9.7102062157980207
 -27.2291917588975032 51.1541225306006524  8.4476783837385820
 -4.6225038160435128 12.9550561465708292  8.2194658966453655
 -29.4434935211475803 59.2643733914838649  7.8859886402457482
 59.6509463746601867 23.2190505452719158  9.1145442739362359
 -4.7388493816448252 56.1228828817767464  9.4277812374869328
 -29.6614877070907248 56.0945436812318405  8.0042729963704531
 61.0767499253659807  2.4304257069631023  8.0105031244194258
 44.9618824203395917  9.8320938767274892  9.3241009800029175
 -29.2242043026787783 62.4356988347913173  7.8359865569854232
 -4.9447297683407285 52.9423064221377544  9.5231369134131185
 -4.3089649326042201 62.4772569065306698  9.3064245091710447
 44.5406815149638220  3.4786707099429948  9.1735289605145454
 44.4129857359863820 46.5871282758743064  8.5751625945860610
 57.1717721242245105 28.1734912094920240  9.2879288503146906
 -5.1446054347183932 49.7584460054730897  9.6104501986002120
 58.2201489584222003  1.0279561615420654  8.2207561754215419
 -27.4325182649130639 47.9833308360101043  8.6164636891326225
 -4.8354517621870592  9.7879651681014561  7.9504566227864100
 45.1605962719069893 13.0127787938043138  9.3984969180519524
 -5.3391172938403075 46.5712451719481209  9.6743909305388662
 61.2939169653625129  5.5985815733513640  8.1076581664893368
 -29.8749076205813395 52.9255884095055862  8.1728770944633293
 45.3543191401470693 16.1948451650611851  9.4517827679741373
 44.3238767936534686  0.3040985396202093  9.1388445319632687
 -24.5772085296742979 49.3823224607656286  8.7089025253825891
 45.9215424108323376 25.7459198863534269  9.4664721568186714
 -4.5257896363582315 59.3005372194588816  9.3497918345714677
 46.2997373019119891 32.1080849286201584  9.3297925317410346
 58.6506588021240773  7.3656848767667977  8.3849578064311814
 59.0633084321528159 13.7017995832256165  8.6768091905954066
 -6.8645257800895516 21.0698598281887861  8.9210461775401679
 -7.0646199584585014 17.8951564706858655  8.6775936067619064
 -24.9690010836150016 43.0345447895188116  8.9728769988628176
 44.2130996178490605 43.4149606447586223  8.7776694443057650
 -3.6202406425576634 28.8505510728887664  9.4157545751883429
 -34.7138585751123117 62.8126574852277173  7.4791110714359705
 -3.8136067143267760 25.6624323870750146  9.2352583222747473
 56.5981931471617656 18.6467092944299004  9.0111300056833610
 -24.7745215770902583 46.2089195085222997  8.8433995819026912
 46.4904389070438882 35.2862854584515304  9.2221599754611212
 -7.2690415309089236 14.7248796910809716  8.4211690089822930
 -32.2989925314953936 57.8657660062595056  7.7430189775729534
 46.1100783672392183 28.9277095247561995  9.4122843808167520
 -6.6686712243195023 24.2484308504975132  9.1404045507344964
 62.1212714535939412 18.2690122748646111  8.8119850532903587
 -6.4761281997507494 27.4317362157834594  9.3288797141859128
 -3.4286174442922115 32.0412482305331281  9.5566259887218425
 -4.0092807732553251 22.4784501876274625  9.0178608254772534
 61.9217632703335710 15.0986384766055490  8.6239017321154829
 63.7126485473650348  0.6604893805847092  7.7666268398286835
 -26.3709782172169263 63.8369953547082289  8.0678062213820407
 44.0170678236196622 40.2405641678369435  8.9680107879215853
 29.2935097412364804 55.4969051343328488  6.2548642084091401
 29.9521814134136513 21.9374692785079617 11.1830357463066470
 28.7732392979572076 46.1752414783221852 10.0874882454051864
 29.4417350617652609 55.6807012905267413  9.3741534167176130
 23.3125418785119898  3.1754415567545942  7.4532779489325138
 52.1488650715772266 20.5224934112206192 10.7971878713716301
 52.3224381523353728 23.7103597522359379 10.8440653114092793
 56.5227008263419535  1.1259126976953509  9.9354109280205325
 28.8899360384079529 49.1251366749977194  6.7237156675902492
 56.4783970316380959  4.3619527522520114  6.8739213204734444
 22.9367474823007100 -0.0328553124803747 10.5276303456230593
 30.3937193049328833 28.2762609789867128  7.9546043772591668
 23.1776326283651670 46.3432035617484104  7.1599709243147558
 29.2190203840890916 52.5277488690802699  9.5937314308737065
 50.9884723069872905  4.7082064375994825  7.2900822978991036
 30.2017218713673863 25.0982885096706347  8.0312205838464372
 52.2395478472258930 23.7429542340029869  7.7246361521146696
 29.0896854075525724 52.3070325036247255  6.4772142429565518
 24.4431597708350807 62.3201414878205568  9.4804375613577481
 28.9956378257417882 49.3593555368705665  9.8394014440955946
 30.1493915867401725 25.1541887610651074 11.1484596772913243
 23.3218597514430996 46.5109196627980808 10.2753599674813980
 51.2029304107931509  4.6301531561982037 10.4051211373943584
 23.0962926312774250 -0.0223322529255824  7.4097472483272586
 51.6049793307764588 10.9699427004760270 10.5751024642952469
 24.1849710604371069 62.2930652553563746  6.3638824191045975
 29.5536204979222177 15.5158995186840389 11.1300804171389078
 51.7918191174593616 14.1525013493136118 10.6601002137098586
 56.9358970104326545  7.4269687139592335 10.0842916823071604
 28.9355182885011466  5.9561936867836751 10.8638130264832089
 23.5641098020049640 52.7049871156046166  6.7693399547784665
 29.6232133018381099 15.5743601147848398  8.0123246528656260
 23.9987090567718759 56.0354239787577129  9.7026864198326450
 51.6204765408206896 14.2361825662291803  7.5443625936614627
 29.2246910304009475  9.2214153466508986  7.8389768959267387
 23.7644807502330835 55.8923258873946125  6.5878153496432832
 51.4138941210714506 11.0660714958408430  7.4597035549766115
 29.1459869483665450  9.1285016296976664 10.9571111400852352
 23.7740589090830277 52.8762791529792580  9.8833014632335239
 29.3515078315300073 12.3155020594538644 11.0533551329256667
 29.4266520090835328 12.3999193904469500  7.9356433854478752
 51.4094088846786548  7.7942884868418316 10.4846098761599311
 30.0109396619518627 21.9227591453295965  8.0659244863540529
 28.7194143334431331  2.7944316698079583 10.7949789256056139
 23.9709233497554095 59.0890320410892258  6.4458259104615481
 29.5029239875292433 58.6983131115288685  6.0826492455127097
 52.0317632335369709 20.5757987562615696  7.6788609780949795
 23.3686515730661029 49.5233870612542120  6.9667804203483108
 29.6633623409560876 58.8205565862569060  9.2044805764092938
 56.7003378717608086  7.5476866487588783  6.9701972001391610
 51.2038963885207394  7.8913096030392440  7.3692525386303434
 56.7337436346932478  4.2727447252013144  9.9878812408058177
 29.7529864751469617 18.7239885726084410 11.1753557046300180
 29.7205300338356331 61.9096970826154021  5.9847683510501755
 24.2216618808526789 59.1825001493061649  9.5615252657294612
 29.8843559887398946 61.9507744950181021  9.1080005552882515
 51.9723754403761049 17.3366947554727133 10.7344983587817921
 29.8170396353496017 18.7486409103319289  8.0580258865726506
 51.8255400263755419 17.4063641510108553  7.6175000389882417
 28.8037153466016278  2.8406834916487176  7.6754168990799201
 23.5479949323934399 49.7014148752168694 10.0812945424901805
 29.0169847304532276  6.0341746772533682  7.7451732225573870
 25.7138306023540366 41.5418923036833760 10.4664677395089143
 23.1580523825002018  3.1197005548093135 10.5708669884922006
 27.0584113423582373 60.5710318084756452  9.3091358943989828
 25.0872255825922821 31.8177832485392820  7.7711384640898062
 54.2750250292290346  9.1971380934503557 10.3425335969801697
 27.0577013122923908 63.7099392124795756  6.1397903242332532
 27.2786252397399771 63.7025829271402344  9.2596194167532850
 24.8408979680128965 28.6953699836576526 10.9737284194890599
 25.9496028981447289  1.4084796494375111  7.5554232688623353
 54.9950317591944255 21.9130811325848391 10.7322659573079768
 54.0590348774012028  9.3082921912056804  7.2278042956712172
 25.8271754109800291  1.3790064555781423 10.6743425070073528
 50.9885864811275624  1.4761035401891591 10.3568394463393698
 24.8985706834572369 28.6318131378796998  7.8548992588540489
 26.1649519239540069  4.6039158418681208  7.6133670351439360
 26.0466733152120824  4.5361530657831119 10.7314206445538503
 54.0762332721063288  6.0324032059816348 10.2456666028320491
 24.6279051989581177 25.4804069116731995 11.0259154751191204
 26.3747983437619311  7.7943170099238834  7.7035827761800793
 24.7090181226447285 25.4474077579700584  7.9071099860920553
 26.2611378462841252  7.7022385547777130 10.8206496226585784
 25.0561968673303603 31.9091771538003535 10.8901707303192872
 26.8385213553695543 60.4984145926367631  6.1899231156996866
 54.9062208268646827 21.9866710746530067  7.6129562906250676
 25.2758793348272732 35.0046977392126593  7.6581702430362935
 25.8398253790106622 44.5563698107309278  7.1562264401056295
 25.9366740933023436 44.7457040985807737 10.2718314387443108
 54.6442570788846922 15.5503395920140211 10.5502823061011632
 25.6509278189604437 41.3751112777296655  7.3496557496473223
 54.6955541964205452 18.8194634971365886  7.5283620675555447
 26.0305393073463165 47.7355685601183879  6.9407139307771528
 26.1618697722691742 47.9399015462044247 10.0562346834192873
 54.4845201778196540 15.6503302132377904  7.4338103011699399
 25.4929223258540958 38.3332006285922446 10.6349571386031467
 53.8419602724864390  6.1290084052782356  7.1312323484969093
 26.2247518292493993 50.9155776101145960  6.7155453893830170
 26.3878665506660148 51.1194803981484185  9.8308772629789836
 54.8212551538554393 18.7303887608350266 10.6462010443503576
 25.2740190981453487 35.1218907709160106 10.7765634446924405
 26.4233448635913994 54.1007093274588442  6.4995289549815274
 26.6128359978684799 54.2835192046224151  9.6160473783470586
 54.4632183938323706 12.3715666740490615 10.4479143862220791
 54.2726187152472193 12.4802317379118755  7.3328310006408071
 26.6274448038346385 57.2947573866507582  6.3167195521879913
 26.8362904244194205 57.4329551796644253  9.4343615084022545
 25.4630282448966696 38.1912672439657683  7.5172957969421264
 28.6950579160663750 45.9480356268385250  6.9719497390413920
 26.5789577230703848 10.9773896321036446  7.8079232288717249
 24.4181274642280108 22.2640352865744795 11.0422037719490369
 27.7420023404558655 30.0425312804220752  7.8597807143441143
 27.6951488680505165 30.1407413653301433 10.9777339243710497
 52.6634606316104907 30.0884862528461632 10.8760647924256517
 27.9330931042460655 33.2257874952005778  7.7405238300441761
 55.3358414532609544 28.2871536160601131 10.8540626454089200
 23.5887330692973904  9.4523976663415148 10.7600376360264072
 52.6546919368117514 30.0739765913374733  7.7547155884609138
 23.7315174001598876  9.5547881331271256  7.6441312754968784
 28.1223573092632328 36.4093194387826600  7.5904742319603837
 28.1194480760345087 36.5649761687860959 10.7075368606507553
 28.3120199893783351 39.5913908561923975  7.4111971364615723
 23.3763559582317164  6.2802936352015744 10.6531247912709048
 28.3348607386019111 39.7735701819482728 10.5272129429939945
 52.4933400356930022 26.8992768050743258 10.8709976976655263
 23.5248151475122782  6.3683125643433351  7.5368319311339897
 56.2560206666249982  1.1673148958218453  6.8213412883201716
 28.5024014526283196 42.7709481404153706  7.2041746752809903
 28.5524700195073571 42.9779972532881516 10.3195122008746782
 52.4465481354162151 26.9084017849235373  7.7507714428196532
 23.9333162959161818 12.7335940977144482  7.7536091901731607
 23.7973306967415041 12.6396404823140127 10.8693638788323899
 27.4877923918062912 26.9258496545583768 11.0633648321632769
 55.3245814956327493 28.3187090724695665  7.7333261190468159
 55.1154487650177458 25.1532925274417494  7.6827948753437187
 26.7786134640119258 14.1534576331902091  7.9023418655866990
 24.5190954329156163 22.2659645248394256  7.9236850447653921
 53.8676172486695748  2.8775751302536841 10.1762571429482858
 26.6751914938080681 14.0763123568664810 11.0192965053045775
 55.1657171768340575 25.0991395886223074 10.8028557284018181
 26.9742538816649535 17.3280761371274323  7.9696285736516081
 26.8782213360935742 17.2813309524926275 11.0873726189324575
 53.6228263446252029  2.9408766868029637  7.0617158420960644
 26.4693659182211718 10.8818716642035955 10.9244462916739113
 24.2105394839536814 19.0490959142388547 11.0191060027646284
 24.3264297464955881 19.0867953610045831  7.9016254066852563
 27.0798109893022811 20.4937178154460540 11.1200880206146806
 24.0043052667265151 15.8405245883153487 10.9596231134385977
 27.3604326310515269 23.6808109163495608  7.9945964047877922
 27.2829226414001162 23.7099234971741630 11.1124566810264369
 52.8337944311982710 33.2754999648638474 10.8594356717090790
 52.8640682283701935 33.2383645715954898  7.7378774296385631
 24.1313507786271586 15.9099773141392813  7.8429562589963071
 27.5517876058628950 26.8600812859656664  7.9457919233252099
 27.1678979955994357 20.5038783065832284  8.0023450941899714
 27.9067263098399572 33.3535881212770207 10.8585698755966202
 42.1957531193664366 40.2655334214557783  7.3809208801139325
 50.7703207875563010  1.5170139931182374  7.2418274499308826
 37.1512288589885742  3.9466968314868027  7.7918087068533115
 37.1812665255749124  3.8859514199779710 10.9121752972195161
 44.8246319837264693 38.6765935966880434 10.6236045602813238
 44.8584668606608403 38.5079329133502313  7.5072990478879191
 37.3648152132922675  7.1366395721924052  7.8661948560983115
 37.3943560895328631  7.0525800131505552 10.9848559522531648
 37.5710382113472292 10.3178268056357911  7.9536154500081233
 44.6485172207461716 35.4866555877424901 10.7739881512170204
 37.6010144518047866 10.2316676133898028 11.0715561336057000
 44.6493348481748669 35.3426409327112268  7.6568449436466679
 37.7696700622326986 13.4926677502182688  8.0312543381726922
 37.8018816595128442 13.4258380711380898 11.1484193068745316
 37.9636321843558164 16.6659813677389756  8.0826485156623473
 44.4717629674180941 32.2926092672635079 10.9008383951427206
 37.9991770641462807 16.6279714802804186 11.1999207611028169
 44.4442695218529025 32.1770147964942055  7.7825587517956203
 38.1554663509651135 19.8391545934226130  8.1033907025869087
 38.1918037664140968 19.8339948135266759 11.2205963656920815
 44.2936686439139535 29.0950548173311248 10.9988815455351325
 38.3471674383568271 23.0117429576001555  8.0890935975849434
 38.3803374075389527 23.0442327506642854 11.2063244690225137
 44.2423071940246970 29.0109957785006962  7.8809463688331034
 38.5382974219121408 26.1834471909411377  8.0360836126180093
 38.5664543821417496 26.2554233691782599 11.1529878825024902
 44.1145536354068213 25.8940387050882457 11.0660331718401892
 38.7313204677332550 29.3552639651013223  7.9442117799655652
 44.0443102068418710 25.8436021209664304  7.9480333598153896
 45.0702047943865551 41.6730621103899068  7.3377985167707678
 36.9652659852167957  0.7274580315703011 10.8711990294506649
 36.9345797270616174  0.7501229639922710  7.7498888958470529
 45.0002745159192443 41.8621774372226980 10.4535057427599014
 46.0549092629666248 11.3253882612594694 10.8769794480053008
 36.2756676956260904 34.2826016001793903  7.7319528432649633
 45.9148268303152705 11.4063503319769399  7.7608029231031006
 36.2687862367173750 34.4528923206537314 10.8480061550910598
 36.4735576715947900 37.4535038186565643  7.5432550921314903
 36.4624581510923065 37.6577856932266783 10.6578759363224904
 45.8548983079959456  8.1411850832157544 10.7964660284953684
 36.6746289480607999 40.6223583234438763  7.3214769032177509
 45.7102898512197697  8.2300138315179918  7.6803235348006247
 36.6581847463796180 40.8578351525618686 10.4353650334894930
 36.8797539639759080 43.7891342571231448  7.0715482967144654
 36.8561771841668246 44.0491373275714295 10.1850002791280811
 45.6452462191935808  4.9709964986730579 10.7200186545743783
 38.7523408375990783 29.4650102440626362 11.0613976183002976
 45.4983356558644232  5.0461081532882739  7.6034553030071201
 37.0563917105109653 47.2298888304133513  9.9168865050401269
 45.4295355771129223  1.8122231262703794 10.6688222503422683
 37.3057900305570627 50.1308694805413069  6.5321317877633334
 37.2602923788728901 50.3972498634906145  9.6470816862537738
 45.2819371442735701  1.8550587830898946  7.5510964038068815
 37.5255448476262643 53.3114638006147459  6.2768859404461592
 37.4678805320702963 53.5508602068379105  9.3951253072436725
 45.1782317399404079 45.0422824662451120 10.2680156441489547
 37.7481107404709846 56.5056479133173895  6.0622860573431590
 37.6794897749172080 56.6913867202393931  9.1836795771130841
 45.2868652082901946 44.8387981121356631  7.1536516976315800
 37.9726379508252165 59.7140650221007689  5.9153556793916140
 37.8947016251660784 59.8211154637302656  9.0401772449546485
 37.0898956284844346 46.9579019404005535  6.8031678982038288
 36.0762400178157847 31.2449100219909504 11.0025667139354617
 38.9277905097883234 32.5246561469876383  7.8157669997333619
 43.9342468564867445 22.6914125369271353 11.0997574535529413
 42.7534524442990858  3.5561491767849902 10.7991540813277425
 40.4887476741946628 11.6628044102163830 11.0672372535781101
 42.6446864393396083  3.6174053132208752  7.6806010698274303
 40.6149939655166534 14.9132191564151206  8.0131483722931822
 40.6858806519456451 14.8596874013229669 11.1302171014419180
 40.8078284991833442 18.0863576686209306  8.0492678573861802
 42.5367185947137969  0.3996771916015865 10.7631869921626322
 40.8783429396126508 18.0617549014358687 11.1666151780516536
 42.4284079664034905  0.4224582491110244  7.6438133209465491
 41.0007088927168226 21.2592489614806013  8.0561205279552723
 41.0659928561783758 21.2671759394821507 11.1738995119940832
 42.7142008622506921 50.0033694864159060  9.8335579542627656
 41.1931572934716996 24.4299309510959297  8.0291238437018286
 41.2502814357693879 24.4744789418935227 11.1471979229470239
 42.8510968619180375 49.7670813686972835  6.7195035563158720
 41.3863278723366861 27.5993752019700764  7.9656248135074970
 41.4330145729963135 27.6808917209447110 11.0831795393971557
 42.5253035243139763 46.8357065471609815 10.0602902931064264
 41.5826964468337152 30.7675390823880797  7.8661990151110324
 42.6278800730213518 46.5971695183389301  6.9463249650977845
 41.6155784289415109 30.8844390956351837 10.9838638013771490
 41.7826370372232176 33.9349155819602828  7.7335057711896980
 41.7979373656587327 34.0853744958820357 10.8503449574848361
 42.3411389064218326 43.6581013170129566 10.2846458461300010
 41.9865686874806983 37.1009295799187981  7.5704168331632786
 42.4087217184227967 43.4302187855409656  7.1705071669622988
 41.9792450204336589 37.2820596388564951 10.6859225579328108
 40.4191874166349052 11.7407512646489742  7.9501491216755751
 40.2848161109151732  8.4759728319439489 10.9854174009920857
 40.2159070209352905  8.5635691480388303  7.8676980548790478
 42.8584889581560446  6.8061722947436012  7.7500850810827346
 39.1263017019549650 35.6931368368611786  7.6527918940306483
 43.8493443852588243 22.6757195901134381  7.9812668857019702
 39.1266750205240328 35.8739825666081842 10.7683918283848463
 39.3291211178498159 38.8599098591238530  7.4569724957744645
 39.3140857409938391 39.0729558474726772 10.5714596046207845
 43.7508540969261048 19.4893838049143717 11.1004410915358473
 43.6545465356209235 19.5051109436170123  7.9825607214961671
 39.5367580817209330 42.0251648643501596  7.2324286650461511
 39.5021140945902758 42.2651734719928953 10.3463620046124625
 43.5639871276640278 16.2897239681890937 11.0736036230882746
 39.7502340537901802 45.1911124555414077  6.9870906738735759
 39.6924943389789817 45.4482509579173026 10.1003790671246794
 43.4610080624536366 16.3323612677885031  7.9561535389973930
 38.9397903513821788 32.6709184790384199 10.9329529536747714
 39.9684817296952204 48.3596706444518603  6.7319321826812848
 43.3713090168243340 13.0921490497646218 11.0223097486487820
 40.1909917137058841 51.5344626937652350  6.4829264510365681
 40.0844726098361832 51.7815843059354890  9.5981785803085451
 43.2654591372032300 13.1600317425248701  7.9055961722727410
 40.4168499334519424 54.7196094146762988  6.2590122441164278
 40.2885215083712822 54.9297671263673308  9.3768662836289458
 43.1736163899408325  9.9002704367141625 10.9490892474565431
 39.7906667783962931  2.1859432190994244  7.7288092247380176
 39.8598802995312482  2.1420712243135540 10.8485448446434898
 43.0662438176305784  9.9859866027695521  7.8323072713097632
 40.0062389473211013  5.3781504072292545  7.7866985521816234
 40.0752074176106845  5.3032623897927689 10.9051877184632282
 42.9670964807333178  6.7224043790845238 10.8671348232430400
 39.8856969918747453 48.6206885708904082  9.8461560262334231
 30.3497747814378407 28.3700121791382784 11.0719150066886058
 36.0793341052443566 31.1104147717204675  7.8856312275113076
 35.8862211039678698 28.0339187237456535 11.1193483690406492
 32.7027184771966972 63.3248637285162133  8.9843074911220651
 49.3682446073715226 22.3320483557599907  7.8011269985659659
 31.4408229188922625  1.0774420511928759  7.7204661023293948
 31.3937378446154867  1.0539295279096985 10.8410865891663111
 42.1603815461977618 40.4733101320559925 10.4957097575341027
 31.6577064589406660  4.2736889514104544  7.7676845077533052
 31.6116364379872721  4.2121866122076508 10.8878041567705086
 49.1656754844116008 19.1632459812474458  7.7721699826156687
 31.8688031544845849  7.4640496806881069  7.8470547624427329
 31.8242077181843896  7.3788740973775315 10.9663587551257642
 49.1148864901485140 15.9322505042501774 10.8410882878158965
 32.0741011161831437 10.6469531584831127  7.9406887856537347
 32.0306570336704297 10.5584757267044793 11.0592654326169750
 48.9658027819376258 15.9926172241971187  7.7243982930995818
 32.2732190231211575 13.8229145216615681  8.0252272007391099
 32.2334072770095901 13.7527887033816203 11.1431068219313580
 48.9283705559931121 12.7433528322681511 10.7763433670119486
 48.7652056226168540 12.8220215096901082  7.6602141681771059
 32.4683863550063165 16.9963466243752954  8.0831435893368226
 32.4334429493620320 16.9563092508637254 11.2007183824502743
 32.6608422491721200 20.1694128220974065  8.1073987712871514
 48.7351397366853689  9.5588795643326225 10.6965920093653253
 32.6295800988230198 20.1657423336449355 11.2246128607725488
 48.5613903591074489  9.6501831785670635  7.5807395628406908
 32.8521593481888985 23.3435938297657195  8.0918423457413802
 32.8241173009091796 23.3809967468978677 11.2089938600440657
 33.0432510445770831 26.5175240504880350  8.0333652371436166
 32.6170421513988131 63.3235871301357633  5.8582032047264203
 49.4735617288318892 22.3138029581669741 10.9196190492455028
 32.4826520240263932 60.1992474802729518  9.0395401073006099
 32.3936351858061826 60.1054918144802457  5.9146564433238655
 30.5853135990921992 31.4550397018688876  7.8399663446798584
 30.5521441344798710 31.5831154297934731 10.9574948593976291
 30.7776881136413287 34.6349417939123612  7.6905646874798519
 50.3326972862736426 38.2631154784803442 10.7238933847414284
 30.7573621974854809 34.7948765688047814 10.8072861685835075
 50.4032271480033813 38.1602928518220423  7.6050770650842381
 30.9701549775029044 37.8140378835634081  7.5087078089564869
 30.9652179316996552 38.0035783784753960 10.6241002974414229
 50.1628915909046356 35.0768009773885225 10.8066025872714597
 31.1635483767561468 40.9911633449780339  7.2965275401567018
 31.1759971183696898 41.2083559969241193 10.4112090062044889
 50.1945182431657884 34.9943872196314203  7.6865266392346223
 31.3583735199572011 44.1654665407560429  7.0566278746851072
 48.5314810644376138  6.3845962755443333 10.6135439310126696
 31.3893379052848864 44.4071397178148217 10.1712417467587066
 31.5566256694076834 47.3389623828354118  6.7952328897610030
 49.9849083956703453 31.8291218504004867  7.7487815641998505
 31.6052550539016330 47.5953412107972795  9.9100826554061090
 31.7584247633925720 50.5162668105928674  6.5270589331117792
 31.8233466134510969 50.7682541200976090  9.6427844159556759
 49.8202644564229331 28.6995024175098159 10.9100486563438555
 31.9659027830010452 53.7011706457014455  6.2733781501137358
 49.7779343838976089 28.6644107107907509  7.7903403453171558
 32.0431988199942168 53.9256345181406758  9.3922628138802704
 32.1764858247933176 56.8970323008626337  6.0604200880544949
 32.2625439086299437 57.0680392369618517  9.1823033767884557
 49.6474045785921518 25.5066707566028192 10.9271979211848471
 49.5717352700483218 25.4983755410555766  7.8079342793979638
 49.9910305994627464 31.8890444787403666 10.8697897870731115
 46.1139397283296404 14.5772844979815392  7.8260674128783609
 33.0182312876549275 26.5960348560120643 11.1503093230541808
 33.2353043260803815 29.6934695673281972  7.9336863011972589
 47.1092268459005581 30.4199836512276214  7.8010701922996040
 34.2964326551599186  2.5126112689760536  7.7695236331373714
 34.2884842020202640  2.4693808068658738 10.8903396539119743
 46.9717746555598339 27.3017250621891350 10.9793667264993946
 34.5113983096790307  5.7064359726373670  7.8316397142541403
 34.5028222758878869  5.6320548963047790 10.9515234650117872
 46.9061065591128070 27.2539697790029756  7.8608100601901940
 34.7201310722866907  8.8932099013757000  7.9175124350396917
 34.7119144374026831  8.8048312325884233 11.0364808932920386
 46.7952239342131264 24.1050342633833949 11.0105900657028499
 46.7052591390396827 24.0882434266124328  7.8921476249964364
 34.9233601366571591 12.0711294087326753  8.0060937285108107
 34.9167159664712656 11.9912820984692949 11.1239960831900238
 35.1192149990369487 15.2445659999851149  8.0748917421121771
 46.6163421402578848 20.9069938676631040 11.0123185856697958
 35.1163836862936662 15.1902755876534048 11.1924676289321017
 46.5067217874238850 20.9198998685443875  7.8946626705609146
 35.3118172095227365 18.4181716465986938  8.1137531382413943
 35.3126980453862274 18.3964558733172190 11.2311616309643139
 35.5036233991563179 21.5912801938285774  8.1172623231921861
 46.4340910920474599 17.7109155273275576 10.9884178676507958
 35.5061228308235570 21.6070658393179009 11.2344259662948911
 46.3097082871747929 17.7489085332284162  7.8711213121797403
 35.6940978217570049 24.7637477991976205  8.0806066338877507
 35.6966186867438964 24.8204666011503328 11.1975290975277044
 46.2476016261102316 14.5168785395336588 10.9430769643713219
 35.8859516547838098 27.9371861087727957  8.0027114840717832
 35.2980022748341682 61.5732367025754499  8.9628471198782655
 35.2950187438818404 61.5174846228889578  5.8359792379206414
 47.1454587087070891 30.4966675091558379 10.9204268030782732
 35.0792254916770432 58.4467993395879617  9.0656453071419385
 33.2128447307325629 29.8102586119846116 11.0507491133564564
 48.3188264183275038  3.2221710121092153 10.5482417545886431
 33.4293910738680609 32.8693403872083465  7.7962109598028100
 33.4099631206407679 33.0218515933028911 10.9128883814570976
 48.1352529596555314  3.2832995679322492  7.4322038485949351
 33.6242356893822603 36.0446166550782081  7.6233465309506778
 33.6093969099921281 36.2303272185563685 10.7387085667819591
 48.1014651531992357  0.0695570437732571 10.5193267421464434
 33.8205161714847975 39.2185431615378093  7.4172088183034877
 47.9179555210574648  0.0886521436360924  7.4027632870625615
 33.8117548940367811 39.4352834254955198 10.5314487072599903
 34.0182313584734359 42.3902470139258867  7.1803488042391086
 34.0163029248160669 42.6352108631580293 10.2941276281665477
 48.3513924888792985  6.4711093239333710  7.4982671918627002
 47.6649902534899965 40.0636042962631223 10.6006004128594018
 47.7358744060740960 39.9169400146807547  7.4832129858594270
 34.2245153390728234 45.8258013857819506 10.0317682844128733
 34.4266819268415603 48.7323580559049532  6.6420538671128240
 34.4343559321481507 49.0026628632872843  9.7568112066726691
 47.4924932463178138 36.8778112784157841 10.7274225105633558
 47.5250659538884932 36.7514504784478362  7.6093696804433009
 34.6374513498557235 51.9110859323635907  6.3711846566616810
 34.6466169606906789 52.1650049736950336  9.4882206771460744
 47.3198206239568719 33.6891310805312969 10.8352831384257389
 34.8535537316893027 55.1001249511645597  6.1284093788061433
 34.8625863345152922 55.3126611836847033  9.2489965258711901
 47.3166507859051535 33.5857190682420708  7.7162141469962160
 35.0718521377772916 58.3024023754293950  5.9412675667209989
 34.2203060841915132 45.5603852978401136  6.9180931593554567
 49.2961925258862621 19.1221668395682833 10.8893069639190969
 57.8366746331682435 23.2994359436228571 10.7068802436807822
 22.9891589838930415 43.1617341712766560  7.3350668616167161
 -6.2253099163817120 16.1204878398997948 10.0876400019507901
 -6.2698725066770322 16.3766833206075759  6.9736395288940853
 -6.4208717701229476 12.9507625018680805  9.8237452717631566
 -6.4902351776822398 13.2076757486512637  6.7089018541284462
 68.0820159667736391  9.7926616476989832  9.5699079925332295
 67.9865688906051560 10.0318126828423182  6.4535101264183856
 -6.1761929639026265 62.5936280022995035 10.8375823644732865
 -6.0562739673723893 19.5427346736792238  7.2313064089018164
 -6.1268268020352625 62.5722244205967613  7.7169486397135660
 -6.3425050668812117 59.3763986371739989  7.7581832722756223
 -6.6107962858177194 56.2739440251468821 10.9517326273843381
 -6.5543265108799345 56.1859063234753151  7.8339272360185648
 -6.8193183451619044 53.0969771523517124 11.0436102889425705
 -6.7577364635161228 53.0030786847789841  7.9267325397683477
 -7.0209077341766619 49.9067665892347421 11.1288935328855363
 -6.9557636680856092 49.8281942456032496  8.0122050996126806
 -6.3954611171217106 59.4377129479633126 10.8774093429498553
 -7.2153045636363879 46.7087696644825598 11.1926780002327781
 -6.0339747210648831 19.3008774873398430 10.3452501870631330
 -5.8444012610750491 22.4907253877672275 10.5833236576573118
 -4.3347802659564394 48.1423468281851825 11.2106457519768625
 -4.3046950295510849 48.0774373459420943  8.0938798310780964
 -4.5290206437082769 44.9393991418976526 11.2606295999734822
 -4.4964580044681703 44.9026698102203952  8.1443126400927053
 -4.7191024609839092 41.7315578997925059 11.2792405768562141
 -4.6864646101844620 41.7289803145293519  8.1626388970488311
 -4.9066061249701942 38.5201069124669999 11.2599509495806380
 -5.8484736984986272 22.7079512973455167  7.4690654688149909
 -4.8756891093230221 38.5563568391914089  8.1436545310781909
 -5.0658499176605210 35.3840036736698167  8.0852871625891609
 -5.2819571202579967 32.0997724701335372 11.1037689093420653
 -5.2572869183130857 32.2125727046630104  7.9878627450216690
 -5.4696878661308199 28.8920525513252962 10.9666229049520521
 -5.4509629600547349 29.0427211104770180  7.8517755714003075
 -5.6571346051960747 25.6881755620438099 10.7920713452869226
 -5.6478202229081669 25.8742059780517408  7.6776383687807144
 -5.0939901698902608 35.3092650946814999 11.2013199134062482
 -4.1095399885354684 51.2516220809381622  8.0170247726614488
 -7.1497317330105350 46.6545834231552305  8.0761967229889144
 -7.3408844945972227 43.4803828164299446  8.1133305471076955
 -9.0716436816008112 61.1800359396814102 10.7793172924554987
 -8.9806414064421638 61.1383870075638569  7.6596133460628533
 -9.2896692124432185 58.0213912986378659 10.8347277668957815
 -9.1956158789743903 57.9446492003188283  7.7170497346236671
 -9.5012868604555845 54.8528754536870338 10.9188285378303522
 -9.4041506880754842 54.7575685957999809  7.8022889784602443
 -9.7057443753141737 51.6703045803584544 11.0097922636351679
 -8.7638089119878622 64.3362201805068139  7.6444172990576478
 -9.6057845889065181 51.5797123014414041  7.8937103873159886
 -9.8019315659984372 48.4064590108331458  7.9701339224323666
 -10.0926356734049669 45.2782712144350654 11.1392117039542917
 -9.9946982902771921 45.2333515889454034  8.0235395414441655
 -10.2801179526493947 42.0756195091788925 11.1647431096181897
 -10.1851676287355541 42.0609814129316959  8.0487717630491264
 -10.4644938700211778 38.8704695544955356 11.1565189855303526
 -10.3761247303751087 38.8901578737037141  8.0400240813789541
 -9.9019159616461341 48.4768342171239439 11.0861026538167557
 -7.4058625907665405 43.5050665668976464 11.2295114231593569
 -8.8512149212187445 64.3332548117541450 10.7645397107300482
 65.6423657959669953 14.7346266220915592 10.0372613843687883
 -7.5927254347458089 40.2974200231732311 11.2335725908962214
 -7.5302553568889028 40.3081844378673395  8.1174423378345999
 -7.7785924821140879 37.0892945966826133 11.1995402985208994
 -7.7203712415123196 37.1375569897476154  8.0833564191635823
 -7.9633971665601635 33.8817167999710449 11.1279433322696857
 -7.9119409713552029 33.9663092073193837  8.0111037023923899
 -8.1473210636495903 30.6770466168692089 11.0193590084116479
 65.5533786064469695 14.9659273953641954  6.9218366368310971
 -8.1063525795934002 30.7966524173945864  7.9027164348379673
 -8.3039790559564590 27.6290381331072687  7.7598255245070797
 -8.5102264953330149 24.2805650942240447 10.6995146021426528
 -8.5053725200732391 24.4625383926838254  7.5841263824693081
 -8.6916976161392583 21.0912275381580443 10.4961394573203339
 -8.7132666573495303 21.2975129956207887  7.3809828835220381
 -8.8744217835829478 17.9086566770132940 10.2720705448910810
 -8.9277427824735813 18.1321916647797927  7.1569880317671108
 -8.3292896816750055 27.4764876505349456 10.8751215057253088
 -10.6453319549023746 35.6672953494029628 11.1129321658830218
 -4.1354221315442343 51.3387230586451295 11.1340741447928426
 -3.9292225193356116 54.5238660365225627 11.0403691115794302
 -0.7572450978219667 15.7415454865047462 10.0239740671843354
 -0.7410082942169163 16.0180389647576789  6.9109756301455842
 -0.9684309570563450 12.5678095407073780  9.7405679960840672
 -0.9487592241393615 12.8450034316488377  6.6263471705006500
 -1.1824459151412117  9.4082026093640305  9.4668830580066956
 -1.1625299020415465  9.6654728598903414  6.3494652093087263
 -1.3976914631602755  6.2631583486619737  9.2266159095902260
 -0.5383318008919901 19.1884024503604778  7.1849987887655589
 -1.3807893200275396  6.4734004678352290  6.1062360961678586
 -1.6041475567160428  3.2663470728837765  5.9238991054728851
 72.8683322300360743  0.0039051843250009  8.9559740405914336
 72.8716320144311425  0.0469694511406633  5.8293724345794766
 -0.6037736943304176 62.2672404654085412 10.8734893558786556
 -0.6335113278988088 62.2447240676785398  7.7524392735742360
 -0.8218453097673557 59.1106836891056133 10.9194357411098100
 -0.8492397438676945 59.0485255686110051  7.7998791792375952
 -1.6148283353963375  3.1299348197265484  9.0484600069605410
 -1.0362883718406548 55.9462183866526530 10.9998453785043093
 -0.5470163283392441 18.9288489844086492 10.2975052475972042
 -0.3398378223559979 22.1277028020095976 10.5472476956093590
  1.2346308772564683 47.8164216475422776 11.2073257040833916
  1.1923841633750540 47.7497437981704991  8.0911201466911624
  1.0356728109493607 44.6107453878962801 11.2624087966956647
  1.0003886972147695 44.5760910013425047  8.1465685290272400
  0.8404341016427826 41.3989738461618018 11.2814421112499836
  0.8106052618474798 41.4023356381724597  8.1653705872315694
  0.6476115366176445 38.1840285404714592 11.2590964877246709
 -0.3413267659929166 22.3586492510482380  7.4343979634902251
  0.6212899925570684 38.2275237743065759  8.1430771135286513
  0.4315086660357609 35.0519880119477421  8.0791108470414095
  0.2602097907127854 31.7556304190899752 11.0915713607149726
  0.2387224471804908 31.8778361518135718  7.9750210925841127
  0.0637308030330750 28.5433662660844369 10.9472588539022961
  0.0460150838402213 28.7039973604505434  7.8321846351702717
 -0.1363128175070978 25.3334962384654077 10.7650399489453275
 -0.1473478855641878 25.5303732208489720  7.6514711995216764
  0.4554456489286504 34.9689591796148704 11.1954687396894599
 -3.9098616513732036 54.4299665448337890  7.9227114972123402
 -1.0592869456775080 55.8575083334732980  7.8818803530334014
 -1.2619896348182984 52.6755851939484430  7.9807011103245751
 -3.3884848776206864 17.5172854199672230 10.1809059030478508
 -3.3994306346309737 17.7839941898560561  7.0681713803763833
 -3.5903476139808901 14.3401858087648968  9.9030340797343275
 -3.6108470851161498 14.6152208835427047  6.7889895413005714
 -3.7956251944361479 11.1760742630290171  9.6256104580793131
 -3.8284415101771527 11.4423553994935521  6.5102100828441474
 -4.0035961090803154  8.0242931683527505  9.3697030252181950
 -3.1944576597415466 20.9512465025737704  7.3310159783055466
 -4.0508968888020522  8.2587564909713453  6.2510177682036465
 70.4234737553711625  5.0616230363325734  6.0394610526710135
 -3.2803573066960907 64.0077145583369571 10.8674837591951494
 -3.2720902802305378 64.0078098854966413  7.7465592932523393
 -3.4997608421361810 60.8530605745752666 10.8896969420647061
 -3.4889764690624063 60.8100061532049381  7.7694796460962001
 -3.7160838692054967 57.6933142307933267 10.9514053289065476
 -3.7022250306701840 57.6164022441463928  7.8328656107586969
 70.4861775486613595  4.8859995462208428  9.1610172314124210
 -1.2458562038019338 52.7698458189375259 11.0976958057728687
 -3.1888578229854221 20.7064484297507576 10.4438357032647904
 -2.9915508164113147 23.9053823018574683 10.6793104192990143
 -1.4499821388960421 49.5784289174357085 11.1884811990220605
 -1.4591298499371024 49.5007725440808386  8.0717214477426982
 -1.6486208902558852 46.3771178497165266 11.2548555567439053
 -1.6524383008135084 46.3269525463930307  8.1386894762964364
 -1.8435289996658246 43.1692649332111458 11.2901463054460560
 -1.8429223097309895 43.1520514438245257  8.1739602712768615
 -2.0338493248980480 39.9575203566433501 11.2883569024582080
 -2.9946251012779208 24.1188383099402799  7.5656888153130319
 -2.0317123428239596 39.9783763844133304  8.1719961942897150
 -2.2215361259075026 36.8049752120950515  8.1298841325214752
 -2.4134732871562963 33.5318441794121469 11.1639747000926430
 -2.4128576738171192 33.6311698549982552  8.0477733741427642
 -2.6046448832009856 30.3200691732137031 11.0417732463925748
 -2.6053083622817068 30.4585638740319169  7.9264611347701619
 -2.7970686876397779 27.1103854730204930 10.8794651668850637
 -2.7987829288916393 27.2876927152760551  7.7655392203263807
 -2.2231380235182523 36.7446241705119334 11.2459598476241638
  1.3875789380103152 50.9235041606587799  8.0065663661470428
 -10.5687132049518002 35.7203312424665782  7.9955574784524019
 -10.7647525878274841 32.5515521635862015  7.9180324045102584
 -22.8351715215832058 63.5957128219047121  9.9399627021577057
 -22.5843968048539985 63.5949209373679309  6.8243457444410831
 -23.0541693311080707 60.4531429771786151  9.9566026831806678
 -22.8015600105000757 60.3926107242285113  6.8415031612944546
 -23.2657702209729678 57.3061034194787524 10.0264168797723716
 -23.0190410126089802 57.1980901572282505  6.9127999753693965
 -23.4699183860757472 54.1496523304749786 10.1351009907784597
 53.0722686534287718 36.4044361348792478  7.7021558651634585
 -23.2365316831001500 54.0124701286279389  7.0222105003960253
 -23.4521731592677192 50.8368160613533888  7.1480188515242329
 -23.8466768477129563 47.8065102126162458 10.3880149215717790
 -23.6653660146393712 47.6653059467082016  7.2737980159146503
 -24.0238553131066546 44.6281284104296887 10.5104559885110778
 -23.8775988445326668 44.4951513495138400  7.3947603336528669
 50.5040797802582873 41.4471058196217470 10.6240419198130489
 50.6134360439876545 41.3267474159177013  7.5066594225684078
 -23.6632825317517117 50.9816120657778029 10.2608537659519978
 -25.6954225474627016 62.2037887637965881  9.7061858621153103
 53.0033434510005179 36.4624071964520553 10.8219407758784101
 -21.5280578866108634 39.6485553961501864 10.7659253041016640
 55.5055715179482547 31.4745635105125920 10.8844695333070351
 55.5334506959551533 31.4834462510006965  7.7627643971661957
 -20.1837479634788686 61.8501644711175445 10.1636724931364935
 -19.9535996824567405 61.8161530848937559  7.0477362096208314
 -20.3998444839546842 58.7007583400577460 10.2092819537444690
 -20.1689782260165344 58.6194189200049820  7.0943272767561236
 -20.6093670124596997 55.5435506346719023 10.2948770647374506
 -21.4214564393113882 39.5710047155375122  7.6478235584285708
 -20.3827158099314261 55.4306400947831577  7.1808557905369206
 -20.5940885485955576 52.2523357387255203  7.2869372582312515
 -20.9983538056812122 49.1976188971771791 10.5056137623352583
 -20.8027021781388477 49.0801188018834935  7.3923657030996077
 -21.1791363421617227 46.0167935365697005 10.6039971537450679
 -21.0092456192827903 45.9092172657145454  7.4894378546494575
 -21.3555685286815944 42.8338987906717179 10.6922222674274767
 -21.2151788905040775 42.7394841784433197  7.5759298671816175
 -20.8090111688071282 52.3752479062039029 10.4001655510370981
 -18.9604377168308211 34.6489768932448570  7.7723243552942174
 -25.4356000918534555 62.1744034057063715  6.5898677462223256
 -25.6560211300064118 58.9722534183417295  6.6368652714214385
 45.3583839980304120 48.2162243681802138 10.0751541863676479
 45.5076138280754066 48.0072784836252779  6.9611881616812532
 -31.1617414349409749 62.5707376717482617  9.2639698860562305
 -30.9464041276124497 62.5484324368091436  6.1434713879643015
 -31.3783907700695046 59.4413115847566260  9.3143497402793969
 -31.1699818015621339 59.3367776803723928  6.1954512230318439
 -31.5891245076895757 56.3051888620940204  9.4388947257637703
 -28.9700458669385164 51.1798346649813567  6.7709086625288082
 -31.3971787121047718 56.1341474344605231  6.3222944563384846
 43.0776085581304571 52.9444771766226552  6.5049328713787364
 -33.7688003685359064 64.3205423138537498  9.1024485676328304
 -33.6079275125899315 64.3503968454327264  5.9796603839426972
 -33.9881600491545086 61.1945977804088841  9.1098093432616718
 -33.8317324334774767 61.1305963486669270  5.9870114005607125
 40.4980770458347763 58.0661671495600089  9.2060155962614338
 40.6436388539261557 57.9187736767455306  6.0858869294157136
 42.9105231337377262 53.1597762953898538  9.6191914121513786
 -25.9113452549872605 59.0646455142514313  9.7518627613225117
 -29.1561661232013449 51.3818501788674453  9.8846279022310313
 -28.9605397320354392 54.5381234158594950  9.7097396351912888
 -26.1187487128476050 55.9186949907565989  9.8527999721052328
 -25.8768283929059137 55.7786218327550358  6.7392906667697776
 -26.3183420138573538 52.7626761394469455  9.9913846296392350
 -26.0984548922666910 52.5954940441889391  6.8783190560532157
 -26.5069854453684997 49.5960629243157030 10.1461109517347818
 -26.3184462973742512 49.4213032758032398  7.0324966947020560
 -26.6870447682974898 46.4231602225679438 10.3037529801577179
 -28.7451439969017031 54.3615138843382084  6.5956971911382816
 -26.5369759445135251 46.2509359769840245  7.1890529710198354
 47.9484367584675724 43.0824269131752970  7.3415262471965663
 -28.3246035660410449 63.9522208100271143  9.4779621270311178
 -28.0766425954163132 63.9650630518066237  6.3607364603443690
 -28.5432922909650593 60.8198553757930185  9.4893646461706123
 -28.2966432801312848 60.7556991459863411  6.3722479717791449
 -28.7557425190662173 57.6829163188865408  9.5713113229822131
 -28.5198021018613552 57.5531292789346907  6.4559945508933447
 47.8387058695168861 43.2450635240365600 10.4572854333265113
 -10.8254633019581430 32.4669455883403941 11.0359633121243590
 -19.0260530784227306 34.6618864946961267 10.8931137667968247
 -18.8552006056485446 37.8507270531280753 10.8803995951739179
 -12.9658130116474641 43.8539277340007914 11.0545592401270767
 -12.8404444231275612 43.8144204544618034  7.9387913832673203
 -13.1480421739430540 40.6554400011684578 11.0725747642695662
 -13.0329356532318350 40.6442184411659468  7.9559820586365086
 -13.3272195521173717 37.4563739249242431 11.0595884387910903
 -13.2285680671056305 37.4747088804538109  7.9423912644124215
 -13.5029688813038860 34.2592559588360501 11.0172865569980303
 -12.6474375554242684 46.9871270253697162  7.8939870852719247
 -13.4260388859935951 34.3063280228548564  7.8987278032684971
 -13.6278164568171078 31.1391191595296064  7.8270213496889092
 -13.8515081339494195 27.8734137289776029 10.8485645600887839
 -13.8313422629670715 27.9737362958237092  7.7298221589765976
 -14.0243955933215290 24.6849118282839513 10.7268154533952398
 -14.0393724452316100 24.8079590920781108  7.6081126262359389
 60.5045789661243560 21.5001791153636077 10.5852947881380288
 60.4508808547118264 21.6414970683331234  7.4674548500236781
 -13.6787456276568857 31.0646932090639751 10.9468086834763056
 -14.6355972278338822 61.5104336777258283 10.5326857168437478
 -12.7786342812930247 47.0510242335575626 11.0091843676127024
 -12.5870682516936174 50.2451376446580298 10.9410608605487880
 -11.0040900522721259 29.2695769658192155 10.9267843330365917
 -10.9645338583604186 29.3848146151186533  7.8093806336942677
 -11.1802547127817853 26.0749371621955639 10.7880685559166096
 -11.1667555795138806 26.2177968287670886  7.6710283340232559
 -11.3564617434497279 22.8866266628608521 10.6240841697535213
 -11.3739222634973132 23.0524688341176116  7.5070893090476991
 63.1683916670467411 19.7029545573889528 10.4399994108296639
 -12.4524304906369760 50.1596257040399536  7.8259809584307281
 63.1141430165774509 19.8864318557094713  7.3233853985952759
 -11.6178428787763135 62.9029570071285562  7.5421307264316066
 -11.9644294261962774 59.7666639296595790 10.6934752686294043
 -11.8344041083052662 59.7063643604826453  7.5758686714515964
 -12.1798399784958313 56.6056717611240217 10.7638068207159279
 -12.0474196563000220 56.5154092983468459  7.6474018617251325
 -12.3874498223932985 53.4322252592050120 10.8545714576558723
 -12.2527737314442184 53.3333602691656097  7.7388478937424292
 -11.7443361825034245 62.9204474257957003 10.6608389429378434
 -18.7549313780366340 37.8161306548426879  7.7619960789175844
 -14.4712458867456650 61.4720262412938325  7.4153386648899016
 -14.6864411480228583 58.2772864424992392  7.4668822035696980
 -17.3021894771425124 63.2533292304695962 10.3564293370813196
 -17.1052764752861215 63.2421445093550929  7.2396572848997893
 -17.5219274074569178 60.1038086789896937 10.3812096657318733
 -17.3212850661728268 60.0439221464875104  7.2652385807113840
 -17.7364946434313744 56.9469393811246007 10.4487530513109625
 -17.5350811132691291 56.8525258505731941  7.3340440641022786
 -17.9425255863784905 53.7787386164646719 10.5418459405191829
 57.9937819624575468 26.5632584594377015  7.6841401435443792
 -17.7435843206048496 53.6700276531846683  7.4275117723076258
 -17.9478842043932509 50.4960467871431220  7.5231420323978719
 -18.3259563948391673 47.4150060887065763 10.7215329663291712
 -18.1498542744708651 47.3244734765807706  7.6070603080294985
 -18.5065587561022369 44.2285696303240172 10.7925530939155792
 -18.3511603355889363 44.1532401861136421  7.6771475940607603
 -18.6824930829775582 41.0400789919410443 10.8468683575325002
 -18.5522150185709940 40.9839252236650822  7.7299248021974742
 -18.1387996693992513 50.5992885654473739 10.6368844156207807
 -14.8534599782798793 58.3557772537020369 10.5832422580654022
 58.0071927806060543 26.4854347293779604 10.8040024740055944
 -16.5239678824935012 29.6736586421968020 10.8809899216207917
 -15.0649491671611386 55.1912828023586997 10.6661394069318494
 -14.8963022026345495 55.0908661519963871  7.5506832562119461
 -15.2679423726287258 52.0125564268464231 10.7586237794219510
 -15.1001379472148081 51.9138015875558949  7.6442706370636309
 -15.4614965365765720 48.8241236582659113 10.8409068229166206
 -15.2986819733709414 48.7410406865710399  7.7264052491465032
 -15.6477419487876421 45.6338899843957719 10.9055929553255169
 -16.4992488803062294 29.7288895888910290  7.7601341109592470
 -15.4952436888638960 45.5691830958867854  7.7903512177147229
 -15.6922588097841462 42.3983372805595877  7.8338421277338508
 -16.0060025642930590 39.2473269646417862 10.9702622957794702
 -15.8894742416525681 39.2290720400109407  7.8531845377345402
 -16.1800996523640030 36.0536219716869795 10.9650863901470270
 -16.0898541226264591 36.0608532863940638  7.8461552408814006
 -16.3521878916978096 32.8628867383378989 10.9349666150807678
 -16.2926430581111319 32.8944200473762720  7.8145881619269266
 -15.8296080378793942 42.4416746012245554 10.9498943325650195
 23.0970943159542301 43.3089015366133268 10.4517421796668053
  1.4365021833630653 51.0134333541750493 11.1230084777318243
  1.6438686358459174 54.1976782330791664 11.0218174451417816
 15.4025472130266738 11.5361402198900844 10.3682535874631441
 15.6002848391594320 11.6773914749366607  7.2538587511562600
 15.1812938185618780  8.3584740078491340 10.2175162070062395
 15.3982440654447057  8.4938388671884102  7.1032288469139484
 56.9218888936672656 10.7244477690177415  7.0922012327615551
 15.1927434084996626  5.3031072482272608  6.9680194664199524
 14.7375961172552721  2.0452769357869536  9.9843666430313025
 15.7972756666757057 14.8580600513153236  7.3966389125417074
 14.9817273737481322  2.1053596230957390  6.8689146690144796
 16.0527344958518512 64.4383422156457613  7.0372076597053379
 16.0798963924276421 61.2782604723605502 10.1815066998017798
 15.8359623409973889 61.2399074599855027  7.0674360590031950
 15.8581121492012986 58.1282244387772167 10.2619816505676518
 15.6241395921373574 58.0450705211129190  7.1488667190512700
 15.6396864499640618 54.9690622906268231 10.3805515575997802
 15.4196353760765117 54.8561069895076088  7.2678918850589120
 16.3011855272745869 64.4235505428692505 10.1515077063903139
 15.4225384406678270 51.7949903392986499 10.5181157048932086
 15.6238928325791093 14.7291862853453193 10.5122503690315128
 15.8454757956032530 17.9318539275903035 10.6365383522669372
 17.6301319288583400 43.6357110329815399 10.6764073011555105
 17.4835283421323062 43.5462533363761040  7.5607837699862941
 17.4085747914949245 40.4249559607271465 10.7687690880459233
 17.2953054991816657 40.3625327234640423  7.6510315901686079
 17.1860487569437304 37.2115811620452703 10.8327039661628994
 17.1090691153714189 37.1755882109168070  7.7128261344228566
 16.9626321908920268 33.9971773846525167 10.8686472041938096
 15.9904913243221554 18.0410873413048911  7.5196868911475239
 16.9240370282818624 33.9859691809854283  7.7471258877428317
 16.7386341617934242 30.7954844256470004  7.7550824219495826
 16.5133255175569111 27.5677483888943158 10.8569012365844539
 16.5533772215708694 27.6051443127876617  7.7368307004510868
 16.2900800383600313 24.3535267545395762 10.8111827530861966
 16.3679230582797395 24.4150925390438118  7.6918662468230430
 16.0672095847344671 21.1407386254590151 10.7372440828255549
 16.1808663287167036 21.2271192090777809  7.6191922749097900
 16.7379883454937968 30.7822443986983707 10.8764753018326132
 17.6729300284886968 46.7272939804982457  7.4427952219616458
 15.2190425644181513 51.6742902885014672  7.4052654483153688
 15.0230597393453102 48.4969742537795412  7.5370750102435178
 12.7695607729423681 13.2952827566827239 10.2889627665778391
 12.9514443631112588 13.4581749336393646  7.1743444673974253
 12.5450074720789608 10.1115295658194526 10.1157173124913040
 12.7536646530235629 10.2756610537333657  7.0012640754588107
 12.3217576876275512  6.9443871755368098  9.9491960444706766
 12.5514703975556223  7.0876602293322941  6.8349393780068119
 12.0985439384816029  3.7897727645450168  9.8128154951166007
 13.1447280574975505 16.6408426152296336  7.3347584808320292
 12.3445360767292502  3.8917251140720119  6.6974470575342764
 12.1320878894231008  0.6871812586524285  6.6103616886480401
 13.4182766756415468 63.0207765928482004 10.3550274589040718
 13.2018282774527780 63.0126302267196792  7.2403172002703107
 13.1966287433635774 59.8715929167195853 10.4042361853279886
 12.9871433749556928 59.8159217342799749  7.2898349038288366
 12.9774650828528042 56.7160310949576782 10.4959715928147190
 12.7775775479592095 56.6237469977439574  7.3824596860762357
 11.8759910819005263  0.6466949357011577  9.7265849961722619
 15.2081147226054725 48.6049108161049688 10.6512412834252217
 12.9955818889130246 16.4923153211774007 10.4506033132326195
 13.2202805184195231 19.6973217263594229 10.5926515196343569
 14.9928075983925861 45.4029018105846092 10.7625449425393942
 14.8298346001016892 45.3201504287344719  7.6475141897851389
 14.7764244947943801 42.1928474179964894 10.8450552554914204
 14.6393222506065310 42.1402942885131750  7.7285284168217299
 14.5586205125899486 38.9786895261077220 10.8957062360597909
 14.4515691558668227 38.9569461698382185  7.7774032469093353
 14.3384095600888557 35.7643206757806311 10.9152358721780960
 13.3348181088950017 19.8260694831184594  7.4754900773488684
 14.2653439332133694 35.7705859633356980  7.7955370333990466
 14.0790479807955080 32.5824680133807547  7.7851008463004074
 13.8919568247027438 29.3355900177181539 10.8674274542837139
 13.8925940081834014 29.3930996191821556  7.7474394838024114
 13.6687782656357477 26.1208121543225218 10.8025437840055147
 13.7077370402425700 26.2024598823211328  7.6832337861566486
 13.4447368389771071 22.9078291037007737 10.7110861075312815
 13.5221760274616436 23.0134007592125016  7.5925501630721115
 14.1160704416053537 32.5500105770232437 10.9055171902541428
 12.7620359071189338 53.5485218784794341 10.6161946892399275
 17.8502016712834255 46.8411109042231217 10.5573018691727576
 18.0703206873197857 50.0364107662845541 10.4158940558075468
 20.7095755685464837  8.0274669835697772 10.5630197903429917
 20.8842445695191472  8.1339701104885354  7.4476637786655768
 20.4923061655893903  4.8624031201825950 10.4564077929696477
 20.6755546416970475  4.9443147366096705  7.3407434027391325
 20.2708500135139538  1.7079197167912126 10.3831877232363610
 20.4620228648207068  1.7490003006656676  7.2663786197885560
 21.8146237497976543 64.0695806979427260  9.6967151298013441
 21.0879804852749153 11.3169033261035974  7.5684270723368483
 21.5417650458498287 64.0807781272788048  6.5823843062269916
 21.3241610225224179 60.8779028379406171  6.6231502098766928
 21.3728436362378211 57.7861560877621798  9.8389999211485062
 21.1141339767437302 57.6807944358349616  6.7255787725737575
 21.1491602996344739 54.6312642783186249  9.9855095327192007
 20.9097922938954461 54.4912721338729185  6.8724759808783329
 20.9256987650171098 51.4602118805231896 10.1557932678935181
 20.7122339220988287 51.3073156294625292  7.0424732917747939
 21.5948959464264760 60.9307703420223916  9.7373853329477598
 20.7019471259206433 48.2742771526386107 10.3276816807311658
 20.9218312833845168 11.2075595157754151 10.6837014979801701
 21.1333958731472826 14.4017804048352591 10.7950868600360703
 22.8734930010041815 40.1013758130697440 10.6038800360872454
 22.8021430866649659 39.9778976341164878  7.4856466426670583
 22.6506321884656536 36.8903233797692849 10.7296689160703096
 22.6155334792399820 36.7904438969140202  7.6107600743749222
 22.4283251970511159 33.6771790296722813 10.8296076312135288
 22.4288026306189074 33.6012854001097949  7.7095153072878615
 22.2070922854568380 30.4630539970309719 10.9017733956159795
 21.2883072413182042 14.4938725151902066  7.6789990796764638
 22.2416407149979811 30.4121482846268130  7.7812347516225078
 22.0551450108001497 27.2237420786652464  7.8250499547860661
 21.7713386957287582 24.0327952368575772 10.9581696902927739
 21.8675599405712298 24.0374277542450265  7.8389536761840244
 21.5563731447283828 20.8179304080495804 10.9365844717382519
 21.6778683562807721 20.8543200743404498  7.8192149534708681
 21.3436535239519678 17.6063489692736113 10.8810758588126042
 21.4841122295312950 17.6727346839265458  7.7644849229037618
 21.9881962889140787 27.2482434183336899 10.9450786422814890
 17.8660679545058407 49.9054637840579289  7.3020656818669876
 20.5190090714382478 48.1279674605618197  7.2129173093490699
 20.3292776425103874 44.9478678992130440  7.3689427332640474
 18.0500876812609512  9.7790852815422458 10.4651920314899467
 18.2437233441558320  9.9026879435018831  7.3503786828737043
 17.8319518178723229  6.6084722387144703 10.3359132187388330
 18.0381651053912186  6.7167445077816517  7.2212288482332205
 17.6107772157893585  3.4503457609726667 10.2322324870111583
 17.8282638160043660  3.5235777545563378  7.1161832215876677
 17.3886646452124474  0.3019542846331700 10.1708075470482662
 18.4440890840805949 13.0831834333363624  7.4813829487075374
 17.6140500830616666  0.3240069804586989  7.0543089564687760
 18.6861954433592530 62.6607980469634569  6.8263093128959245
 18.7326897536796508 59.5337561445812682 10.0052553671707223
 18.4720754739978759 59.4630564119688927  6.8917877479205902
 18.5103244553445592 56.3818446507399074 10.1183056885667320
 18.2639818475882194 56.2705999068237901  7.0055410754685008
 18.2904822046627942 53.2165190129894441 10.2625694609011848
 18.0633534058850351 53.0843150932362491  7.1498311858188988
 18.9544717196457420 62.6774153577497444  9.9407669355730714
 20.4780942487246804 45.0756355713116150 10.4844770431203163
 18.2654331401688488 12.9669440536099962 10.5969783364306220
 18.4820022902488006 16.1665386740104466 10.7109630209298157
 20.2544246938711900 41.8684367169175573 10.6189244463561785
 20.1412871404946650 41.7638609513482706  7.5016483025261964
 20.0311780104320611 38.6575759075277929 10.7271490672707870
 19.9548591089374874 38.5775237820694699  7.6082461357481943
 19.8071120340744606 35.4446558478697327 10.8090643460893432
 19.7688215687894626 35.3887830629096811  7.6884254936984613
 19.5830070541492525 32.2301603340931635 10.8640588343282385
 18.6415100425537474 16.2627816484933732  7.5943864337707394
 19.5830345432341097 32.1982177601495465  7.7422250483073762
 19.3977718494491391 29.0076345999720573  7.7698572477038228
 19.1382280030871712 25.8004687195505795 10.8903849663376437
 19.2124059454303726 25.8183628748874234  7.7705283547693238
 18.9170877111575741 22.5861173053645956 10.8603536460145147
 19.0248957080261185 22.6311807368855042  7.7420277061247482
 18.6984672899998223 19.3736042223930021 10.7996313936961243
 18.8348235630762666 19.4455284980211260  7.6826905120833162
 19.3598642255000613 29.0150467705401631 10.8910530200262468
  1.5870240836416365 54.1018358346629427  7.9046598932901375
 12.5753379033266963 53.4376223192531796  7.5031929570027831
 12.3764808520929730 50.2590289699459021  7.6292822710556250
  4.6968162032469341 15.3908495332401358 10.0736754094977066
  4.7818398493280947 15.6375060566874691  6.9596603045860856
  4.4718832614784745 12.2085454164167846  9.8191518891401728
  4.5843578919305514 12.4587449130225085  6.7048211026138640
  4.2483487710411456  9.0426497894359414  9.5701261382491492
  4.3829733589824045  9.2743980365450263  6.4541550519182884
  4.0257811727180144  5.8925075405575917  9.3509787828292872
  4.9748443866751391 18.8147810467390109  7.2004389191433384
  4.1762400508807307  6.0801471737430255  6.2327149343414074
  3.9626827360699983  2.8740080686869920  6.0661851357199392
  4.9655054118228268 61.9404658490648146 10.7715760170768853
  4.8599824452965557 61.9173271238994190  7.6522900188557088
  4.7470723017971039 58.7843421866887965 10.8246342176783532
  4.6461922805749269 58.7208205456653047  7.7058283943186670
  4.5331985228674068 55.6207113081765812 10.9122953380666559
  4.4381381040063266 55.5294642679182076  7.7947597175398124
  3.8033407347493737  2.7555959639817620  9.1875033999873441
  4.3229829860464282 52.4453011374416107 11.0176270856526930
  4.9190274833601908 18.5867016650890662 10.3145412281111106
  5.1388188639897665 21.7908658307360099 10.5323423145117285
  6.7952672062900907 47.4928841353280760 11.0817357743925022
  6.6894094154019283 47.4201994006409890  7.9661303434713604
  6.5921859284318121 44.2864749262919659 11.1463770074373834
  6.4956164966166563 44.2466620807009434  8.0311938547219412
  6.3920983803789158 41.0730074603136686 11.1741096611789850
  6.3042304589680889 41.0721153286204483  8.0584369996218062
  6.1906496608216859 37.8566664533876747 11.1606588820090131
  5.1662609568345728 21.9940163741075345  7.4174667906188159
  6.1133962077640733 37.8961918819385488  8.0438746401283261
  5.9234581712195666 34.7179788967651888  7.9886667935493518
  5.7785808762824908 31.4245471099598532 11.0132612080503378
  5.7335051351919333 31.5378012173945308  7.8956315742744625
  5.5683358158191503 28.2106582830406261 10.8840973048741461
  5.5446255950425716 28.3570771633040692  7.7674316135647361
  5.3547166191280757 24.9996732783956936 10.7229412500412575
  5.3550616295701197 25.1756024175206718  7.6071608530831849
  5.9866185128904412 34.6403904993300387 11.1062428102551056
  6.8847679877148353 50.5939630088104551  7.8716820099297697
  4.2361781078694607 52.3475954210438914  7.9012036315768626
  4.0381742020349431 49.1719668670750067  8.0009424152456745
  1.8622519965289999 13.9722710212328973  9.8967631131442388
  1.9213375538002240 14.2429443820215482  6.7830419449443182
  1.6421610468333003 10.8022592615374311  9.6230451148773195
  1.7163709264787865 11.0646290015648550  6.5081083945620612
  1.4227510274958552  7.6476687734189754  9.3696907623608698
  1.5073841234814920  7.8770421944567728  6.2516423379686801
  1.2025738157796544  4.5073997619504285  9.1625663137608342
  2.1199617960909150 17.4168067980420496  7.0538062323748578
  1.2922314626122891  4.6767518962805621  6.0406016658558546
  1.0713209195757527  1.4629119346072710  5.9025718217554068
  2.2907799872717094 63.6810448177138326 10.8309906120345634
  2.2219953878999856 63.6811921872045374  7.7104833210720534
  2.0720214828352255 60.5261594781056473 10.8588560341133320
  2.0057489267136464 60.4823381079807021  7.7388207231153840
  1.8562691098678437 57.3669308691357784 10.9264859538965986
  1.7934753825845196 57.2887834302456085  7.8080749307045245
  0.9822224031592399  1.3777229107980267  9.0276001947020497
  4.1173254548160676 49.2544175319723223 11.1170895335693505
  2.0799358398586003 17.1570212062235186 10.1671714675164022
  2.2959368066376475 20.3554623669355621 10.4178303537619854
  3.9158267955929400 46.0525510161691827 11.1924081657244372
  3.8443512314466899 45.9984454508765168  8.0767489442324312
  3.7166645539285676 42.8427393753503694 11.2345606523968087
  3.6527511271960473 42.8250075226291429  8.1187714039915893
  3.5201165316525742 39.6282251176305209 11.2365946888957442
  3.4627611813276262 39.6512225008300661  8.1204048161570661
  3.3228929042751649 36.4119545271568583 11.1958624351190483
  2.3150940958533130 20.5909125907829882  7.3048396088675975
  3.2727376111788105 36.4755078787348808  8.0792636443941959
  3.0822432267588282 33.2978416411430302  7.9969053424525596
  2.9218072201108476 29.9816967820774991 10.9921729997298900
  2.8903885053254648 30.1212898665007813  7.8758794087036597
  2.7169228869752629 26.7696215187538051 10.8333529396580648
  2.6985762769734949 26.9438505932028001  7.7183960929829576
  2.5089132184721947 23.5607266254882468 10.6413132544364029
  2.5076749337878153 23.7666846805968675  7.5273614633832642
  3.1242988550143673 33.1956517864240510 11.1140000156528078
 12.5495188709487575 50.3656947635676318 10.7429612838497341
  6.9993529190936039 50.6894039560739031 10.9874362305448496
  7.2082595712730679 53.8733059115811059 10.8767253035361797
 10.1490507962434613 15.0570563416533059 10.2467756327610164
 10.2960859055170459 15.2446357206267358  7.1315343919233296
  9.9217294209246614 11.8686728492217082 10.0488876364170281
 10.1016418349379435 12.0625106162279359  6.9344711050843300
  9.6960223231896752  8.6958092377670351  9.8508199441876467
  9.9023171781551547  8.8773267560480491  6.7360989077754825
  9.4726982279229919  5.5375262608681206  9.6748134009037727
 10.4870286578210621 18.4278295011053714  7.3139344532956363
  9.6997628785014935  5.6836481034434936  6.5593318896439623
  9.4904671255370037  2.4815050321378416  6.4267468534051995
 10.5293809019259559 61.6127771304014757 10.5377761619439632
 10.3504308309996045 61.5842604367545974  7.4214677711516099
 10.3093820779084631 58.4587446350843578 10.6020822226562039
 10.1374894098021997 58.3887037144600427  7.4864212960749228
 10.0937153801370556 55.2971428181812428 10.7020649124730447
  9.9313954396535955 55.1987695068455082  7.5871347352549252
  9.2490983601996053  2.3931613714883988  9.5436210075032228
  9.8811866355593203 52.1218297809659390 10.8198844646470924
 10.3756118911240662 18.2567805207730913 10.4300237863846874
 10.6008521778540867 21.4638818195915988 10.5920842592982876
 12.3394018532137526 47.1688389258724072 10.8540956719496489
 12.1806967638813379 47.0839686888307369  7.7391259239189596
 12.1295593254137017 43.9612704390085369 10.9363794122434186
 11.9879581090821681 43.9077777119210708  7.8203910372920831
 11.9186414669478307 40.7476496486215680 10.9835989737362905
 11.7975938644769265 40.7293747821109022  7.8667601233662019
 11.7044833419855205 37.5323429827068296 10.9947367369455424
 10.6755436126227892 21.6130768048003006  7.4749228958144602
 11.6086645481116868 37.5477821648278862  7.8771264536070342
 11.4204261458273759 34.3627255059953143  7.8545064812895387
 11.2674464373797196 31.1022619376021332 10.9210053730417638
 11.2327387683517319 31.1758986488916037  7.8014920208889817
 11.0468941489475565 27.8881220206964926 10.8389981352832123
 11.0473106559353909 27.9886053334943092  7.7198766491593336
 10.8244788511525698 24.6751632877429969 10.7290805857936959
 10.8614714838276214 24.8006024236638076  7.6107638144404133
 11.4872423040128755 34.3172947687512746 10.9731404779933435
  7.0839909000948440 53.7729137156131642  7.7605158908279446
  9.7304780714784620 52.0168641051378202  7.7053976923858807
  9.5330062634252020 48.8407698941894779  7.8167323442258372
  7.3078558757896195 13.6281080504827568 10.0325494666993311
  7.4434145749902516 13.8509874765682728  6.9181293844564102
  7.0813113137832513 10.4498045249896485  9.8039330107632043
  7.2465136891477391 10.6683538980735992  6.6890876853136430
  6.8570720845295625  7.2881598749792973  9.5892325351959915
  7.0455658837795658  7.4791253597349430  6.4731157694430435
  6.6331780216380558  4.1411872755236505  9.4128408229245562
  7.6364194870868776 17.0317679302535403  7.1395151498371430
  6.8385253932177985  4.2800673764437187  6.2945963837981367
  6.6236931325252426  1.0703308793902120  6.1781406247830075
  7.8590511441124944 63.3525375623506193 10.6583326720261962
  7.7139461945588375 63.3506161732832851  7.5404706684086520
  7.6386524560694902 60.1999189606402112 10.6946929474582841
  7.4989720102098687 60.1533062530694167  7.5769744252168509
  7.4213102156383410 57.0420958104685170 10.7718149214895256
  7.2880093508127164 56.9599349718180648  7.6549179955567350
  6.4098475132825659  1.0060350903000450  9.2977385565498452
  9.6729841330891198 48.9311079861174605 10.9319476115902656
  7.5345666440005283 16.8206136646150597 10.2545431765420023
  7.7587405695508540 20.0231247984308531 10.4580676905466419
  9.4673491834196710 45.7283176264589173 11.0196502108955698
  9.3389909253471419 45.6661661365757325  7.9043115938198580
  9.2620631570759553 42.5176997452462828 11.0735761730617259
  9.1464811966470432 42.4914168689651888  7.9580523632855966
  9.0561498335430457 39.3021069794201594 11.0887759512893176
  8.9552971223035893 39.3143112218221944  7.9724474643204761
  8.8468944468530157 36.0860851267654184 11.0655614042068571
  7.8265588537995434 20.2136099088377463  7.3423299661935424
  8.7653690925229490 36.1344358231325558  7.9481015182706463
  8.5763075295207329 32.9519546044345475  7.8884307820035202
  8.4180702264715137 29.6557977119556035 10.9143328749500608
  8.3882660445796784 29.7681903161279600  7.7959425708954750
  8.2008844633914872 26.4421186226974250 10.7902299058105751
  8.2015427120179094 26.5826717086024615  7.6726626292632725
  7.9811436094344206 23.2314520156552362 10.6376662809985785
  8.0147321739680564 23.3976915248108703  7.5209347456009734
  8.6342556515350370 32.8705912824236108 11.0069493379039560
 14.9599512877116627  5.1958351185401188 10.0824838674385315
 38.1982612211464669 62.9334615062571459  5.8590147328176263
 57.1409238014413461 13.8945667192234215  7.2229671623398666
 62.6215796904940021 10.1916661900244101  9.8449005370316325
 62.6724346339276508 13.5526665213974340  6.9256630196210818
 62.8094905914467105 13.3544716509212460 10.0416311265896230
 62.8957017057290955 16.7200012779413747  7.1266764122627144
 62.9905680978381213 16.5254136397650235 10.2435175539228371
 64.6354349802231667  2.2264671243819190  6.1758532067818592
 64.8453571457309579  2.1390457201061603  9.2951461019646402
 64.8658137759615698  5.4276873032247508  6.2913163112815145
 65.0543243610113251  5.2734491148324025  9.4095434498722454
 65.0970989223995673  8.6177425019903495  6.4691452970481249
 65.2565527118607775  8.4162605953763592  9.5856279166743175
 65.3274469793754520 11.7960854112919975  6.6867978071308212
 65.4523330731007036 11.5696348620666960  9.8026149634591064
 67.2962360263630330  0.4325781322619310  5.9773682443975593
 67.5253590455499904  3.6442702478566904  6.0635138340116077
 67.6684588230183692  3.5121929682709614  9.1853048625465608
 67.7560767677203160  6.8451195874838620  6.2297614645572894
 67.8772792919452712  6.6475221586645930  9.3487218043185649
 70.1950652276499909  1.8502818108769437  5.9014835615795542
 70.2714366355061628  1.7566050640491324  9.0264751599807234
 57.1284828850873296 10.5910730000795095 10.2072475441256021
 62.4447046530131615 10.3809604678062080  6.7290391721020706
 62.4262857924126422  7.0404876306598911  9.6707100048549197
 67.4541473297153118  0.3839136978690421  9.1008628856813569
 62.2221552517647041  3.8978664253428419  9.5416336843919929
 62.2148911048971698  7.2007023131235099  6.5553938336923876
 57.3579389977518019 17.0628897459819981  7.3518251676237103
 57.4899180560873972 16.9377336852271725 10.4688777390123118
 57.5716556419488015 20.2306714657546323  7.4749983127623549
 57.6643055793411179 20.1165959263570358 10.5934611608043259
 57.7839224095496888 23.3976366769493893  7.5876010147779933
 38.1133282542497014 62.9458745607880914  8.9847819906985009
 59.1156223521899307  2.5886784737044191  6.6096871521880827
 59.3793894148765631  2.5155862614123845  9.7242129710674732
 59.3413558825224641  5.7822979146545004  6.6970661041097737
 59.5858617317173582  5.6607514183421355  9.8117393645081705
 57.3117739698525241 13.7626222563565115 10.3386878759526866
 59.7829182978239757  8.8133746789274525  9.9439150506106291
 59.5676664382007246  8.9658542502374186  6.8287253584531244
 62.0115609431921087  0.7606499382857345  9.4737706106196207
 60.3300621292101553 18.3204170375038480 10.4298471047724526
 60.2354578803882745 18.4750575261109304  7.3125521275389387
 61.7574699990449361  0.8070577537371704  6.3567324972494390
 60.0167922963262725 15.3074876019714967  7.1502283193624789
 59.9725182763691151 11.9754062119177487 10.1012373147772383
 59.7943493729633602 12.1392258832940847  6.9859201686197947
 60.1534544186863585 15.1454036655578257 10.2666384821191894
 61.9843230478098590  4.0092440801953080  6.4248246705292917
 24.3883151245706813 10.5399293938860161 17.3870503770884781
 24.2574727375395973  3.9865438697129161 13.8765978964762358
 24.5262272723040091 10.6260656908028803 14.0276640740440932
 24.2442124156179730  7.2355862948060379 17.3025768603786787
 24.3898196314048867  7.3122317782735919 13.9445301865328499
 24.1059000284768992  3.9333332352544166 17.2334611246879099
 23.7210597644273946 61.9084541355486238 12.9308645228828354
 24.1269324035050019  0.6526472243089885 13.8355607948677832
 23.9282517915104194 61.9371098489670118 16.2758014869042320
 24.6681818769563002 13.9284791528555498 14.1125702316080179
 23.7965699230788736 58.6367695266800766 16.3401702462551803
 23.5947246833162687 58.5549930685277786 12.9947167156585621
 23.6610163261937814 55.3364320457273422 16.4523007722473409
 23.4703066010551034 55.2128691922070445 13.1058964028953149
 23.9711581786411223  0.6324544192164100 17.1920486169138620
 24.5394196844935877 13.8480666572863065 17.4728442086087981
 25.0223604879231694 23.7965123399660854 17.6026624568152350
 24.6961170530006875 17.1619252007720853 17.5446159741719541
 23.5192258417111546 52.0368029712143638 16.6003429825810294
 25.9191758964323711 43.4844342984955929 13.6000449910340944
 25.8462588463445861 40.3621713971366773 17.1367867622417229
 25.7883324724918559 40.1973747941547970 13.7810888841961798
 25.6836519398097565 37.0531421697248007 17.2960214388538027
 25.6550057775982623 36.9154526926281292 13.9377952843224495
 25.5191969634692235 33.7415025005378197 17.4242330678034776
 25.5201854410684525 33.6351979585765761 14.0641549247839368
 25.3538573775963947 30.4278673766278516 17.5192300207210110
 25.3834535613816499 30.3550359604589772 14.1574161595758206
 25.1879355749245946 27.1128890244610616 17.5792059344475113
 25.2444994267241647 27.0745060188879414 14.2163297204377610
 25.1030535640797190 23.7927543385660307 14.2396110902577249
 24.8577011037254252 20.4789861003744598 17.5901387862794181
 24.9585250340997540 20.5089881258306939 14.2278179601222039
 24.8129158310512388 17.2217076475873405 14.1835478009845950
 23.3453263985110091 51.8840549438964729 13.2522619355135198
 21.7450840387616893 12.4206966744145380 13.9472149171806610
 23.2199619536440771 48.5698843877599700 13.4212814183459219
 21.8847601426666003 15.7181593571452733 14.0401009721086112
 21.5869558327689219 12.3228848776235971 17.3053113094858695
 26.0057856612591607 43.6690197430360030 16.9524211064191341
 21.4386581370820899  9.0190091191471815 17.2067694815909995
 21.6090141952687986  9.1121094763408887 13.8505550846968752
 21.2976068723029144  5.7171897673092991 17.1189481382305040
 21.4772486516156533  5.7911468974812044 13.7641825695875326
 21.1615883354052698  2.4169771121680084 17.0557962390230671
 21.3470998502908991  2.4588811844389857 13.7018637900442606
 21.1345029391201571 63.7084298694713809 16.4489479932415321
 20.9061513235992784 63.7095212832002176 13.1027714260177053
 21.0036920131824800 60.4074327057583247 16.4827822376339697
 20.7771059578984776 60.3572707116232081 13.1364105882796611
 20.8692009935005949 57.1061883895351201 16.5648536086573763
 20.6515714648356834 57.0133506332652544 13.2175747599016571
 21.7419673993543618 15.6311893043301140 17.3994053447630215
 23.3709163594960216 48.7369840774092751 16.7711055426953415
 22.0248140419350733 19.0079301217238275 14.1143676105473705
 22.1641454463449215 22.2928524296407637 14.1614542992279553
 23.2164834483434532 45.4346390721447051 16.9487722340213409
 23.0937626666476596 45.2697234382401419 13.5964988517287004
 23.0568667578437605 42.1287992092842387 17.1174730200126071
 22.9655188093653635 41.9800720344778640 13.7619858385321781
 22.8933059253059135 38.8208496798753586 17.2643739265988074
 22.8353860920515324 38.6967426363925782 13.9060595666487767
 22.7285371522242734 35.5109042744352053 17.3821251385851916
 22.7039014895261850 35.4158831324578998 14.0219636267541148
 22.5629948605196162 32.1991080876098366 17.4678512048374159
 22.5713070809439849 32.1357440242996972 14.1065727653960487
 22.3972065348837219 28.8861789196543306 17.5206525136666116
 22.4370599467961256 28.8557538669800024 14.1585441933713838
 22.2314031344664969 25.5724766283725451 17.5390468151635730
 22.3016933481907280 25.5750101018127225 14.1768347125118304
 22.0659496344676889 22.2580608616007360 17.5229673896607281
 21.9019212376520649 18.9437057569353584 17.4747625104046662
 26.0478192078990887 46.7809550392273508 13.4050048199184708
 27.8903158654799768 22.0107179728368756 14.3071767616736363
 26.1743454902761492 50.0909196390245128 13.2113647280591717
 30.2150537716440830 10.3450845612976980 14.2070960305999581
 30.0048484666093422  6.9645663370246815 17.4980696371185438
 30.0750381673511420  7.0306917587963289 14.1365307026673985
 29.8663124016633859  3.6604997225244866 17.4411407740225926
 29.9396606285303868  3.7055369344023350 14.0802729937934643
 29.7314082319281781  0.3577884680036406 17.4094272883883043
 29.8080020052417289  0.3738254694703318 14.0485937810644668
 29.6411951475121924 61.7037808711080586 15.9907301879567125
 29.5181856249960290 61.6676848247111025 12.6459695534397110
 29.5116340429301793 58.4052464646475968 16.0632145293432913
 29.3901443967798315 58.3064105128909276 12.7179518761299519
 29.3783468010743150 55.1064549525119887 16.1924818743712713
 29.2638594832402035 54.9577580395019325 12.8469013279863837
 29.2404624085792939 51.8078284753077938 16.3649189921360438
 29.1372735591582028 51.6226746172529261 13.0184063406326924
 30.1483301866939684 10.2711919075892979 17.5695242752470371
 29.0973126648623932 48.5090999411141084 16.5668212891042188
 30.3615183103030901 13.6486090374019380 14.2785048034606543
 30.5124736598326436 16.9422829687253014 14.3348058723221818
 31.5812800475959961 40.1321407922372728 17.0699220241291307
 31.5615071609831261 39.9258267917464238 13.7162078593872572
 31.4238678460131950 36.8206720914888450 17.2667303900582887
 31.4177493565058334 36.6402970088333291 13.9098774552245548
 31.2631268555786832 33.5055419813642530 17.4337093331279505
 31.2717286888212023 33.3576096104629798 14.0740936701720596
 31.1004380095904587 30.1876861579588649 17.5664497465456009
 31.1232828683478573 30.0758766191555935 14.2042041649226540
 30.9369553741485674 26.8673270103327013 17.6610963639152700
 30.9725548541346463 26.7945253794306879 14.2970811384501850
 30.7733135356150100 23.5448899559500155 17.7142727929081438
 30.8197724366859198 23.5127399974485485 14.3495433594043060
 30.6112896650866873 20.2215425426030073 17.7257470783070232
 30.6656802817034446 20.2293617928303071 14.3611113336449225
 30.4521866406254809 16.8996729044565406 17.6986555776391903
 30.2975404912268331 13.5822624708287574 17.6418968651090111
 29.0085942597356308 48.3020147179353714 13.2188382411537724
 28.9484520482556391 45.2076469654041873 16.7822576793934992
 28.8773662000690869 44.9964802614522128 13.4326065926424523
 27.1947876431439788  8.7532174466560981 17.4539585756821118
 27.3021260572233544  8.8296396847731380 14.0934383142996804
 27.0540677837673442  5.4488829147351181 17.3826690325652784
 27.1661334214979533  5.5102113397625230 14.0230105255267361
 26.9174746554433817  2.1465298484508950 17.3322122963589393
 27.0337071957295905  2.1805931501851945 13.9731876192946824
 26.8497984627676090 63.4692302742040084 16.1043049495551891
 26.6782487258627015 63.4684736380746273 12.7597344394845855
 26.7205995975609447 60.1697489152300378 16.1429423836925565
 26.5497615660940411 60.1070194750999462 12.7981483445672577
 26.5881006155492692 56.8701467674018062 16.2399495852144504
 26.4246501087847641 56.7549764617250645 12.8945412255788199
 26.4513132113006542 53.5708617680582364 16.3828388786852308
 26.2998486458005019 53.4159194909311736 13.0367327119106040
 26.3090024497468598 50.2721869565308239 16.5592942443781581
 27.4436857728537831 12.1377403360252067 14.1713521886311540
 27.3417492851073227 12.0607936705481489 17.5329185122468623
 27.5904932920903967 15.4356156610564881 14.2426463728107375
 27.4947951260595076 15.3740165221640144 17.6049013879466045
 28.7941859077625857 41.9022723494865019 16.9946793977341351
 28.7433907117338343 41.7031958685816235 13.6418781507239135
 28.6354739276447923 38.5936913826297570 17.1889788167189117
 28.6072966385279912 38.4175075917595876 13.8330751095723645
 28.4737242694137507 35.2821576398000261 17.3556067695627263
 28.4686664570814436 35.1357399627890032 13.9970298141086129
 28.3096566850543923 31.9678088549763046 17.4896010928612462
 26.1604181260832220 46.9723966734581069 16.7545259674248470
 28.3280113578771306 31.8551221623200291 14.1287357680789967
 28.1849539211830518 28.5743999952705785 14.2256145542397068
 27.9793981756294556 25.3330370968961915 17.6495132385220330
 28.0391414975767361 25.2932218098431214 14.2855936279836406
 27.8149743028641012 22.0127722084295812 17.6709605365695737
 20.7290465944150775 53.8051898111360032 16.6843516586055216
 27.6528615348146154 18.6922789790708421 17.6543043442296792
 27.7399209216215290 18.7255394455374287 14.2913639102473180
 28.1447097352738851 28.6513227472575913 17.5885777876748577
 20.5262302882784056 53.6811927822494965 13.3353063192832941
 18.9546035233180383 14.2136219021619912 13.8642802688112106
 20.3994951156077597 50.3629195947308688 13.4777145110876564
 13.2047502616841630 17.6403088628157469 17.1056370097726891
 13.3337626804190421 17.7923286372734708 13.7517116846824017
 13.0501749872759305 14.3378595593804832 16.9504211181063482
 13.2070006915931835 14.4975929373097596 13.5987396987817011
 12.9013459431945723 11.0393352513507175 16.7942657268766453
 13.0811072247971865 11.1908736774322666 13.4440596993401833
 12.7587564830156364  7.7426948214896179 16.6537245038732280
 12.9567101536910414  7.8696587232431403 13.3050515924683825
 12.6219567968520412  4.4456895163260635 16.5428510196337974
 12.8328554301437396  4.5340899933085961 13.1954909810757908
 12.4891111281617846  1.1489672186408890 16.4743803079644735
 12.7078445766619659  1.1877548986742321 13.1275235374846933
 12.4729452114713073 62.4432789949750884 17.0259588052680257
 12.2677463936936988 62.4274465203921807 13.6732692446001547
 12.3375957424643730 59.1404023937299002 17.0695854239803317
 13.4614006594661397 21.0787415156580522 13.8886196245090030
 12.1383264297554909 59.0897301891810045 13.7164548530712391
 13.3642118339033118 20.9470290792939196 17.2451823920550318
 13.5275508116543914 24.2565670757175340 17.3589472140381993
 14.6625379310675399 50.6444565843970835 13.7866102417745058
 14.6892813482370954 47.4420936232328359 17.2560693706041839
 14.5270992441474114 47.3424198803003620 13.8990314702494189
 14.5260669010775967 44.1305378679116416 17.3579247138372530
 14.3904054953852114 44.0497169767893837 13.9990567814205900
 14.3594643576146552 40.8174038579754281 17.4368483366854683
 14.2539035347044223 40.7633259016647500 14.0762328933960230
 14.1922365128357892 37.5044217788538177 17.4862059234221014
 14.1186969510313958 37.4803632192511387 14.1245258484865222
 14.0252044688025279 34.1918630401648684 17.5036471190521077
 13.9846245927059343 34.1989525584780267 14.1416817931306582
 13.8586724680066240 30.8792681974998224 17.4887520259913742
 13.8522368608694197 30.9187596869374026 14.1269638708571925
 13.6927229836773101 27.5673474845930748 17.4406868003483240
 13.7208621684348397 27.6395024478591331 14.0795252997973552
 13.5905439076873336 24.3602404796775005 13.9995554400949196
 14.8467584963353225 50.7501435093733448 17.1417729078112409
 12.1981318644639192 55.8369384427409727 17.1438637525643713
 12.0516321764886580 52.5323736503192933 17.2384915948940005
 10.4121821492750790 19.4069371549710290 17.0960104198321012
 10.5104982712346793 19.5770939752859370 13.7423147075567069
 10.2570715311930929 16.1034650674421655 16.9216703824302002
 10.3835213499325931 16.2857290331948548 13.5707207254063515
 10.1078911938982419 12.8041256316939140 16.7411428582367989
 10.2582856054147076 12.9840511904316287 13.3920185523007564
  9.9647285540996453  9.5081799504188975 16.5709934786645903
 10.1350645989460109  9.6680993056432101 13.2232180146329714
  9.8269487624405940  6.2127285455411494 16.4275693185879916
 10.0127375278939841  6.3369030850642813 13.0811544699295155
  9.6932444923762180  2.9171314804903439 16.3246580509351595
  9.8893736033821558  2.9922081465746291 12.9790738075140677
  9.6655942687227032 64.2291602484485367 17.1766710007376595
  9.4889739474490256 64.2338061655242001 13.8214123599392451
  9.5315172768376790 60.9263353959528260 17.1981509922393734
 10.6394280294737467 22.8611036454075958 13.8946939748310054
 12.0086167198841345 55.7600828822793417 13.7892532700643855
 10.5723098647741480 22.7143320878425108 17.2514222572123970
 10.7360336649661612 26.0247884188282903 17.3781799055100130
 11.8752492063616746 52.4406852557356657 13.8821594391053900
 11.8975107327181728 49.2238959523354609 17.3400267581527814
 11.7375085219026154 49.1335435343416194 13.9821712384965409
 11.7370679451938233 45.9112013936489305 17.4327446886812609
 11.5964809038598329 45.8368535493102627 14.0732534656107315
 11.5716139763344330 42.5955820683431767 17.5043601877238082
 11.4538615138633286 42.5475123634724781 14.1429687997175240
 11.4037976955229023 39.2792763960125697 17.5462977264391498
 11.3123674864464903 39.2631624088494178 14.1836923272588802
 11.2357811367617408 35.9641923796491341 17.5548468787498777
 11.1732150890475310 35.9810896613709090 14.1922116676308416
 11.0682581251359533 32.6501488400044622 17.5298000896650876
 11.0367327534923305 32.7001136299478006 14.1678565275030035
 10.9015362945834884 29.3368231887935735 17.4711492039580598
 10.9024521399364467 29.4203235850474378 14.1101613620609339
 10.7700281587678628 26.1412404825006739 14.0186670033651364
 20.5810740307424460 50.5040355028167127 16.8289782757198410
 14.7954880823975188 53.9585464937069119 13.6760934134272762
 14.9246341666258129 57.2849401203956745 13.5821961560942110
 19.0891686785967600 17.5070083900909630 13.9688215088967578
 18.7906698614035044 14.1006354173853534 17.2209242977576729
 31.7028326021996776 43.2170115613174843 13.5009128893329962
 18.6385889776106417 10.7975203596320242 17.1059266677933373
 18.8206459569043432 10.9099125930794223 13.7513388812950694
 18.4940420614493242  7.4969395655025410 16.9981103548296915
 18.6898222544861206  7.5935465082352893 13.6453034375771622
 18.3562195135366508  4.1973616732054024 16.9115260239737886
 18.5608795160297859  4.2640277246940137 13.5602710695301187
 18.2224671986430096  0.8983439387724179 16.8592964912073775
 18.4325434838771294  0.9249712491019656 13.5084128050835481
 18.2082509649170063 62.1827609522352915 16.6537014522641300
 17.9736228552310671 62.1605965108709455 13.3059440157994668
 18.0747111605155872 58.8810345852708323 16.7078542513451360
 17.8459274901104692 58.8163042432829570 13.3596185459613324
 18.9484767491642963 17.4078612073988594 17.3271830874149195
 17.9366749304201960 55.5786489088179678 16.8001206711070417
 19.2229215010391918 20.7935273698951804 14.0527141518834124
 19.3566456050119768 24.0758922268182474 14.1083776558957172
 20.4268583969978472 47.2016532427914015 16.9837948402666328
 20.2721980294528770 47.0583338348790434 13.6307084371626388
 20.2673660381086584 43.8961512667881806 17.1337548836434976
 20.1441500388129526 43.7650476946294731 13.7782866509824640
 20.1035184470774553 40.5879894016882972 17.2654262192375505
 20.0145422693829289 40.4794798515233083 13.9073360104760404
 19.9381680007081812 37.2781756711161094 17.3698494090103672
 19.8841313918315983 37.1975984741895047 14.0097005802049246
 19.7722590566527323 33.9672477264995436 17.4433244837439929
 19.7531141342629510 33.9168515688487773 14.0820745810025567
 19.6062057473327442 30.6554744496208507 17.4852871075645844
 19.6214927556956731 30.6367062123808971 14.1234079832398898
 19.4404979566627780 27.3430702666102938 17.4942989221985385
 19.4894370928117198 27.3565400674301991 14.1324261944695895
 19.2750960764600201 24.0305778343285183 17.4695572203773217
 19.1103451878555290 20.7184932129365045 17.4122776804384536
 14.9973858757901581 54.0545902728838072 17.0291467736497033
 17.7196599185328267 55.4817325400029588 13.4504684359894711
 17.5912911989810326 52.1592423688816424 13.5672230151469737
 16.2798760027904308 19.2940389472062961 13.9149897987463778
 15.9975290980144642 15.8725121619662684 17.1497337977947595
 16.1503333719611568 16.0045049242375406 13.7947601651741376
 15.8433744600061797 12.5700605935826264 17.0153220896847763
 16.0207467978221665 12.7055223800108301 13.6620263307028207
 15.6957759957848300  9.2711328296167324 16.8843675780390470
 15.8920458979637260  9.3936916178731735 13.5330723921071101
 15.5553279933126891  5.9728207354110134 16.7722704928359931
 15.4200548816936358  2.6745629387882244 16.6924178573974693
 15.6387821212798670  2.7298066186577912 13.3436173446235724
 15.4086995689605537 63.9625279945739962 16.8372937901822652
 15.1822335095742460 63.9644891068931969 13.4876079461397715
 15.2760355938862791 60.6603692428499102 16.8660750015742913
 15.0523472555240314 60.6213692771593387 13.5159143481023474
 15.1395263725870528 57.3574772684758400 16.9332967288734508
 16.1564489527417692 19.1790432180859369 17.2720396341485660
 17.7910295674399883 52.2764114511600368 16.9193720253699489
 16.4096539189792097 22.5775764702542787 14.0118807239752901
 16.5406329049604501 25.8581077870539850 14.0792551775356127
 17.6376422494848697 48.9727775809308596 17.0519275763436156
 17.4605996629916227 48.8502152585234128 13.6975350398188258
 17.4782801451815040 45.6663483596190218 17.1826869102861650
 17.3295445543702904 45.5525764084911557 13.8264787698867142
 17.3142939484145764 42.3568608540751583 17.2985079367774581
 17.1977021949160047 42.2637112486873718 13.9402123999533991
 17.1482264816995880 39.0459480702925745 17.3892627258587389
 17.0658161099129551 38.9800205618066187 14.0290820604807109
 16.9819806084783131 35.7347152009136195 17.4498396383128025
 16.9338688517937932 35.6983794099966403 14.0885729252131302
 16.8154474281507866 32.4231610500247882 17.4791510143171287
 16.8024186306288925 32.4177151509692507 14.1172648496630657
 16.6495154109658117 29.1111458510121537 17.4763974092118808
 16.6714353948183494 29.1377434001532798 14.1144737278632988
 16.4839288695367046 25.7995214534486657 17.4403607522586128
 16.3191212518334439 22.4886297460260316 17.3712535399690751
 31.7349225395268739 43.4400974351218920 16.8514832141011510
 33.4109558258707580 18.4252563436164571 17.7515713691944192
 31.8837050724105033 46.7444559693463049 16.6236381531941682
 50.0882501064092196  4.3550612624494116 17.0521076774838498
 49.8862452273419308  4.4127409917895788 13.6987601478942835
 49.9557733516048259  1.0524917747524849 17.0199488157798200
 49.7497121821690484  1.0747904225005889 13.6674840837549194
 48.7291618566772797 39.3790829810199838 17.2554525077602960
 48.8066079123758598 39.2429115541441220 13.8983466479705093
 48.5853197472280769 36.0502082675813114 17.3676922480753895
 48.6282060685336148 35.9390615792410202 14.0083116714676503
 48.4415528658685730 32.7190733098819493 17.4539109315821683
 48.4495830773031173 32.6370352563872288 14.0929893990147832
 48.2969265218308976 29.3878210783256719 17.5124979616213103
 48.2715725757378564 29.3363232525451565 14.1501659602263050
 48.1516726535425477 26.0569408808283960 17.5411242019378761
 48.0945489802863548 26.0372402638918885 14.1784998585227200
 48.0060010928014265 22.7273719944619579 17.5397890238521725
 50.0315248803551000  7.7423550055827102 13.7619026116051408
 47.9193313790047526 22.7389939599017303 14.1774187466820258
 50.2240624374116891  7.6591078152934591 17.1170764065792902
 50.3635792615257856 10.9672943911201735 17.2018647351876126
 52.6667641643509867  2.6147476604420756 13.5014021661578649
 51.3697449625130673 34.2526297733729947 17.4394748713545198
 51.4040411901452501 34.1870110520991162 14.0785563270411327
 51.2262101890341413 30.9203308224497633 17.4806997559186534
 51.2240077093275801 30.8836770252934478 14.1187400499523292
 51.0824389216271868 27.5878758925465881 17.4942917204778468
 51.0445829356832235 27.5814140796181313 14.1321517650622717
 50.9381278390201047 24.2566600734630420 17.4793103227187849
 50.8664700378406778 24.2799830179657441 14.1175360681877553
 50.7939259555107370 20.9277855731385856 17.4370555145119255
 50.6899698140387898 20.9782355384192343 14.0766106730627669
 50.6501013404479252 17.6021546470353449 17.3722424195984395
 50.5172522315587784 17.6752312185125042 14.0132352465099288
 50.5064702307471620 14.2814866747915694 17.2910538512474012
 50.3489359786375772 14.3697218448848787 13.9333169069259810
 50.1862426801661670 11.0600789050276092 13.8454702178646425
 52.8898939602150833  2.5714454836166651 16.8515911892022920
 47.8597761209859129 19.4001970602386713 17.5102187456924270
 47.7133962545450245 16.0766531220632842 17.4568001452423402
 45.3649151138959112 27.8577617939043769 17.5677536358992157
 45.3228664201926890 27.7964152087986598 14.2047365059105726
 45.2170689615314672 24.5283097833359029 17.6066399706049523
 45.1496638494975429 24.5018787086820886 14.2430128940499294
 45.0680858725312561 21.2003284407886952 17.6125164168163586
 44.9788408734692524 21.2083599899312745 14.2492109516499443
 44.9185013463075720 17.8748989697138860 17.5876754633324879
 44.8123632422509104 17.9145384299537263 14.2253791015218916
 44.7688928384009586 14.5537944586959362 17.5368971564251908
 44.6500781890350495 14.6178313748462703 14.1755741176946994
 44.6212214886701304 11.2391127806693572 17.4691669231736526
 44.4926398199620579 11.3152939857335078 14.1087186734578811
 44.4784576685298347  7.9306730040997486 17.3986567022413183
 44.3425231676207829  8.0030822162677300 14.0389041285799347
 44.3402536616632830  4.6261850704509415 17.3412762595974961
 45.4980683227094502 31.0929404057886387 14.1346948149552745
 47.7471101402269085 19.4408700652259050 14.1488638846003223
 45.5114447981411914 31.1875753329395593 17.4964570162802708
 45.6566750913457966 34.5168651494226282 17.3953061312920667
 47.5797003062553046 16.1415319307611576 14.0963776286704583
 47.5671222414357544 12.7588912824454415 17.3856456420992487
 47.4167665956153854 12.8389620561623214 14.0263851869093692
 47.4235237413768331  9.4476391702021534 17.3072676818386135
 47.2603947520420391  9.5297055267469748 13.9495159182669841
 47.2843213836032277  6.1416664813154060 17.2372257091705166
 47.1124073148711631  6.2091917657131868 13.8805045249961214
 47.1489589133808593  2.8384997407877508 17.1906297893079163
 46.9726596921063759  2.8776235279416498 13.8351014875196370
 46.0892262762238119 44.4907334473183695 16.9439217451220721
 46.1993603907324228 44.3046072241667446 13.5924861702223581
 45.9453779624592755 41.1699654106954540 17.1130404705275332
 46.0252144628605038 40.9957316179910478 13.7587337352679171
 45.8012265063438875 37.8450616097111094 17.2661754423769693
 45.8499028171590197 37.6918992000190443 13.9089913178280593
 45.6739591422705189 34.3914510224302745 14.0355936595983266
 52.8083949882813570  5.9531564060640179 13.5543415086878110
 53.0222488941765349  5.8743242775723123 16.9063022230132347
 52.9606190338317546  9.2809726582979266 13.6390672091377088
 61.8093963665158128 13.9402854605561650 13.3892111863962402
 61.8018871349430654 10.4521921181303572 16.5683473401070884
 61.6452225337343549 10.6143705031507487 13.2204093891675356
 61.6676860652524610  7.1472501574402507 16.4238417784039612
 61.4889008898237961  7.2773622806728264 13.0772898466277621
 61.5364495467754082  3.8453693719216120 16.3200490727397991
 61.3410859700187387  3.9294429680627663 12.9748074693982556
 61.4078604325994704  0.5441973104207068 16.2687108505843305
 61.2028687928162825  0.5737257829857542 12.9239593461986306
 59.4355463219871325 22.1932907554809944 17.2391509669537335
 59.3705720617102273 22.3209643247248977 13.8815303164509523
 59.2935016730652293 18.8678508389365227 17.0969534057522132
 59.1936591856471068 19.0134273942926164 13.7419070268563228
 59.1532336915365136 15.5469689897707362 16.9436035604480928
 59.0197381334907121 15.7009098647517220 13.5912686383415870
 61.9386258088729065 13.7624954295809374 16.7392174591142364
 59.0146884786496315 12.2318929516129131 16.7899858881209951
 61.9790956660608074 17.2571637591737606 13.5679944955175333
 64.1625890834298076  2.1378677078339252 12.7851883123918491
 70.0388895993348086  1.8436999510929464 15.9308009060539639
 69.9800958591903424  1.9122718851396678 12.5863196891065421
 67.3769921601198121  6.9080230464314507 16.1718932363475147
 67.2785721057786219  7.0618964071512176 12.8267232860690648
 67.2473424959688373  3.6080087233103240 16.0472745803744914
 67.1358139856885288  3.7063012072321668 12.7025485361500134
 67.1193908234256753  0.3092542316652170 15.9848533925913650
 66.9995719418180187  0.3415751586911971 12.6402500267153943
 64.7237168628211066 11.9836255080895526 16.5338494230715582
 64.6108135951462828 12.1756314561119243 13.1859161298772740
 64.5888643945311287  8.6781793943772723 16.3565077364494869
 64.4544635719822026  8.8414824389702957 13.0102542459152968
 64.4571533950095699  5.3759927128302998 16.2172659856872450
 64.3046064317673398  5.4948450868196401 12.8719618694433269
 64.3281406109444305  2.0755499783555278 16.1298934593253165
 62.0774361864706279 17.0783570884114049 16.9201064987976011
 58.8506107392981335 12.3820551625851021 13.4398195908978817
 58.8782896692982121  8.9230037263043069 16.6496475167032436
 58.6883393758387228  9.0547190390477219 13.3010524379283694
 55.6890692152374953  0.7911623908473546 16.6462779239647176
 55.4559912884744080  0.8158814371550490 13.2984218544299324
 54.0106824376047570 29.1207444807684723 17.4739170518118421
 53.9980998027214767 29.1309879868064208 14.1119499135926088
 53.8672661109538211 25.7883546518350322 17.4414647393701649
 53.8182362482970760 25.8275241602508387 14.0800187395090841
 53.7241560786767067 22.4578505069083931 17.3825998084281856
 53.6391925598646822 22.5238611241530187 14.0225530565402927
 53.5811446970446141 19.1304612000973826 17.3005742452597424
 53.4625038400364687 19.2188173048876507 13.9424985398514458
 53.4390348497438552 15.8075499004949922 17.2021625860297789
 53.2898072863343799 15.9108082021020536 13.8458044751508549
 53.2979351469320122 12.4902769475000177 17.0956848042581093
 53.1216317332089929 12.5987255225520425 13.7410809035264574
 53.1585923214163998  9.1795028335653761 16.9924653518982289
 55.5941210077238637  4.1619423389827350 13.3369433869485707
 55.8187271899654291  4.0935167779362729 16.6859651435546965
 55.7422668680177651  7.5002359950853421 13.4167063276982255
 55.9519250580529999  7.3966937185590140 16.7670308222333304
 58.7444988978724751  5.6189887233826390 16.5380451972820204
 58.5347589168622591  5.7168604537178052 13.1906898764302500
 58.6140479644256587  2.3168015921884955 16.4681701977913448
 58.3914630061712145  2.3692473172917801 13.1220780957006014
 56.7949478937187067 27.3209088248216077 17.4335047340921712
 56.7727915392621156 27.3783862470344168 14.0723501006559406
 56.6515915020734795 23.9899821624557283 17.3553876893099535
 44.1998042347516034  4.6788443071680641 13.9826970921000360
 56.5931981438164300 24.0742908169791612 13.9955241916297819
 56.4143666771742645 20.7686465001343166 13.8957421177000668
 56.3674686491831025 17.3363922102544556 17.1338870490569555
 56.2384105327807120 17.4600000432177112 13.7786378643399487
 56.2270733279255239 14.0170345550907971 17.0052486199474657
 56.0665851861934925 14.1467195465769393 13.6521230680347543
 56.0883872102009136 10.7038777435568289 16.8783049753087155
 55.9004936659247207 10.8276652963353257 13.5269945294381433
 56.5091735845144143 20.6612508806561550 17.2535127919744831
 31.8415321078326166 46.5184673112365346 13.2754977674708989
 44.2055156243358809  1.3233833702641695 17.3100356346308750
 43.4474324186572503 49.5825056749170727 16.5600923432333893
 35.7534987256917489  6.7521743720485849 14.1921805481755960
 35.6304428119558452  3.3857838935669111 17.5055579383629158
 35.6164092776810719  3.4260015071784791 14.1433023351434155
 35.4955895528737599  0.0824300972824838 17.4816402288717221
 35.4846242249965371  0.0940058195417595 14.1196700177236973
 35.3522831720499227 61.4768629050942366 15.8845056969241085
 35.3512396125143269 61.4363938294221015 12.5399755342584207
 35.2224974898273047 58.1787421815490688 15.9590882922197164
 35.2200015626559662 58.0704428525459448 12.6138688170122268
 35.0898731377705246 54.8809897384607339 16.0949361693739341
 35.0870107950474548 54.7165604167769288 12.7496124463379825
 34.9531957206633237 51.5814557919942231 16.2782333984056677
 34.9504724173332875 51.3773304264622865 12.9325926858747700
 34.8131455707651085 48.2800158154054699 16.4930828954579667
 34.8102871291132203 48.0520094170216439 13.1460003791648976
 35.7685600260394878  6.6900645858058887 17.5551424771778493
 34.6686611339445889 44.9756368036816241 16.7232439018233023
 35.8959823996170755 10.0678904998670529 14.2569439027191134
 36.0447736790355577 13.3721903995863567 14.3233621313887518
 37.1532826031397434 36.5727272698969728 17.2747733519251163
 37.1625501205039726 36.3810032734422606 13.9175494283783969
 37.0001229631291508 33.2525229632907653 17.4471947946583370
 37.0014798715811111 33.0933681923479952 14.0874176376561167
 36.8445654949092827 29.9295781418190359 17.5859971737005480
 36.8396617647539628 29.8076437417870963 14.2238371325280131
 36.6867489580651593 26.6041265301968153 17.6865394621008782
 36.6773041122355039 26.5234102887187682 14.3224406422234019
 36.5279599720624404 23.2773997946625997 17.7450441185043104
 36.5159130978703956 23.2395818926825086 14.3798654315471612
 36.3697369525193679 19.9508026327244465 17.7616644466942013
 36.3559859768528426 19.9548156202654781 14.3961952580051111
 36.2127420857495181 16.6271274955013837 17.7396856329695112
 36.1988534472131605 16.6667538863340496 14.3748040571082445
 36.0591657119509961 13.3087429651472426 17.6881072484358768
 35.9109068379968193  9.9970738585064716 17.6209058523756141
 37.3221542968261062 39.6721549554704822 13.7195189575299530
 34.6662946600563586 44.7409591047338324 13.3740446176421059
 34.5190763134704568 41.4423794303293889 13.6009287485488546
 32.9847233332612575  8.5499381495355689 14.2145809006337078
 32.8169898122836869  5.1750177623689142 17.5157318985079797
 32.8460926826423645  5.2292903825005554 14.1534948468234898
 32.6801950102741330  1.8715237580223187 17.4746710108713508
 32.7123438415549970  1.8999362753889701 14.1129589220613134
 32.5603094431211346 63.2390636949106835 15.9002202506711772
 32.4975907953931866 63.2361359746148324 12.5556142556617214
 32.4321648608796309 59.9406977512274537 15.9403041709797559
 32.3674688669987916 59.8680597711784301 12.5954056293256809
 32.3012914076291295 56.6428391636632966 16.0458269177694497
 32.2381265802286237 56.5093290789733729 12.7004876480999833
 32.1666812998232956 53.3445176198421365 16.2048663313244994
 32.1086663124254912 53.1649087669010214 12.8592838646103473
 32.0275376986452969 50.0452658245272346 16.4026018210384947
 31.9766355156051283 49.8343182052548670 13.0559594622161157
 32.9576341109642001  8.4804577138394102 17.5776696375868582
 34.5200505118956187 41.6676581498820156 16.9532058209424612
 33.1292215545021662 11.8593882968948954 14.2839602617046602
 33.2798436052405364 15.1581094817648125 14.3469919670889734
 34.3672767387421771 38.3562473873840091 17.1683087244723858
 34.3686704961890968 38.1517690698961687 13.8128096701890559
 34.2116695416123946 35.0407030286322794 17.3582436402074123
 34.2159455920501259 34.8655191014682870 13.9998853369897951
 34.0531271542439171 31.7215983052988975 17.5161693816637083
 34.0613238995662471 31.5814109360555832 14.1553868559252720
 33.8928929407948729 28.3996654523457330 17.6377110112699746
 33.9051130935148848 28.2985320882770921 14.2745955693085769
 33.7314668939334581 25.0752310959444671 17.7182738876380270
 33.7478941824352816 25.0162716022443803 14.3534596809048587
 33.5705007846333814 21.7497943941308733 17.7556690823369010
 33.5903961730573570 21.7334951151230378 14.3903283019021657
  9.3584159033025092 60.8960314211128093 13.8425089733378535
 33.4339130343975555 18.4484274924179914 14.3862767248477503
 33.2546038577981093 15.1042868458969970 17.7116434001413126
 33.1032084703145557 11.7894078626943948 17.6481341314629212
 37.3039102328800283 39.8890608679482170 17.0741138045515868
 37.4791544929430387 42.9698206357061494 13.5020216182638499
 37.4520212456356560 43.2017214670165544 16.8534237759657550
 41.9694026808575629 16.3514698034105876 17.6516805661393370
 41.8848984793099532 16.3967488757949269 14.2886079488781697
 41.8183226851997389 13.0330324043929036 17.5973593598514206
 41.7271040261961303 13.0998529415102531 14.2346331901182133
 41.6716479401325515  9.7214235909867774 17.5298872317720331
 41.5751456517353830  9.7946053591659492 14.1677420166857075
 41.5302901311137447  6.4150038439244126 17.4655650706181582
 41.4303549620131619  6.4777003220216196 14.1044052648089178
 41.3929281311534467  3.1115270848897727 17.4197096847476303
 41.2921663899422740  3.1497356496546240 14.0594158737722879
 40.7997966831150336 54.6541919820421640 16.1920794246055735
 40.9056706363517790 54.4921712666792644 12.8473412895075327
 40.6628217524942386 51.3520764311126143 16.3660135237789888
 40.7567163485994115 51.1523181065084458 13.0200166791376084
 40.5224299045604042 48.0462625442694886 16.5688380634076964
 42.0461749680708934 19.6886489371665228 14.3167136802610937
 40.6022106783958989 47.8254810033524151 13.2212987338659840
 42.1222179211854026 19.6751889722608020 17.6804573043094848
 42.2751972745792770 23.0019871111777299 17.6765446372827064
 43.5711696618369473 49.3824218225174789 13.2129024331600782
 43.3055040694515085 46.2717267209963694 16.7547139397426186
 43.4069096527009464 46.0620613563761054 13.4057335518447882
 43.1620166727145502 42.9557784333996153 16.9521395270062492
 43.2381872315411897 42.7508841258655181 13.6002751498101873
 43.0174173297812956 39.6359132062309243 17.1401927501346378
 43.0674786718984635 39.4466986133277544 13.7848322421794727
 42.8721119794884089 36.3122610932817977 17.3078240362968998
 42.8957208330846029 36.1477183441821452 13.9496604012922170
 42.7257228193693095 32.9860219680877762 17.4486855656085247
 42.7233123553150875 32.8519390528640898 14.0879586138926935
 42.5776275705113747 29.6585496929696575 17.5594375775333980
 42.5512404037703931 29.5584608668112594 14.1967920204317384
 42.4273789496702278 26.3300061715944942 17.6365232685149067
 42.3804562899583317 26.2676843283910024 14.2724666892789234
 42.2117744274877040 22.9783475704176574 14.3123789307848455
 40.3792921314921927 44.7361386180147775 16.7841244866135142
 40.4422018810109876 44.5105606669238654 13.4341455182382923
 40.2343888204308442 41.4217755202959239 16.9980286605933628
 38.6627252738318674  8.2741640552326139 14.1967483192747839
 38.5805682749405747  4.9004515308278833 17.5021683860020580
 38.5221393645285062  4.9520802654912481 14.1399400732591740
 38.4446527414845178  1.5969880323091044 17.4671509900170463
 38.3874226184851963  1.6217126044960655 14.1057876966072424
 38.1434007634688470 59.7156539030994153 15.9403395445942220
 38.2041300686897500 59.6383018067853001 12.5957063210234264
 38.0118133155460640 56.4175226265782470 16.0459711027059839
 38.0684079889460349 56.2776130267609602 12.7009279912805351
 37.8769668414863432 53.1177590820777326 16.2057464829821178
 37.9277015559125346 52.9304340387294943 12.8605075593202258
 37.7386653556422758 49.8156468104816597 16.4042125442347277
 37.7827744200928564 49.5971983666705398 13.0581101064159881
 37.5967979275130517 46.5106157707840637 16.6252764303650551
 37.6330980982555090 46.2772864919948290 13.2769686561329241
 38.7202636899601984  8.2054973591334690 17.5598239164368692
 38.8094922798224715 11.5842979836061044 14.2632180771994346
 38.8649936882104114 11.5143472746327067 17.6271495488670453
 38.9628999755493197 14.8838529441528262 14.3238650816059803
 40.2785271378768570 41.2052365825346243 13.6447167170627566
 40.0878704422315124 38.1036303836201284 17.1974255750536216
 40.1128912926801604 37.9073158312097789 13.8409106488367826
 39.9396996830959878 34.7818651087887147 17.3725283538095887
 39.9458501436784559 34.6142944992220407 14.0134438361910938
 39.7892591092785608 31.4575035905692530 17.5177702141064735
 39.7784466827446579 31.3241894213456860 14.1562216937118777
 44.0643836826533999  1.3461233968127015 13.9521254824662027
 39.6363380440793094 28.1313202830019300 17.6287388353104220
 39.4812105264353690 24.8038577724844629 17.7010785829072432
 39.4450865483151887 24.7500826839359753 14.3366482432242908
 39.3252293142929688 21.4766083273276607 17.7331940195029567
 39.2811118291891859 21.4637619396268136 14.3683754213590582
 39.1695021197165261 18.1508678732964199 17.7271568484895568
 39.1203134795498215 18.1758886155328341 14.3624367953189083
 39.0153480547078644 14.8292814439764307 17.6881399344335826
 39.6111828215766621 28.0362228464066305 14.2655279413836258
  9.3937051238434037 57.6224535464594823 17.2519543107765863
 15.7651748685426814  6.0679450599721720 13.4227629355095548
 -19.4800332175238822 52.2779866544755336 13.6810911703736959
 -2.7296214717775364 44.9264973867847743 17.7701026668251281
 -16.8706111331918542 47.1926547912795229 13.9747880865501326
 -2.5634383014456441 48.1838503253532338 14.3562614320616380
 -2.5701964278814624 48.2453683556379218 17.7210628836084325
 -17.1755227668197321 43.9679967450511739 17.4092047978283375
 -2.4120530430660851 51.4851685278427453 14.2882120900018723
 -17.0403818125707360 43.8883374893051226 14.0499809327380678
 -2.4151257481464330 51.5581782799876507 17.6527027569501982
 -2.2679817186307529 54.7982629886011097 14.2180974109840790
 -2.2673968954890120 54.8652100721902372 17.5817333657252810
 -17.3235595799387418 40.6438548079633506 17.4672588359035146
 -2.1306429946513750 58.1218142802733837 14.1607153475219505
 -2.7195655546209974 44.8912052225064002 14.4047069855844594
 -17.2143679725576639 40.5859436181054676 14.1067064153971522
 -1.9971214398165404 61.4532097946233193 14.1253335636285158
 -1.9893542455032867 61.4730015994916528 17.4875864819680658
 -17.4704755595911720 37.3156802852023759 17.5012219665991715
 -17.3910911672133288 37.2846653789059914 14.1397262445698342
 72.8329273587359296  0.1132884981354989 12.5357272364943189
 72.8313393045855264  0.0814609232854255 15.8800801355172734
 -17.6165071937278270 33.9847619350188168 17.5072045714655680
 -1.7373607699892235  3.4811974512539692 12.6029196621095920
 -1.7419583157401011  3.3782116161571474 15.9473701705440121
 -17.5696691215838143 33.9834643545107440 14.1453265612848433
 -1.6042616210719367  6.8380845659897318 12.7357432756059161
 -1.6121124055997709  6.6747902413803430 16.0807519093722249
 -2.1267363478096253 58.1697607556301506 17.5233031120920408
 56.9393883750626202 30.6529988868075236 17.4845011774586183
 -17.0265924703792919 47.2871976553059667 17.3327213671006461
 -2.8793017573911022 41.6040721211753208 14.4222161715748936
 -16.3217611605442663 63.8102948468027620 17.0275108145752547
 -4.1535712106245297 15.2804485981962390 13.2663401645828962
 -4.1298440238940293 15.0470123716225643 16.6147266753885638
 -16.1333846112569610 63.8135857103216679 13.6737653153074081
 -4.0015931739524868 18.5886682253997435 13.4968782757240522
 -3.9869730994424710 18.3558153988037311 16.8483003637424247
 -16.4540116418632394 60.5102015247557361 17.0376001154426824
 -3.8461974961929228 21.8862388556771528 13.7200051508675109
 -3.8391266063968796 21.6689001706043562 17.0747094340977768
 -16.2657471693369615 60.4736823605703009 13.6835624228669346
 -3.6882296890449031 25.1773923840236336 13.9229888853069053
 -3.6877031304394006 24.9856681323553147 17.2808162800631706
 -2.8915196940008019 41.6035515090887387 17.7879852029204066
 -16.5900701323484725 57.2096378554300315 17.0842697836978026
 -3.5286008002166365 28.4648272845690293 14.0965747067910261
 -3.5328583574535450 28.3059989549164932 17.4568909082802080
 -3.3672868217603278 31.7507978107097131 14.2357797123577203
 -16.7314114677155743 53.9073055818444047 17.1579525761991860
 -3.3754979758585657 31.6288768975634405 17.5982062744494350
 -16.5506384951911620 53.8144145971462464 13.8016971921520408
 -3.2046411816568314 35.0361076782401639 14.3383493312336778
 -3.2157882683172430 34.9530856234071337 17.7026144416349815
 -3.0413815185329764 38.3198733858120590 14.4011912210088671
 -16.8777417167048398 50.6004057343135685 17.2454694401417292
 -3.0545043450006615 38.2786134263664763 17.7665862460083410
 -16.7068234192207044 50.5003279291636460 13.8884665322091418
 -16.4039633933577385 57.1387055068020544 13.7288899137941449
 -4.2685045954857870 11.7424188159727123 16.3893699380036360
 -1.4693630556972781 10.1786976899731982 12.9194435936850738
 56.9523841680486314 30.6813868168214405 14.1227030541145453
 -19.9645038991757247 45.7633623790692710 17.2402086472722900
  0.2014229773658000 46.3973503392524975 14.3784456174111792
 -19.8121509078095599 45.6521984876709226 13.8842185690116704
  0.2305080596131742 46.4467338441328721 17.7433785639005812
  0.3538177018339675 49.6937616714796917 14.3166842233976830
  0.3887417736797918 49.7629640270425995 17.6811719077159601
 -20.1110656591004151 42.4416492008926411 17.3324986983825440
  0.5004019479601919 53.0010096982914476 14.2432512352898861
 -19.9864564527007751 42.3449405111015196 13.9747610385885217
  0.5408475649559749 53.0730921061886178 17.6070793587219576
  0.6396082239771658 56.3196910511354503 14.1755507987008276
  0.6847875712460044 56.3792622355816633 17.5382570118095913
  0.0687773512616989 43.1254863967470570 17.7793453187741228
 -20.2570295299566645 39.1150625971100752 17.4066526058073130
  0.7741664243306240 59.6473105202751697 14.1248304576303454
  0.8242053829516237 59.6837097154887743 17.4865952643432792
 -20.4023828444310311 35.7850324328464424 17.4564220490009170
  0.9059592727272985 62.9810205032174579 14.0999548814622742
  0.9602442419087879 62.9868020354474609 17.4615238454178368
 -20.3427937210095031 35.7377208675501876 14.0954376203506051
  1.1158552815702556  1.6821419448864616 12.5877410681897146
  1.0507080013555086  1.6162509098877187 15.9320944591316547
 54.1543972440621815 32.4532730719204991 17.4789015018116345
  1.2444715438512761  5.0437242877521173 12.6873961453214896
  1.1802058272703959  4.9117801589662289 16.0323702914655755
 54.1785055504510780 32.4346212848394941 14.1170576142502053
 -20.1638802222471796 39.0406285960697161 14.0471275195220002
 -1.4792271086354654  9.9730492366367081 16.2648022640014744
  0.0451857821527684 43.1082842147491618 14.4137406832820325
 -0.0954253286689407 39.8012540772344181 17.7787714969140112
 -1.3305133432530685 13.5043338471045775 13.1357301271898432
 -1.3419113597993166 13.2734500970210174 16.4827080569687965
 -19.2596058559683136 62.2919133088081267 16.8476580598374461
 -1.1887370059770199 16.8158422394697453 13.3678540068340723
 -1.2005486049473733 16.5767742824075093 16.7171165374223882
 -19.0481049223981280 62.2752984181151845 13.4965324407068969
 -1.0438167060895551 20.1148821631262358 13.5992843441759597
 -1.0536255029929604 19.8845548136505137 16.9514026982091224
 -19.3926171037192780 58.9923745116766725 16.8774664812927391
 -19.1829711786150874 58.9339581989847474 13.5255002625131926
 -0.8951813842130679 23.4056999629150262 13.8153495755207700
 -0.9015727734523136 23.1965539307980144 17.1711587808006669
 -19.6426426372724094 48.9626531851747160 13.7833550709333981
 -0.7433805118899092 26.6917332114281329 14.0060303123258123
 -0.7452904635153976 26.5121905012515846 17.3649769099424489
 -19.3264700838863170 55.6007274053212441 13.5903840076077742
 -0.5886967801831595 29.9757511370572161 14.1644698766822668
 -0.5858620868229933 29.8312099084698517 17.5255459807675642
 -0.4320782270293466 33.2592566533312279 14.2869766508652365
 -19.6724847916077827 52.3889966653677348 17.0349235552330640
 -0.4238880128630878 33.1528785716241003 17.6500606236228244
 -11.0138410167262588 50.2439843373493247 14.1480814685700942
 -0.2732014890359805 36.5420150452190953 14.3708176584705480
 -0.2602331231295578 36.4764969866679607 17.7356247432941068
 -19.8179184334203740 49.0794844191045101 17.1380288062462540
 -0.1135469115572137 39.8241165247487672 14.4130157164722430
 -19.5302570625800769 55.6924368604748139 16.9435440525878676
 -4.3014255901334115 11.9595670966193026 13.0433885467012747
 59.5487294755228831 25.6251007978878178 14.0012392988202503
 -4.4029947720599640  8.4408453314057983 16.1891813245986285
 -12.0455025772341298 30.3824402994093212 17.5055363422677459
 -8.9068947205941011 35.2945503811657204 14.2918518284240879
 -12.0226388128038852 30.4696175912814660 14.1437564054126881
 -8.9568373023792631 35.2354567220293049 17.6559196825133640
 -8.7377797577420129 38.5839714872118762 14.3375699324912453
 -8.8018664175312118 38.5621001627301538 17.7022900907687699
 -12.1923686436400658 27.0529006053347238 17.3966374160363024
 -8.5712523744678588 41.8733562511616739 14.3468698658203717
 -12.1984084522527088 27.1711910064209974 14.0366710500523055
 -8.6445952305128362 41.8869450558994032 17.7113359857082848
 -8.4076487204774910 45.1644592166035963 14.3229155434302360
 -8.4869384136397983 45.2089302290420676 17.6866197977220310
 -9.1095766632477666 31.9082878182481906 17.5731215749073577
 -12.3381457098210365 23.7250259491562652 17.2590938020726199
 -8.2484577391078968 48.4593495624790123 14.2715127969855331
 -8.3300893348505021 48.5269911238163090 17.6346128129514810
 62.2193024940326325 20.3996195522643582 17.0971537721528435
 -8.0941624837437338 51.7615170974762435 14.2023381555414137
 -8.1762035427224991 51.8388644943164962 17.5649535355868984
 62.1518112447952831 20.5668408135283620 13.7424247913704161
 -7.9473054667575154 55.0747794785206963 14.1323290977452523
 -8.0291439122446455 55.1448237027833983 17.4942870018920154
 -13.5120805020197370 62.0250974789432092 17.1848988199890655
 -7.8080261969469964 58.3995574258730556 14.0771720390923658
 -7.8890987649413038 58.4479107263294253 17.4382548871827403
 -13.3548838096886886 62.0086390499444278 13.8284801351118354
 -12.3740715364815710 23.8707476104574852 13.9014732557067919
 -7.6738277807172466 61.7323944096498423 14.0472392331091118
 -9.0769845831677998 32.0030466737511077 14.2103348604359301
 -9.2600263619090164 28.5808963011015607 17.4567941809719969
 -10.8615200692270459 53.5526694701217494 14.0737260924860532
 -10.9809739258913730 53.6321413287337521 17.4344673544522593
 -11.2848497590349908 47.0093617138187412 17.5762752620185800
 -10.7173006275102995 56.8727816439683949 14.0081886895723855
 -10.8380880116325962 56.9358843602355904 17.3678533023535486
 -11.1724249771014676 46.9437044297598476 14.2143319636135441
 -10.5802801495877112 60.2034401419480858 13.9647003964552159
 -10.7006422814904329 60.2375218868704323 17.3236792721774009
 -11.4395706530946804 43.6896691724845212 17.6232101861157240
 -11.3362726224269377 43.6482249999136229 14.2601706355766922
 -10.4476416785638033 63.5391242529981213 13.9523886126266525
 -10.5668611328896223 63.5383895833556736 17.3111992648619477
 -11.8481328319848132 33.7668585665856469 14.2208173821138608
 64.7730919276137058 15.4980343914044081 13.3835996941525508
 64.8617137780485535 15.2941166315490165 16.7330470490754770
 -11.5039546625888018 40.3549604344750747 14.2790307121573115
 -9.7613633978688981 18.8101214384521391 13.5853858986071341
 -9.6985924972563566 18.6103249074268930 16.9375477571579118
 -9.5915039670694906 22.1144226245419269 13.7775455400849456
 -11.7468375063786823 37.0398840106691978 17.6302666149679048
 -9.5544996322074880 21.9309530866541174 17.1331532621611871
 -11.6748655363469798 37.0618097149346255 14.2663734733576746
 -9.4195630638187939 25.4133159970841334 13.9501058353815619
 -9.4082690242895950 25.2548546670033183 17.3089216730670010
 -11.8971639285674424 33.7116092444914628 17.5839832855876423
 -9.2479467264760604 28.7092762383583775 14.0957335370447723
 -11.5939031678113054 40.3662951989872880 17.6427018033785430
 -7.7528630386811574 61.7494442779488182 17.4079110877332255
 -13.6466698814168659 58.7245771994619048 17.2137237685412643
 67.4268053353784040 10.4040312489913536 12.9990037055009324
 -5.6434367249306820 43.3844138072300112 14.3924759255052290
 -5.6889645764969288 43.4068184524279630 17.7574749612253235
 -14.5355383861449088 38.8431370274683374 17.5670362597760459
 -5.4837386537124635 46.6750755624067963 14.3574102071529133
 -5.5293766212663504 46.7274324971160127 17.7217999181459334
 -14.4439150733312314 38.8252623815525411 14.2044807207358676
 -5.3284452847662864 49.9718497141058435 14.2972374243021605
 -5.3725491745590315 50.0430630155057301 17.6612392597785899
 -14.6839758294428595 35.5142551307808745 17.5602545983643807
 -5.1788271063141345 53.2790008083997222 14.2262625835295555
 -14.6194258640938717 35.5270361327247954 14.1975486471303398
 -5.2211460845439044 53.3521759021950430 17.5898964113123704
 -14.2712745200776769 42.1230303399543757 14.1825567721389536
 -5.0373091881741816 56.5978563002973019 14.1623234200601242
 -14.8308376951137486 32.1837448339397056 17.5230485580924373
 -4.9015256878701727 59.9262756873859885 14.1172906133642488
 -14.7965150620362511 32.2274728876570222 14.1610368777695612
 -4.9392235073541793 59.9599122840706968 17.4792934802081135
 -4.7692495997217064 63.2599884919083166 14.0996972839950097
 -4.8042911497914176 63.2619657267430995 17.4616929737157811
 -14.9769862374023042 28.8526007213470592 17.4564888322634282
 -14.9744176436010612 28.9269688792604320 14.0954663968713554
 70.1158594332998604  5.2754274123506146 12.6859512982288294
 70.1675051464469135  5.1415907991471812 16.0309172722191242
 59.5792158434484023 25.5219338857386830 17.3608791614386746
 -4.4453904697026667  8.6248702728190789 12.8441849661918983
 -5.0778941201143573 56.6570347565329300 17.5250590965593531
 -5.8495209742751388 40.0828643273297658 17.7592816895721199
  9.2278830776825167 57.5634759803029539 13.8955705742095397
 -5.8066615600087754 40.0971495063491759 14.3940315417611835
 67.5098642103640714 10.2102028897093540 16.3449212057938666
 -13.4896079245292881 58.6725219271286562 13.8567079042679921
 -7.1218148159829857 13.7327758114560723 13.2029003567362011
 -7.0551540160061998 13.5156670712232341 16.5504999589181878
 -13.7860294115281725 55.4227832007536918 17.2727482811380852
 -13.6308356296562732 55.3450734087858152 13.9142569879162021
 -6.9636590968001224 17.0489827914763481 13.4213234480917709
 -6.9149443335761243 16.8258142791431915 16.7716187307678410
 -6.8017414390099313 20.3544013887156154 13.6385420565092446
 -13.9315579340922007 52.1175049991952264 17.3490940518977119
 -6.7710957964435305 20.1409811581866940 16.9920389105830161
 -13.7807714244831967 52.0289535790436304 13.9899552936478457
 -6.6365305432151844 23.6524810051531773 13.8414352303925465
 -6.6239075111088326 23.4595139288994119 17.1984392895713007
 -6.4710148510005192 26.9453560889396648 14.0202705591578702
 -14.0818750124789673 48.8066983971995043 17.4281085683615302
 -6.4738713482594719 26.7811579353548694 17.3798775479567418
 -13.9384917104115615 48.7222511248150525 14.0682683372638930
 -6.3049862569039083 30.2353619536615383 14.1677191609062945
 -6.3212972952533706 30.1056246675067740 17.5294102446315065
 -14.2337616145259709 45.4900730399231676 17.4960298618676759
 -6.1386152241003051 33.5240242879511712 14.2807161860083731
 -6.1660433422865060 33.4311297799914513 17.6442673065672935
 -14.1022597057188701 45.4212938836229441 14.1352314960575054
 -5.9720450522235407 36.8109275564627509 14.3570297313197042
 -6.0088687252111530 36.7571329776754823 17.7219929075149345
 -14.3853463720339469 42.1685992917902723 17.5443740324602935
  1.3726376717987372  8.3906784622176041 12.8446749273281853
  1.3122183417271904  8.2078220395365094 16.1901079918070465
 -11.1310646514540554 50.3239237921113229 17.5094010618299372
  5.3218175353395294 32.8908333209299570 17.5997861461014935
  4.4686312860674224 13.2524208787259319 13.2018569875909062
  4.3790708975305401 13.0359626746091344 16.5494315804190144
  7.6861019966436874 21.3590397562682774 13.7690011593510082
 -30.6792337316127508 59.4117393525957667 12.8008916698990891
  4.5978759511890983 16.5580845569770325 13.4185738945959407
 -25.3985100172683147 52.6459166025993142 16.6870062455256729
  4.5238118478498084 16.3355012843611789 16.7677550280667802
  7.4649580522248353 17.8697054839350749 16.9329636742559266
 -25.2078267312229904 52.5027619408778037 13.3384011282918848
  7.6205380349741416 21.1748759789321959 17.1232925785929986
  4.7301170464533859 19.8522287094021479 13.6318942454172731
  4.6743354617496582 19.6395165872980435 16.9836814948654435
  7.5560009603719873 18.0706497667488044 13.5818644301176512
  4.8661914696965676 23.1383829272561812 13.8284085847391047
 -25.5403666151623803 49.3382256087956179 16.8264199713321894
  4.8303471173249042 22.9474485424894254 17.1835388259444564
  7.3150831903301707 14.5685571190516150 16.7319209953048293
 -25.3718794988329819 49.1780087457048296 13.4771179463815951
  5.0046590952874475 26.4204765507299832 13.9981378622190835
  7.4285941062749750 14.7729622165279793 13.3828366901174487
 -30.8448194921112844 59.4869900153293472 16.1457786672018493
  4.9910623088021175 26.2587321873825701 17.3563191658842975
 -25.0529923291880543 55.8363993616238403 13.2228387609476759
  4.2399420273395778  9.7398790783155267 16.3459043088181453
  3.6782734090273412 61.1742239483809414 14.0549508619804051
 43.5868701813720065 52.8874436728902282 16.3831986699902679
  3.7741049268245561 61.1984174886362098 17.4151243640378013
 -24.9922099815424339 62.5450646046564742 16.4564025114658712
  7.9449523434752072 27.7962674305188848 17.4261159132869317
  3.8091437725683042 64.5093783019397335 14.0416128524039543
  3.9083834353279503 64.5017556083143973 17.4015777025852358
 -24.7714666768552370 62.5292586685043545 13.1098111562185657
  7.9533821152399247 27.9214072562454803 14.0665178392936276
 -25.2596741022362572 55.9483167149267544 16.5705737559988009
  4.0927794224976273  3.2439440364438950 12.7058204540904942
  3.9733795843933439  3.1498005977372268 16.0508505340534313
 -25.1242087126351805 59.2473787631118967 16.4903019998027212
  7.7811122219884874 24.4840084686760626 17.2904523059060153
  4.2179246493205866  6.5958338510014380 12.8293453085165314
  4.1049688499991390  6.4449320112035791 16.1748269329501682
 -24.9078121524325553 59.1791956883166250 13.1432125948346279
  7.8188760458944051 24.6414597412705056 13.9332705554680469
 -30.9784761893762912 56.1884219754351477 16.2405266585648000
  4.3424168919207649  9.9318951814862970 12.9998288651037228
 -30.8220198617321302 56.0579416858115778 12.8956421515835657
  8.0903298238670640 31.2012287591269732 14.1657258961931287
 -30.5447371870732347 62.7726346534290514 12.7636334566948353
  5.1454103527240562 29.7013741411600236 14.1351303417701697
  5.9880497250578140 46.1727384046918488 17.6380818561533879
 -27.9191749217117895 61.0178581174950381 16.2817386884807469
 -27.7188369902278424 60.9738139473147456 12.9364608136628014
  6.0390864013670811 49.4142542449291113 14.2045663785790772
 -28.1651637185150463 50.9434654562353870 13.2536949303638103
  6.7674883178046876  1.3866541617864925 16.1343856584205128
  6.1470408751413270 49.4885277169773161 17.5664800336070606
 -28.0526463283303720 57.7195870756329086 16.3446402535575750
  6.9339192647372183  1.4410589758520009 12.7894343393462933
  5.8909173219442108 46.1177867444427534 14.2752711623368729
  6.1820228885396640 52.7215663314622418 14.1224146023530963
 -28.3276310482369027 51.1160935425361629 16.6012040321768986
 -27.8587142802514016 57.6213500528784976 12.9992100202894836
  6.3188298485022756 56.0404238578471308 14.0455829130056742
  6.7214832601123726 62.7137032480967846 17.3108483228691910
  6.4455085671367716 56.1052848423978858 17.4047423012821376
 -28.1886091557386358 54.4196739861371128 16.4548028589285167
  6.5826544818274613 62.7030787896758284 13.9528194391662570
  6.4516649579971590 59.3683455648098715 13.9860005893391524
  6.5854359300282361 59.4100320032840870 17.3443463902137935
  6.3000908967148996 52.7990394603980988 17.4832040827021196
 -25.6837824684688485 46.0239875346043448 16.9753755864465390
  7.0582711297083804  4.7953735485719946 12.8760807819735437
  5.8243919001397577 42.8529290770114599 17.6845354486320332
  5.1551184151017155 29.5735733741356910 17.4957866511221276
 -25.5427926268476355 45.8610197749295949 13.6238866991058298
  7.1713108248318225 11.2714884780563551 16.5347012036531140
 -30.7134681766572974 62.7841045834742602 16.1083526165295616
  7.3038970231058000 11.4625489836318692 13.1872042956700284
  5.2890067909055745 32.9823936094349648 14.2371351864485387
 -22.0625093575368538 64.0696159914563026 16.6549074854365244
 48.8733432583915928 42.7038873453821992 17.1218273143801447
  5.4366403847663110 36.2636481051640587 14.3032307424525698
  6.8987224278410038  4.6818580021052423 16.2212927545817607
 48.9836830919057604 42.5498353504548064 13.7674385818209082
  7.0329830457767635  7.9767939684216040 16.3593316992453417
  7.1812709926244453  8.1364497823437212 13.0132579246395110
  5.5872793402772620 39.5453034108803010 14.3313030180000389
  5.6575216626712388 39.5311559375114356 17.6958907201865792
 46.3703071190366316 47.6196345872454572 13.4202700693978318
 46.2322720124429267 47.8066758144868516 16.7693064159336593
 -27.7883163840738625 64.3145883221461361 16.2742986446762288
  5.7394820808110101 42.8290640255649748 14.3205905008242791
 -27.5870263796699966 64.3309593339012480 12.9289482948142300
  5.4896501542329954 36.2099660364791447 17.6673566866300398
 51.5839883382603261 37.4906211462236030 14.0121939529371140
 -28.0072426559147800 54.2775526290136057 13.1085156228528437
  2.8648246787001166 41.3262369582466320 17.7522102897901703
 -22.3278948289671746 57.4724813182488461 16.7163591090937160
 -22.4206216533203140 50.7320498545610477 13.5679060058364858
  1.9116251230542487 21.6304452833771350 13.7135594680050854
  2.6569462707990761 38.0442874125135901 14.3697409886560372
  2.6984426119859726 38.0023703020004149 17.7346989105617006
 -33.6366214223662610 61.2510327016607832 15.9921075085944384
  8.6155315577409670 41.0621735383611934 17.6182123216539459
  8.5194892974294962 41.0460810763289459 14.2548793730076220
 -22.7527279788834704 47.5537820570826852 17.0433166703255239
  2.8128118983551675 41.3266730669194189 14.3869538097564664
  9.1012268579674114 51.0102340084743915 17.4195064916177884
  1.7340612388271714 18.1070505016704395 16.8442861297018958
 -22.5885879497689963 47.4149240589769079 13.6907824022447979
  8.8139446775172559 47.6247611208369861 14.1465333406242912
  1.7719576377647357 18.3386482332520657 13.4943236377100746
  2.5319105428182254 34.6796825472494987 17.6751300094565735
 -33.5155777070567709 61.2073059520515415 12.6476246518595570
  8.6674081260712104 44.3322253538476119 14.2150707590334626
  3.6359975428257600 57.8942452011649280 17.4585656689180482
  2.0417983436533231 24.7259880131593555 17.2682982256157587
  2.0549455037892264 24.9161215664853799 13.9113932013569634
  2.2011874652537466 28.1987811877830090 14.0796642088213275
 -22.1110988882814716 57.3886373127146641 13.3666135877358130
 -22.4663699459789861 54.1716804400557024 16.8058411422264946
  2.2026462847962081 28.0407410404863171 17.4394810688117765
 41.0489754103860491 57.8448385425928393 12.7186865208685056
 -21.9710877667864999 60.7306971008811729 13.3144374255728639
 -22.2609963804354436 54.0560408677570408 13.4550899253468099
  2.3499673316039735 31.4808428669200246 14.2138448353751450
  8.7818461079286827 44.3813765536148424 17.5768992723841215
  2.3661296645187204 31.3589999139590958 17.5757051115866609
  8.9569164858546824 50.9262541448634565 14.0601973849753161
  1.8853223971684836 21.4147441519471542 17.0669704616226952
 -22.6084272303978864 50.8659854783502041 16.9192961015737176
  2.5020030493258205 34.7627690485792158 14.3112823355176779
 40.9334083090467047 57.9536548213840206 16.0633215472173703
  8.4472386189801529 37.7432536936375840 17.6240643434088042
  8.9442852909730970 47.6980279039546602 17.5071152281379483
  2.9680957048142851 44.6126302509139379 14.3649872328372687
  3.2688274878594608 51.2059742551371286 14.2382186937403894
  8.2789417117469952 34.4261035030161224 17.5932887691942703
  9.2511920057796271 54.3176599164490312 17.3292317265471034
  8.2299572740889211 34.4819893498929844 14.2302911042986739
 -21.8390752073105929 64.0776082982719402 13.3062642171475254
 -23.0430929590708651 40.9117974316040716 17.2785202379426330
 -22.9387077195626148 40.7954288633826465 13.9215468714628532
  1.6359090957984386 15.0370246272790862 13.2653988425645117
  3.4102049952389120 54.5194169151026458 14.1621408510345503
  3.4942833774446704 54.5887595779687800 17.5241046976653791
  1.5027385322481259 11.7214945309613512 13.0427677061588891
 38.3367449006263143 63.0064861296415231 12.5563740049436277
  8.1111313428278660 31.1105748842490506 17.5270857446194874
 51.5135967754556319 37.5836567653576381 17.3715971336649062
 43.7290675277233518 52.7143101906523981 13.0373606254938785
  3.5456757794459488 57.8428462994921091 14.0980158048382336
  1.4482195040400143 11.5045630558146357 16.3891343241725664
 -33.5069818062146751 64.5474967510640170 15.9876299811184488
  3.3457578507192145 51.2807400307842940 17.6013227061272630
  9.0948892544584137 54.2394825385155883 13.9715753325883139
  3.0291494855854539 44.6487015279269386 17.7296385997450017
  3.1900593259086052 47.9673131628792291 17.6753177769754686
 -22.8978881334874309 44.2353727359676796 17.1661894774263750
 -22.7619136215489490 44.1031894550952330 13.8115476622473992
 -33.3848116283156529 64.5742427800688290 12.6430073160576981
 -22.1936402021808519 60.7710149541601510 16.6633919594410074
  3.1206248869206292 47.9047829357530333 14.3113961667805185
  1.5884823820853644 14.8038380933686931 16.6132416326208450
  8.3731159827442649 37.7635319265193630 14.2602988094641798
 38.2731168415847236 63.0130447885787532 15.9006781864328879
 40.0975333830516121 59.6014333636008971 14.3054350370573715
 69.1133832494179075  3.5821415314428364 14.3100609584094443
 -12.1034232927503265 48.6750273180864923 15.8307536750321898
 69.2484871128003903  6.9099612301405875 14.4407476176621437
 43.2502441721146482  3.0364553783131911 15.6792605671725731
 43.6800131369448934 12.9758091269355198 15.8603679761743734
 -26.3338097711231605 50.9556200591127677 15.0243175917072751
 -34.4721391643257675 62.9330015825696520 14.2661268329244049
 40.4590519257802939  4.8319332372323913 15.7846684725342801
 40.3241336885289599  1.5142302381704784 15.7513140940802234
 63.2212808197068483  0.4795548055133820 14.4785131281881387
 -26.4884819260922875 47.6398873773723039 15.1779990267985063
 -9.3214509424662833 46.8854534178707141 15.9596415182577758
 43.5306842836114214  9.6657541776751152 15.7902778046453598
 -9.4808487512091126 43.5791397883398801 16.0007185527141758
 61.3128365592400542 22.1823009285639046 15.5206003056177035
 43.3877470338053968  6.3530542475821932 15.7247225404750903
 -11.9493514423564680 51.9824010138498949 15.7558600089939489
 41.5317859533490363 27.9981582777937312 15.9334775550697127
 -11.6608128373811955 58.6048423985059941 15.6239396620868440
 -9.6418831623783028 40.2722511246510848 16.0118623102260891
 -9.9649344052996192 33.6550278965757101 15.9288587152061556
 -10.6050224734908500 20.4080477032888652 15.3777512300026178
 -28.9832435654208744 56.0471475117249653 14.6611231642205055
 42.0102384511675027 37.9273136217933526 15.5376026768808302
 41.2108515618240858 21.3813169876334221 16.0238601595519690
 66.4389117298099166  8.6856019702449601 14.6037946755517840
 63.9399863571393681 17.0937955201777143 15.1840314518405339
 -10.1257133620345243 30.3441953127048123 15.8355028765319688
 41.8518500517625682 34.6171733399438040 15.6995965475957746
 -12.2610605604887617 45.3676574166463737 15.8914691033765525
 -29.1277009365564261 52.7272180604880347 14.7958580450860389
 41.3709639324248144 24.6896404370541696 15.9976256455460586
 -31.5236795885498999 64.4815167278184447 14.3856669307984344
 41.6921826860328153 31.3074394515614678 15.8326628386337482
 66.1648694158584618  2.0296883801480168 14.3620541597176459
 66.2995887509948005  5.3603974633532365 14.4553846558669008
 -10.2862871900645310 27.0325254855170662 15.7104268415597943
 63.7866249280483046 13.7779299143748855 14.9867159885355221
 40.5990796729611176  8.1460772168702267 15.8420173071889199
 42.1676162196146791 41.2379125769954769 15.3515529716266563
 41.0524809389172773 18.0730944544932086 16.0139417989310324
 63.3545234258601653  3.8098476049921257 14.5341269324738604
 42.7719176076347907 54.4990212644372889 14.5844718695303985
 -28.7101712361483692 62.6981751413833237 14.5333984833756436
 -11.8013751272597673 55.2913708854050441 15.6816669913358933
 -31.7897922476378483 57.8236123342589252 14.4603550388756883
 40.7446985629187353 11.4565496406525860 15.9101050262084591
 42.6268983319387758 51.1793034662373003 14.7514997671228834
 68.9824013695841955  0.2489915358719705 14.2442076041518817
 63.4934841975321334  7.1367396963757423 14.6457695667191192
 42.4771733457538261 47.8632288410434370 14.9458831272043042
 -9.8035121856361123 36.9643258015108529 15.9884639108015261
 40.8966151050016720 14.7650518651545521 15.9726476639774759
 -28.8442002257869099 59.3713757888985469 14.5703718453211852
 63.6376722848172349 10.4592444155995530 14.8016748099103399
 42.3236088209695183 44.5497096158181094 15.1504755024763273
 -11.5253035617276449 61.9221662842214258 15.5949045738151231
 66.5824774025786326 12.0056885283101948 14.7920060457259872
 -31.6544481835994951 61.1517948846931034 14.3912177523982976
 -10.4463084410639340 23.7207713772199646 15.5562704447071276
 -20.0409957190829964 63.9851279424114310 15.1072575654440637
 43.8346206227681563 16.2847623957014491 15.9187040313717336
 54.8234422924924942  5.8292021874832294 15.1055117031650461
 49.7110030885026291 19.3386122963645519 15.7633243173552628
 54.9674168061893624  9.1482081821163916 15.1996394709319844
 -17.5209112134607210 55.5591540238400796 15.3841448536734831
 49.5537050090141236 16.0248963146760879 15.6973077299676422
 -20.9206763190669314 44.0925098087393934 15.5693652712577819
 55.1177102268198880 12.4650769632092544 15.3145368989668000
 49.3988779692871773 12.7125400407135896 15.6167608305198318
 -17.3801721784277809 58.8741065469904683 15.3210625123747501
 -21.0815851531776595 40.7775944973696909 15.6622089982030879
 49.2487945381245282  9.3999444840494633 15.5319415252910336
 55.2724599501525944 15.7813079914644749 15.4357077697534084
 -17.6688383007620580 52.2480982638658986 15.4695115558719216
 -17.2452280543245706 62.1932507125808272 15.2918859931332349
 55.4303002671714182 19.0980334754849608 15.5513834720217083
 48.9680609931624957  2.7659240301723798 15.4092933904285641
 -15.8466263996338164 30.5904289747285674 15.8103250524475687
 -21.2434994838108011 37.4615730088140921 15.7340209944122957
 48.0554110078605348 44.3247262403897011 15.3353475798168120
 55.5904060240168008 22.4151914433234971 15.6522684403655710
 -15.6844127585974746 33.9062739789000815 15.8527119949704609
 47.8958201744983967 41.0094932372065344 15.4853262634280977
 -22.9697987005698003 62.4519524871099989 14.9092184842595579
 55.7515988916917493 25.7327631726838959 15.7316100744076408
 47.7353160515676791 37.6941075559462391 15.6185387112574592
 -15.5225752868123497 37.2207997384200553 15.8660259048998515
 49.1052969929652932  6.0850123642770999 15.4575169639543386
 47.5743955733759947 34.3784123806384798 15.7278205766150396
 49.8704800489066784 22.6534834073792020 15.8081386016533649
 50.0313757915327955 25.9689821230562856 15.8271678019510826
 52.4913214670112467 17.5589572334513022 15.6144384231107445
 52.3350813335610354 14.2438282726270096 15.5190770177066728
 -20.1728565560466890 60.6638844384946267 15.1160246629600614
 52.1820487109997728 10.9291553016967953 15.4190455932002219
 -18.6259234458203196 32.3680788665400456 15.8121532894850532
 52.6499383183660470 20.8750012861025880 15.6959427345633955
 52.0347881236744811  7.6137716370366713 15.3264433203209585
 -18.4636446925116644 35.6847896274126910 15.8108746936571212
 51.8945242154833508  4.2949960881957017 15.2572555724009913
 52.8106407194353906 24.1915240031279524 15.7564616484384228
 -20.3106835135688328 57.3452174857747750 15.1661075145600890
 51.7600905668964586  0.9728968538054410 15.2237083655112304
 -20.7615808192241431 47.4061822155469201 15.4636098745713841
 -18.3018222176098568 39.0003358439152663 15.7814224968848880
 50.6775992402445894 39.2366480652556362 15.6240701618409439
 -20.4546904490895081 54.0309939990590280 15.2495181314003112
 53.1340276672495122 30.8269096231238677 15.7991445872792866
 -18.1403934759368859 42.3143391152203279 15.7265436370818836
 50.5161664624040085 35.9200303110478032 15.7147825844566551
 50.3545583292276575 32.6027501624218630 15.7796237793514340
 53.2961252800220322 34.1447196455995439 15.7799810520961863
 -17.9802158920361776 45.6268277879150190 15.6513791556497477
 -20.6058072855430723 50.7187713465096479 15.3532636647753886
 50.1928036342095538 29.2855984527043027 15.8176545995020597
 -17.8226887846432014 48.9378932368681205 15.5628088040871955
 54.6865801703179528  2.5063483396611730 15.0468897542471129
 52.9721681188716431 27.5088830351850149 15.7914588252407473
 61.1537689869909613 18.8664716900677369 15.3593183681921506
 55.9134049552730019 29.0504423427455336 15.7855361228935305
 -15.3611102666338137 40.5335800034657296 15.8501130575436218
 45.2689170109797701 46.0946034842522181 15.1430858231697520
 58.5316106156358984 23.9571506576055597 15.6401932895975992
 -13.2280649795757856 25.4972841198526829 15.6612822455865714
 45.1114989022711868 42.7803433906677810 15.3244540988537796
 58.6931170244443905 27.2739583335688103 15.7390717551844670
 -25.7723850945983379 64.2393282591974355 14.7163207302608505
 44.9525844193716893 39.4667474722200993 15.4952697179197667
 -13.0666728436621682 28.8118527136235194 15.7755864739548528
 60.4152880583366425  2.2626434976579088 14.6666669127132714
 44.7932871577683969 36.1532586824808888 15.6456737911111166
 -25.9038554980509623 60.9145021122772050 14.7244917961930639
 -12.9052125176224788 32.1259659446342098 15.8603629423162982
 -14.3193844281875258 63.7186208567836871 15.4565073928406616
 44.6331894489432628 32.8397324090438971 15.7694366758359674
 44.4725899594772613 29.5269526927147297 15.8643528069004862
 -12.7437591409588169 35.4390039626192248 15.9150719993350460
 60.6950899595132256  8.9125105886151577 14.8638804914325480
 44.3116475395381215 26.2149615259394579 15.9276920121429892
 -26.0412043789663663 57.5914848997725031 14.7847402350793793
 -12.5821474530749704 38.7501412395514464 15.9380213699965552
 44.1511485537293140 22.9041377810996387 15.9570208075537234
 60.8439158611708351 12.2321056506553365 15.0176792197197848
 -26.1841252236444078 54.2720432172436205 14.8885611140337435
 43.9917850462806683 19.5941317312069856 15.9530506426253407
 60.9974010991147182 15.5498100198220044 15.1875952747183245
 -12.4210154751007007 42.0596229015405711 15.9290684616898375
 60.5519137512213277  5.5897989875977379 14.7423665243281885
 -23.1046209504754287 59.1302590332503542 14.9412323667393103
 -23.8628689323809944 42.5524564200312696 15.5111245870655541
 58.3711158527390381 20.6402570100547287 15.5180635749840743
 47.4133000596426015 31.0625297955590050 15.8097706569043783
 57.4823489220260058  0.7189557849389988 14.8378033874696378
 47.2520680464679188 27.7475318304234300 15.8630110976306398
 -15.2003815327107681 43.8445428914175679 15.8080178229492638
 -23.2451034654749691 55.8117108973398146 15.0166518776304887
 47.0911593290561257 24.4334671655151929 15.8857678662577673
 57.6162688387807123  4.0455552215586241 14.8811169514031647
 -15.0415100516558748 47.1539689016210133 15.7442724918215280
 46.9310306967483370 21.1205279812258055 15.8783983343915569
 57.7567207259676536  7.3687099525220434 14.9695086567870401
 -23.3922354332507432 52.4967755591613638 15.1243921343584713
 46.7727792245601606 17.8084477757333204 15.8433552299752360
 45.4232797558505155 49.4101210075206154 14.9619007084353388
 -14.8855246770288279 50.4626583178761550 15.6658518180245849
 57.9037738740772170 10.6881465344813211 15.0921442275469815
 -14.7341213413182945 53.7716997734319762 15.5836458990257434
 46.4640695061606337 11.1874554330430200 15.7121252090627550
 -23.5455821277785589 49.1823667172211358 15.2514197005230479
 58.0561646717689186 14.0058476499292528 15.2336492607148006
 46.3174565710974306  7.8752009262906597 15.6377376497485336
 -14.5899774818005721 57.0831829703404026 15.5125905485790021
 58.2123460962884351 17.3229917663162887 15.3794173702053349
 46.1772978934229315  4.5596383339852560 15.5785759506100874
 -23.7029038440877251 45.8676686741762509 15.3839640870760981
 -14.4522079175140377 60.3997737941248900 15.4669754867386757
 46.0424329901966800  1.2405797015306776 15.5478664995282259
 46.6167278213272027 14.4977797951915406 15.7851040588013749
 11.0805444084334326 54.1859237199101713 15.5609445958540427
 33.6345519403166975 43.2476046552150066 15.1625592719322153
 -9.1652508732299349 50.1917930479303465 15.8956350834719622
  5.0629686797432010 47.8437523740226709 15.9534032641413379
 20.3675267180012973  4.1389719171905339 15.3503404103183474
  4.9065942306051973 44.5388120469373163 16.0116238024334123
 20.5014025229704266  7.4535781022541823 15.4306138555515933
 20.6393396563130125 10.7628799836263802 15.5294009643106268
  4.7472682138789546 41.2352743976505565 16.0383664657373473
 20.7828203962934701 14.0676659373256907 15.6326295133635789
 20.2364176124870845  0.8203728052928633 15.3019641789705059
  4.5869055547055604 37.9329346978500865 16.0260742392631421
 21.0796286873480838 20.6696935314416166 15.7936450539820168
  4.4272171605091231 34.6317464385145684 15.9731180269704911
 21.2300247474674642 23.9682344273533943 15.8332740055574330
  4.2695398497474670 31.3315069921571165 15.8820041564962633
 21.3800498669161101 27.2655230901962611 15.8400971015857586
 21.5296445137991661 30.5621353260759960 15.8130633100018088
  4.1145650165681031 28.0324939471323056 15.7547550519995578
 20.9302755452717264 17.3694686951677468 15.7246669912998041
 21.6788587704435045 33.8582702787680958 15.7528131279679062
 20.0009999240773730 62.0855389145517336 14.8452277095453908
 19.8703779875709579 58.7613285720373568 14.9031417492814970
  6.2107422827378471  9.7538126881054552 14.7277515371689471
 18.5765078380348960 29.0407119236202540 15.8067622686362910
  6.0820139404133586  6.4390276338490304 14.5640313215784882
 18.7251494882394205 32.3368022807305309 15.7905439905647604
 18.8739419218145237 35.6328005828752765 15.7424803582008792
  5.9544308196136253  3.1164113411164385 14.4455676364473824
 19.0224458055560888 38.9287220813058639 15.6635615235728007
  5.2145278068852079 51.1505014184273961 15.8756175096249592
  5.7664623570270139 64.4106698759920135 15.6628845239622638
 19.3171448856448720 45.5233169268842701 15.4222319448708056
  5.6338691460681307 61.0915545885501245 15.6790609661522353
 19.4610643622490080 48.8245866285030914 15.2759773887542192
  5.4985405036929063 57.7740390965825057 15.7257761317277183
 19.6018581887608256 52.1303881914691516 15.1309391806302820
 19.7383787855285249 55.4424599579507316 15.0021566540776892
  5.3594960133892569 54.4601430917560947 15.7945705610110476
 19.1705938632557960 42.2252089083080762 15.5550308716816907
  3.9623334135472783 24.7348707637834160 15.5928667428608296
 21.8273105603845643 37.1539137981732708 15.6605930052490692
 21.9750117797430278 40.4493620543608756 15.5378021343226322
 23.8740808168919827 18.8876001694566718 15.8618995540716110
  2.5697181358171788 56.2546891085558727 15.8301946760032681
 24.0270343528986849 22.1887470032757363 15.8962528690252718
 24.1797994153581541 25.4880567550498327 15.8969584063912954
  2.4277953727476245 52.9430967487074398 15.9016143211564920
 24.3315743704479068 28.7860288904589083 15.8624168319603474
  2.2786784757579093 49.6351265868176981 15.9787050218060500
  2.7068955427812553 59.5705179708093482 15.7758023252572723
 24.4824800464587859 32.0830157451578231 15.7929853110881382
  2.1237037484472099 46.3293271194937901 16.0436713545472038
 24.7805697639070459 38.6747963294331427 15.5546280262438081
  1.9648650868638395 43.0246449031739147 16.0819473530678891
 24.9274745430621572 41.9704858108420140 15.3907360117395378
 25.0713307498332725 45.2684044171913271 15.2058992529974493
  1.8037307760869690 39.7209531531494804 16.0833981146384559
 25.2115139305202050 48.5701434693224670 15.0134410498961266
 24.6321057957279308 35.3793425274858819 15.6899035784473160
 23.7228989656838429 15.5847067901328096 15.7979030852856681
 23.5748990576756405 12.2802230318675605 15.7130872620186963
  2.8409733676997404 62.8885289867211839 15.7477990246354072
  3.8138188384242024 21.4375890767517241 15.4005818223404098
 22.1211079691593824 43.7457973237460180 15.3885604857813405
  3.6697007699555901 18.1389626818637488 15.1860716355172904
 22.2640408797685652 47.0449733704079023 15.2220064418823942
 22.4039394817873649 50.3485374538684312 15.0524767207720451
  3.5302314551694027 14.8376544372671511 14.9616199501643994
 22.5405331248503238 53.6581120927058990 14.8963757320176402
  3.3952081788346198 11.5319333369392059 14.7430588664665851
 22.6730861078183992 56.9751793501612838 14.7684981676934992
 22.8032122575588403 60.2987864921419217 14.6808300628692798
  3.2644087013689433  8.2191710123564956 14.5488406866643025
 22.9329694797869728 63.6267684413927768 14.6449690355243725
  3.1353920982956218  4.8988298514034581 14.3948908372602684
 23.1628765638507232  2.3441492518138345 15.4824689725325637
 23.2959599477172752  5.6607777707880498 15.5412153582804926
  3.0077801398683963  1.5710702990672349 14.2970085855539200
 23.4328245125921732  8.9727385755945708 15.6226685165324124
 18.4279511544712484 25.7445405162561869 15.7899619692113848
 18.2794147697151885 22.4481739030854754 15.7402333995858612
  6.3424392319850833 13.0609505310746972 14.9225567254874694
 18.1322599501870947 19.1502997564136557 15.6602415625201488
 13.1186048868636664 35.8872525065303236 15.8370395123994410
  9.7163551545806026 24.4785114211709107 15.6295321715011788
 13.2707447724773306 39.1850185704652674 15.8126317528641973
  9.5702214302344704 21.1829358987255958 15.4792940007728497
 13.4239227440000786 42.4842676921639679 15.7568736417065729
 13.5766660802745083 45.7855021041941015 15.6733792530788349
  9.4278322184861629 17.8862154822877137 15.3049107126486579
 12.9677602565549659 32.5902350380661403 15.8293457172578638
 13.7262214065564230 49.0889762805825498 15.5702841143701178
 13.8714650656649479 52.3955113206932310 15.4599198702206717
 14.0110537960643509 55.7064185025465832 15.3581126587131518
  9.1555099264633224 11.2830989162257431 14.9327219697696183
 14.1455909365046608 59.0228607592499301 15.2783487315275330
  9.0251162474629911  7.9732641821341987 14.7677609373540850
 14.2776382391479224 62.3436368653529769 15.2308193384126582
 14.5107998940197369  1.0819277343932114 14.9249182168878427
  9.2891623753136283 14.5869378366141227 15.1178123936397473
  9.8648686577982989 27.7738513661704118 15.7479791223090224
 12.8180858070873747 29.2940571126900835 15.7887950010461768
 10.0154538714119674 31.0701400776802821 15.8321757993085743
 11.2182951067465542 57.4993743395298509 15.4782498611818866
 11.3522883480666525 60.8175550929182336 15.4201239019643133
 10.9367594693712160 50.8769647198011938 15.6575776029057394
 11.4844281491975782 64.1381199815216689 15.3959709495991746
 10.7874580211559810 47.5710800103356988 15.7523373447785904
 11.7067743562575490  2.8699726616852490 14.7624194067534429
 11.8352997446285659  6.1900531179140366 14.8576945491752461
 10.6338845483557645 44.2675214387712117 15.8302037784146865
 11.9657857044608171  9.5031135250914449 14.9906688066488876
 10.4778579059539805 40.9658512242636945 15.8808828102772903
 12.0990101120479761 12.8093366956777768 15.1481075175564506
 12.2367158126537614 16.1101194743237173 15.3138932614011516
 10.3220007994798912 37.6660678151521537 15.8985287775357147
 12.3781086725413054 19.4076224741114345 15.4712694394216399
 10.1677530610925331 34.3676220518318374 15.8821541792788246
 12.5226214128696878 22.7037913525804385 15.6077096204836447
 12.6695037956901206 25.9989019385034084 15.7147246730268684
  8.8968059949837297  4.6557781668105607 14.6378647936661324
  1.6420710176683369 36.4180680501072729 16.0425799776211910
 14.6397168091692560  4.4029985147466286 14.9874870503503299
 14.7707868974114174  7.7192350943016841 15.0892996873321952
  7.3741635553704254 36.1483399136937749 15.9527979820005115
 16.8050397156546509 53.9164510707187290 15.2378389620347772
  7.2179279597785184 32.8491343262983904 15.8972889016718302
 16.9406072790848654 57.2310010273657781 15.1347813188678177
 17.0724078677060653 60.5513513309200277 15.0623966279773818
  7.0640292102714790 29.5509856563915108 15.8067539816835705
 17.2036072270903944 63.8748505407452285 15.0314870313573827
 16.6641075311038058 50.6080036227048566 15.3600644530515549
  6.9127485513468621 26.2541331366363764 15.6811424297274336
 17.5707355024889154  5.9311643992491732 15.2146863093526026
  6.7642222359659643 22.9580701036550039 15.5220229534829137
 17.7049388720052718  9.2431591774881987 15.3176777481371698
  6.6192047917978858 19.6615436581064991 15.3350235694783539
 17.8434698036232930 12.5495436355704442 15.4363283086825227
 17.9867518237248980 15.8512864569748775 15.5555882685813476
  6.4785103267211230 16.3629966908835627 15.1307712684184104
 17.4396996493133649  2.6130153037285502 15.1410870939691140
 16.5188640039137979 47.3042447583390739 15.4865045457924335
  7.5321263417966202 39.4487616563103671 15.9717374660382063
 16.3705001546186892 44.0034956007669251 15.6028719046390592
 14.9046053716330480 11.0284249424441132 15.2179798538419178
  8.5594856116192997 62.6137145130725656 15.5507066558475415
 15.0428823055015730 14.3316510218871773 15.3599344047674649
  8.4259945205025062 59.2948202467451964 15.5877437034074955
 15.1846058068051981 17.6308780572270614 15.4982763433420203
 15.3288008610071547 20.9280848942398414 15.6188057104183606
  8.2897162167186931 55.9790100385808458 15.6523191478936887
 15.4752703097390594 24.2240909451258410 15.7122545930360697
  8.1482622756629279 52.6675295313246110 15.7352085006533695
 15.6231495928015196 27.5194147731987755 15.7740051378510415
 15.7716233895775613 30.8151360711434101 15.8027775356858431
  8.0006927427061836 49.3597515002210372 15.8236461589062785
 15.9205837470272549 34.1113574402343360 15.7989803397911555
  7.8476196305962187 46.0543776012363821 15.9007074779078117
 16.0702525654721491 37.4078431683578216 15.7637007698206055
 16.2203538615528764 40.7049519525760104 15.6975590605546405
  7.6907018243868244 42.7506627743347991 15.9531019927337052
  8.7692599784840581  1.3320032376076825 14.5564580386270706
 25.3482876891914692 51.8773504925618383 14.8304235438632634
 25.4812458751651150 55.1922455849074254 14.6728683044881691
  1.4815157616818053 33.1159404830763506 15.9600817816333791
 -4.8742003695094471 20.1672666542993184 15.2933687654135646
 34.8793489724324672  8.4210180525757323 15.9080889042518461
 -5.0251653915086321 16.8594147790408471 15.0641267005831292
 35.0241873551076210 11.7311349740733135 15.9776118005381313
 35.1751723576451383 15.0388028099541984 16.0404596064999048
 -5.1720605898488223 13.5482159213599083 14.8347114048687967
 35.3304198701040519 18.3454232505122157 16.0794264969040164
 34.7397631846306325  5.1072239499005017 15.8477264210561088
 -5.3146158508777557 10.2319627627394709 14.6213310299619259
 35.6479814500570100 24.9565876023243298 16.0447183252982875
 -5.8050997120685723 61.6449940794108500 15.7709092112068916
 35.8078843476842934 28.2613006331711318 15.9639900461539241
 -5.9407293463175286 58.3282040232734005 15.8028358256594892
 35.9669023438210047 31.5652915653538315 15.8424599160604824
 36.1242823578072390 34.8687001138054242 15.6846777786531710
 -6.0806055473674085 55.0151209139529058 15.8594136985867120
 35.4885513203537357 21.6512075283279017 16.0827384085495559
 34.6046869058121587  1.7901844641689946 15.8090636318091917
 -4.7201282131592253 23.4730212724281024 15.5082233628913322
 34.4538222003014312 63.1614390391496130 14.1930718893530621
 32.8640774476277358 26.7425224864030220 15.9997002617212996
 33.0221548226324444 30.0448556657964900 15.8996940401015880
 -3.5988357112555733 46.6078739387634329 16.0652048253465338
 33.1789221245369035 33.3462878900161712 15.7610649239215679
 -3.7584882382300124 43.3027132701659525 16.1000996172169302
 33.3335363366740864 36.6467381153228118 15.5879670867282343
 33.4855302435269451 39.9466682865436908 15.3856924738631129
 -3.9204361779777939 39.9979629349039527 16.0995345741976443
 -4.0828829445376353 36.6930953069604087 16.0581615346192095
 33.7798793292685531 46.5518217541782136 14.9304294086272780
 33.9212558322819433 49.8612549721927465 14.7051907959910881
 -4.2444885389969498 33.3879003936262038 15.9751453135974799
 34.0586479921771925 53.1768141176206512 14.5034420265788722
 -4.4049074622230728 30.0825936580442921 15.8542249101835413
 34.1927101021352016 56.4988210034980440 14.3407031141154455
 34.3239975102983763 59.8277804306249834 14.2333317883379173
 -4.5635659245870075 26.7776905132286700 15.6975904869226000
 36.2797766285086851 38.1715159055639361 15.4952438071643019
 -3.4429913288983047 49.9137941252618589 16.0042020524396307
 -6.2277942132470221 51.7064993543985807 15.9301799047026957
 36.5828857650400181 44.7796233461280835 15.0524837307022850
 38.4297683200993063 23.1691029198656899 16.0543121322318960
 -7.8177801475021953 18.6339921566581630 15.2212028112720432
 38.5901142368970724 26.4756826247561996 15.9993094351759275
 38.7506112040429258 29.7821300487536575 15.9035394332939504
 -7.9700292869457954 15.3214774265501195 15.0035566524870791
 38.9099645024389815 33.0884048045648314 15.7706817328468389
 -8.5988789631438962 63.4429201122938622 15.6977389997278678
 -7.6623281241604362 21.9441186411483358 15.4300447983116413
 39.0679287011331624 36.3946567391377016 15.6051007023190689
 -8.7325944303993808 60.1252872585962237 15.7115851314571220
 39.3784475165402554 43.0085890202250596 15.1985402967909273
 -8.8701081612006760 56.8098642200363386 15.7560878333171654
 39.5301097762955038 46.3187030770110582 14.9773288946150718
 39.6784568367049744 49.6320545522790937 14.7616222883148431
 -9.0139220561802880 53.4991576799118107 15.8218976385338284
 39.8225516462189972 52.9498677038963024 14.5668354452753199
 39.2241315573822362 39.7009983114482665 15.4117308062144254
 38.2706007913048012 19.8622112602912253 16.0688540411806855
 38.1136100132387483 16.5552048392164259 16.0461162723492485
 -7.5046163351372295 25.2526858057692394 15.6192610247343637
 -6.3817481473612094 48.4000398888706655 15.9994422987124914
 36.7290768233632576 48.0887054342333471 14.8233067897010180
 -6.5397692605155520 45.0944618636140575 16.0496739671877471
 36.8718619162530956 51.4029524065806314 14.6089444730070177
 37.0104975932809168 54.7228317652384675 14.4250425655766072
 -6.7006287965977878 41.7889942737360940 16.0703961439412595
 37.1450758299814652 58.0491363585308733 14.2882309040768511
 -6.8626363415058540 38.4830461757771829 16.0551327635317449
 37.2770996633695688 61.3806019861413432 14.2135168190262160
 37.3982359886940330 -0.0074534534720839 15.7917940038161397
 -7.0244354260998652 35.1765346966093091 16.0005044147364011
 37.5316042264855128  3.3109427571426902 15.8134243794813418
 -7.1855688388133601 31.8691233220846719 15.9078388258910497
 37.6689981592500729  6.6267989073414251 15.8617493711068374
 37.8113093562994820  9.9388206575835927 15.9270199607266534
 -7.3456638814145618 28.5609916320097241 15.7801263886997134
 37.9596540658360269 13.2477465905570746 15.9940229672689487
 36.4328919804075682 41.4745182656548579 15.2810531353673955
 39.9618288926226697 56.2730730181299279 14.4096338195502369
 32.7053111053128234 23.4391857781845729 16.0575481865799716
 32.5470170213157033 20.1347659611746046 16.0727871579728543
  0.1852773449326029  3.3527350905115192 14.2768462187100447
 27.5848343303074728 36.9002061271067276 15.6031471483945197
 27.7333672901810324 40.1964894033459359 15.4289923874010881
  0.0560975093562511  0.0211358920272496 14.2091262689087650
 27.8791309089414590 43.4938723359376453 15.2306024530776423
 -0.0852856358560804 61.3676024674021221 15.8000839579761294
 28.0213168979585703 46.7946247583420458 15.0195842083732511
 27.4343703381904405 33.6035785030905743 15.7465739807692504
 28.1595330440408773 50.1001206479080992 14.8124880108791359
 28.2939251231221007 53.4126512301649683 14.6266743322384567
 -0.3602360548306178 54.7369085480283815 15.8989380157343412
 28.4248150184798263 56.7325382570280681 14.4762682628150383
 28.5545791873379891 60.0588285104717983 14.3742963952779359
 -0.5063313676290851 51.4276726665399906 15.9718697642507159
 28.6835105167043665 63.3902872774996879 14.3342330932039079
 -0.6592719150234777 48.1211044929172402 16.0421281277505905
 -0.2208932422362088 58.0505425893513305 15.8384657512554750
  0.3148762584451998  6.6787570381397723 14.4104435831293483
 27.2821991002303861 30.3058422442585353 15.8561895259467178
 27.1285047234827914 27.0072390511732223 15.9301040572408841
 25.6115190067805969 58.5142835946950939 14.5537035697314447
  1.3231362319125453 29.8144412437289219 15.8390811115491772
 25.7407066387880228 61.8420116704081835 14.4855120815167933
 25.9574370011624254  0.5473884769640343 15.6004327998455459
  1.1671422742645523 26.5145861758672012 15.6819407433838922
 26.0900541214751520  3.8649583261137761 15.6385779929148061
  1.0144132335983991 23.2154540392482964 15.4920499470805861
 26.2256991724461521  7.1795534212115060 15.7032794632011967
 26.3659781445836181 10.4898158760544398 15.7826509677579416
  0.8657008084751474 19.9158372995539992 15.2761457034875079
 26.5125749298117555 13.7968356231085387 15.8628843162984179
  0.7218427356978240 16.6140154217506613 15.0445038517937917
 26.6639130469020564 17.1017933626220078 15.9280904503911884
 26.8181272000658915 20.4053869165258241 15.9648466059472831
  0.5823628812705539 13.3085246433474786 14.8113976760083936
 26.9736634896882990 23.7072019011561785 15.9664129627902138
  0.4472099018842734  9.9969640302134302 14.5942586734932007
 28.8841051345929039  2.0676374295587490 15.7163190799311430
 -3.2926085888650407 53.2211877956829724 15.9318429921638298
 29.0184593415284517  5.3842569209720690 15.7633950680269468
 29.1571564376726684  8.6972490874195625 15.8312750492907330
 31.1083131027208886 51.6358269001386532 14.6369318084550102
 31.2415272892358580 54.9532239207964466 14.4577565083198216
 -2.3659002863037903 11.7731286565790985 14.6937408701550822
 31.3726473663277829 58.2773750629866356 14.3237069310841285
 -2.5028440356079220  8.4563129453986647 14.4895378651663229
 31.5023126061305803 61.6082654241219814 14.2494874627623282
 31.6781057372931976  0.2694178442097402 15.7701371993527335
 -2.2249585026203929 15.0841613741804927 14.9226867298756964
 -2.6363946393128717  5.1325761988985406 14.3271299773686920
 -2.8784772516599211 63.1651063253183764 15.7983049014881871
 31.9484327997319149  6.9026745770842073 15.8536055014279658
 32.0901561671792876 10.2142782996969164 15.9229185831537592
 -3.0125332300965817 59.8475716452024997 15.8183875151066413
 32.2378141185589229 13.5227017209202831 15.9934890893931225
 -3.1498356731383717 56.5321498490313203 15.8659549902428232
 32.3907551132450706 16.8293624239822535 16.0485293009383412
 31.8114481765694492  3.5872816079326078 15.7992172409482858
 30.9712239539094476 48.3252536163915707 14.8467774022144692
 -2.0800563850060536 18.3903927516342200 15.1597103450975812
 30.8299283325621403 45.0206983230196442 15.0714275030986506
 -0.9775939866332573 41.5111395237798746 16.1105491281131350
 29.3012053264042720 12.0065870425883201 15.9069025038749174
 29.4512967838142536 15.3132228780726418 15.9755296537865625
 -1.1398720357452834 38.2072921529615073 16.0886861636400447
 29.6054376146276716 18.6185607371371447 16.0206648977965465
 -1.3019288868731365 34.9036031320160447 16.0235739320494837
 29.7620171251108303 21.9224611633579478 16.0310895274935028
 29.9193614185942600 25.2249176022682100 16.0014994726966897
 -1.4625539009106598 31.5999990192620999 15.9178115019129063
 30.0760479365220270 28.5258371779026731 15.9308734709376409
 -1.6212737820079768 28.2971938485165850 15.7746642651835618
 30.2314234204003647 31.8255581551043889 15.8212337429690848
 30.3849989650788217 35.1243793086483080 15.6758601548452745
 -1.7775491751994008 24.9955069539391559 15.5966802106055411
 30.5361734638614877 38.4222930983014379 15.4979362655135127
 -1.9307680602708244 21.6938511862017478 15.3886378528646137
 30.6847503567129465 41.7204660159307466 15.2932392573516509
 -0.8169097620921807 44.8156769688243131 16.0923286578460285
 71.9338048528493061  1.8022716026971302 14.2246163412499804
