Mo S  Se W 
 1.0000000000000000
    72.0026220809799185    0.0000000000000000    0.0000000000000000
   -33.3875254964153569   64.1652293829290556    0.0000000000000000
     0.0000000000000000    0.0000000000000000   24.4856654507443388
 Mo  S   Se  W  
 526 1052 970 485
Cartesian
 14.0696464341886092 30.0390618682216441  9.2591500227337491
  3.6062159815755366 22.6981000292342223  8.7981466634023118
  1.0039482455907554 20.8657393693540065  8.6358033060472810
 -1.5931522468481549 19.0325351310134856  8.4892114450675802
 -4.1865053782541910 17.1981383009387514  8.3829232999490966
 -6.7768691419182705 15.3610259491023857  8.3342500435438076
 45.7073493110619111 48.9226680673156267  8.5342567946965673
 43.1135352905105691 47.0839248983863499  8.6105683123297929
 40.5165564094360704 45.2471204843106136  8.7329418013153699
 37.9156390927083251 43.4111561715812613  8.8776717521230104
  6.2137786955711363 24.5308610741607609  8.9532231459481917
 35.3095030505838423 41.5751842347660840  9.0186927389540710
 30.0808854419645826 37.9018394712013915  9.2323098529772825
 27.4602277775616379 36.0631852465893914  9.2929880301832490
 24.8374936351105440 34.2249112419732242  9.3216937287523667
 22.2124437026396322 32.3864121202048665  9.3198648122583823
 19.5872933997360796 30.5480111669919907  9.2895858947495213
 16.9624173141059948 28.7099939769185752  9.2321643128211601
 14.3387609888003862 26.8725927653314578  9.1461528468010744
 11.7186211861381562 25.0354491124682283  9.0301748218512081
  9.1021445418321321 23.1994264769681351  8.8851931263180237
 32.6980217239663205 39.7391220177374009  9.1396720224562920
  8.8281418110554650 26.3653134862395824  9.0851840717327441
 11.4472695080764684 28.2018327137753850  9.1877357044299082
 16.6943061440004641 31.8767181981522469  9.2998824241355926
 19.0519686477326893 36.8829564103489176  9.3226211243144359
 16.4269545374729375 35.0452195517275484  9.3544434092714415
 13.8022361145223478 33.2075197130705817  9.3573279731001229
 11.1785830671734594 31.3708613064941879  9.3282160772235940
  8.5573527493722388 29.5350158441119639  9.2653137023324295
  5.9396149706939374 27.7008936704904549  9.1690773566520569
  3.3281285592032663 25.8687348937849251  9.0427900130577257
  0.7230730428326891 24.0368746037961714  8.8981436193323020
 -1.8765590947187052 22.2045635326827053  8.7556094116431549
 -4.4719354894737604 20.3700341674499228  8.6406325357083791
 -7.0643072502162418 18.5328622956214772  8.5736788408997047
 42.8308484734599091 50.2539168146539481  8.3522440917850922
 40.2356710531603525 48.4172634466269827  8.4711570343691545
 37.6373152094740959 46.5812413093017383  8.6268299133923296
 35.0339930163444535 44.7448133268813351  8.7919453751090977
 32.4251643503993634 42.9075964274531714  8.9454609789333652
 29.8105011527499357 41.0700903580188026  9.0768002733164757
 27.1910141534498528 39.2312497577190342  9.1803849005352856
 24.5691917498765804 37.3924118375606938  9.2538175736794894
 21.9447957930736131 35.5538382694295763  9.2974533898262504
 19.3193703817670759 33.7149928368308949  9.3122515191712871
  6.4915929160970443 21.3652017334344357  8.7152848084663184
 21.6769615504835116 38.7209901453604033  9.2622569764471585
  3.8873978301691103 19.5323109246174056  8.5318227147749948
 -1.3064453161479204 15.8671331244569611  8.2092986882632246
 38.4672633406997520 37.0574820339059983  9.2911181672482339
 35.8558681610407461 35.2247922557753412  9.3869528275809806
 33.2383844617284083 33.3920338272194002  9.4494755613710364
 30.6172521438475300 31.5575513663410767  9.4736658002379333
 27.9949801160664791 29.7220874466841316  9.4591509443475790
 25.3709863312345725 27.8859444321474044  9.4077816545768833
 22.7468427453838125 26.0502027108365048  9.3234341721418641
 20.1232521087758087 24.2145465963026041  9.2093149513110646
 17.5008528583674519 22.3800492121954839  9.0651559563706456
 41.0728490621077711 38.8909434795196560  9.1736249304235375
 14.8824123539733968 20.5450561357377772  8.8902131782877731
  9.6609806757113077 16.8767730280411357  8.4599345369720798
  7.0600270585983953 15.0445405730903143  8.2236859696906492
  4.4623550307318478 13.2129904986814779  8.0015566776734133
  1.8686715836321106 11.3803779147896709  7.8178765391287399
 -0.7234531885008828  9.5450023039921348  7.6978322526986593
 -3.3134876007982110  7.7067390408543783  7.6605854148153449
 49.1461850815276122 41.2170468826877823  9.0640783341263749
 46.5503460006296095 39.3786134458256214  9.1282554191611229
 43.9522556377866422 37.5417556682245674  9.2291536964183063
 12.2683915499215388 18.7098434772387172  8.6866396716757741
 43.6732494442854318 40.7261135656384639  9.0542347011634394
 46.2705749723225921 42.5637458295488997  8.9591479476550422
 48.8656209854261689 44.4034488306658019  8.9086016214043422
 -3.8982885181848284 14.0317010064528915  8.1174566548831457
 45.9897532738777457 45.7458624929926501  8.7604165477256437
 43.3939734307293037 43.9075827929910147  8.8470870290409955
 40.7952612382744135 42.0712505983567340  8.9694542024201240
 38.1923112319786213 40.2365694270317036  9.1010819012771584
 35.5835452548086337 38.4019916320224439  9.2190619861946228
 32.9692154061144080 36.5671376475068541  9.3095574881441348
 30.3496714347565479 34.7306206182287269  9.3659836730897155
 27.7279562491341949 32.8931732194884390  9.3870362673090337
 25.1042558335890398 31.0559509304969872  9.3738113963591800
 22.4795217004578944 29.2184422544249109  9.3288063077640597
 19.8552037121822629 27.3811898852992393  9.2551246552938302
 17.2313787777856113 25.5445528318960342  9.1534260681935020
 14.6097504495183390 23.7080510186122986  9.0219494847198050
 11.9919750804160401 21.8714389792174018  8.8608769538966570
  9.3791850356049800 20.0366083162915736  8.6732946447911914
  6.7736139700067932 18.2033603211054320  8.4670250198945531
  4.1731071771006309 16.3713032358920287  8.2597620483801411
  1.5766383717245673 14.5390751554051416  8.0749240705319210
 -1.0165526468586392 12.7058619438956466  7.9370880473085519
 -3.6069646630224130 10.8685869431026578  7.8681564597360687
  1.2881687953690655 17.7000492829778011  8.3551446195529113
 24.3003003861148414 40.5585383313873322  9.1720929888080569
 26.9213888017700285 42.3971370091525230  9.0524848757162619
 29.5387668606736575 44.2359387536576421  8.9051011846261119
 -5.5934577479553411 33.1037888595329548  9.3912197231082466
 -8.1932898110051369 31.2687869900861166  9.2842896929390299
 -10.7895299708409951 29.4309361399579927  9.2075268536421291
 -13.3840377904409422 27.5919232508207983  9.1784688870596867
 39.0784227840109182 61.0623090936593513  7.5183599465188875
 36.4866586374776674 59.2240947896409935  7.6437656528496580
 33.8943636907504384 57.3892025864668014  7.8452698067455167
 31.3001138461535540 55.5554602690060975  8.0949106073991324
 28.7018109401926615 53.7219993185812186  8.3642301755766972
 -2.9870618332173335 34.9353086643511901  9.5046498440755496
 26.0992602465065602 51.8882304410011415  8.6283914205647587
 20.8729944619607117 48.2205544483501782  9.0840736250952929
 18.2529068061574904 46.3889120436876254  9.2654132416973560
 15.6296362678889604 44.5574677724049693  9.4122008357203359
 13.0055399216663208 42.7257872573826063  9.5235457932677399
 10.3808668856150934 40.8938455178563203  9.5977938537324761
  7.7566684110756547 39.0635123200123644  9.6310639281234955
  5.1341853545530238 37.2340501200976419  9.6213434767798951
  2.5131666117970246 35.4061044288472786  9.5706935838553946
 -0.1031789095329493 33.5785387719711679  9.4835311441927015
 23.4891946418192425 50.0539020219829496  8.8705382689297636
 -0.3739366876063474 36.7636037388781816  9.6022721273028377
  2.2457695842541048 38.5896650597794348  9.6685461536326436
  4.8684804451641153 40.4163381513954434  9.6961081459798031
  4.6020897895588311 43.5992485851868707  9.7302688241159103
  1.9793614781861226 41.7734418188069654  9.7241816842233550
 -0.6427650787057637 39.9486601329353093  9.6788879173351372
 -3.2597485211756378 38.1222773640416293  9.5987444410474740
 -5.8696444754694888 36.2922376812998095  9.4946340181492257
 -8.4723826860035700 34.4584104200277039  9.3864416288917898
 -11.0701502317252132 32.6212264893173653  9.2981849806390553
 -13.6659978588627808 30.7822400549504174  9.2519194189561400
  0.1673812024746527  0.0587990404795772  7.4231255003929739
 36.1905186490047939 62.3843683807815310  7.5123381420091464
 33.5991731460382610 60.5479873607520531  7.6892595471561176
 31.0083996236420489 58.7142418806133648  7.9304847584668998
 28.4145775184401437 56.8817187345704198  8.2063546047702882
 25.8168906709985109 55.0497440650720478  8.4904110539487050
 23.2128069550683520 53.2187140106906682  8.7603290854318345
 20.6015764816038569 51.3875993010505709  9.0035095451714149
 17.9848239965146632 49.5582838180517626  9.2142446843534582
 15.3634789181232172 47.7301415390560919  9.3890846751813672
 12.7402113985283876 45.9014119180201376  9.5260012315137068
 10.1162829085821055 44.0722049884361482  9.6244497114541012
  7.4919125718378670 42.2439881438266411  9.6818584309229934
 -2.7127637261691766 31.7490669296394117  9.3712710609161540
 -5.3155094999936843 29.9161632902938734  9.2523850865517332
 -7.9128839988932231 28.0803201567164535  9.1504733993668150
 -10.5076490530345446 26.2422243285794892  9.0877927130356646
 29.2635758259155416 47.3996133160847464  8.7242330656875797
 26.6501681071407468 45.5617319085183397  8.9143967520194209
 24.0313665349483720 43.7239724913453216  9.0790032873410773
 21.4095467449749037 41.8873355465224932  9.2145018481473766
 18.7850978268830460 40.0509799891991491  9.3191672661698171
 16.1601626705211103 38.2149640348456927  9.3931455260871424
 13.5354478323438894 36.3782236642435279  9.4365827209980964
 10.9112857551573477 34.5425654368751083  9.4464676430080878
  8.2891724432085301 32.7081607174570124  9.4194265997896576
  5.6690155802557678 30.8754078327414767  9.3550768809383680
  3.0535492101674242 29.0446473989367639  9.2556437787444583
  0.4448079556226887 27.2137074563793391  9.1296823204774977
 -2.1576644084211725 25.3818021848233890  8.9947797740036997
 -4.7548486256130200 23.5476781028356115  8.8745519832706439
 -7.3492093989711531 21.7113899201736267  8.7932789080834368
 -9.9412516281754844 19.8730900224759530  8.7646087056968991
 42.5451125187323029 53.4198593248526379  8.0865769475280160
 39.9518480371351714 51.5818100676641436  8.1976719928131629
 37.3555302034785157 49.7457396683799900  8.3597257624355290
 34.7553229976852975 47.9104318659986035  8.5472575502868171
 32.1498197402900630 46.0736814847130276  8.7342392707688354
 31.8708052565714581 49.2363984948185802  8.5141917034350385
 41.3499654507014540 35.7073889002298941  9.3428228235007751
 34.4728142369064585 51.0718614795132311  8.2964024982319700
 39.6644497636095110 54.7430761926713885  7.9314753532551814
 39.3730678324793431 57.9021475898497684  7.6957279234783522
 36.7801115154164435 56.0655708477818493  7.8460539277393462
 34.1854678620053534 54.2309014601005117  8.0555172538720079
 31.5875383515590755 52.3967460585420568  8.2959263745417839
 28.9851476359538474 50.5614181501967792  8.5411382652016599
 26.3764730582299620 48.7254339865925488  8.7715309646647146
 23.7613123491717886 46.8890805726355993  8.9775618083656727
 21.1417769843657304 45.0535558885524168  9.1546634615798030
 18.5188002951947617 43.2192790174906563  9.3003431083415027
 15.8944044402182243 41.3854593865289431  9.4131769003681551
 13.2700245998538158 39.5515127206471959  9.4931307133416425
 10.6458318580939473 37.7175357593756573  9.5377621188198596
  8.0227085829832916 35.8846406302991383  9.5426820762906246
  5.4009471486004772 34.0531278347139903  9.5067969607672893
  2.7819131471328262 32.2239721721415009  9.4322202740581673
  0.1692868759515927 30.3948858958709636  9.3253602238178495
 -2.4365039827674413 28.5639448767819673  9.2008458621579976
 -5.0359945439142031 26.7299675477245238  9.0796342865545512
 -7.6315747775972014 24.8945194388952018  8.9861280436350999
 -10.2249473223614569 23.0562453661884241  8.9399173652601878
 42.2567259973016434 56.5816903077467899  7.8357786097492355
 37.0697952567711653 52.9069925399675682  8.0929300658695169
 38.7412906461169015 33.8753937448352005  9.4449074065233187
 36.1263378218114681 32.0451550370256584  9.5192498986341683
 33.5058405152035022 30.2144328397210629  9.5560801497149566
 51.1095700521288876 18.8985954718794282  9.2750177529913440
 48.5018289609966615 17.0722123954848541  9.3500846063217828
 45.8895401873610851 15.2504943029743334  9.4034326798364365
 43.2746273024373806 13.4319935999719888  9.4325973802271914
 40.6602407657623033 11.6146348057932833  9.4374516158443704
 38.0472927885111645  9.7987544243051481  9.4172663849028542
 35.4340272016424223  7.9826436188347367  9.3723437799507057
 32.8211685767821066  6.1668442462576198  9.3051747238528471
 30.2097456296958171  4.3510992588696311  9.2182524990185843
 53.7106243187426386 20.7304527382931134  9.1887187433953841
 27.6005979943094317  2.5369313033358054  9.1142640420973144
 59.1847624161583141 21.2177345145196341  8.9458245553713684
 56.5909707152341923 19.3813798969073083  8.9989815434533380
 53.9945408265138411 17.5480934830949096  9.0803148797920077
 51.3926215741044530 15.7200642048046468  9.1649072794071422
 48.7845532543569291 13.8969116628240847  9.2369410151359723
 46.1738177406368990 12.0778246772081772  9.2911498284776322
 43.5615105495455879 10.2608091358604021  9.3269831616332830
 40.9501506495008556  8.4452196521309855  9.3437197867964716
 38.3388832591809319  6.6311172476452667  9.3404326190210973
 24.9946173489549466  0.7222183395217074  8.9964675190135104
 56.3072517061578921 22.5659494622452925  9.1138921430250601
 58.9011404724379162 24.4035163073535948  9.0760248602360143
 19.4919301066601456  0.2477033633357278  8.6434642172236487
 32.2423055508497285 12.5027852210055350  9.4524503113619556
 29.6271181122898994 10.6840849635375843  9.3319425781338907
 27.0137636542430286  8.8655955800774215  9.1821858426971232
 24.4034700363352677  7.0486734048055126  9.0071853166672913
 21.7981331854970044  5.2299375666121861  8.8127851416434044
 19.1969739630465064  3.4086656074041870  8.6058220807111958
 16.6004117068432144  1.5844162547069442  8.3947954382380061
 56.0239278643462484 25.7528861704924168  9.1994431079735861
 53.4278471482923152 23.9164313702381861  9.2637755888634068
 50.8281240741494926 22.0819150448731740  9.3508448335375984
 48.2217856873542559 20.2523283506443903  9.4337590351575109
 45.6091893153951560 18.4273090822073158  9.4956291084068649
 42.9930638452187637 16.6061943944736079  9.5299081231784193
 40.3753750718650295 14.7868298458190726  9.5349103460694735
 37.7592477930865371 12.9683405373441882  9.5097829891672365
 35.1438683406059269 11.1506596459352547  9.4542845411091907
 32.5294151637683058  9.3334845064052949  9.3702812755283933
 29.9162345331263069  7.5170000871618843  9.2605140312822165
 27.3055185548782049  5.7012014733924321  9.1280389288345525
 24.6984571194034288  3.8858008946921028  8.9777744792020204
 22.0940173126202737  2.0679361594452184  8.8148355696456182
 35.7273425390787125  4.8160905942282186  9.3177347196665377
 33.1160989155129926  3.0013504090618595  9.2777266782675092
 30.5060942508526978  1.1867100168891260  9.2211209578248123
 59.4701225675729361 18.0357547118233477  8.7884021452667849
 51.9673733073678008  9.3776483260353896  8.9011413220680744
 65.8073250019227629  9.0304490841669196  7.8773422965626470
 49.3627865427366217  7.5584642284212586  9.0027672868096591
 49.9525687107690501  1.2286820155125056  8.8963190126180578
 52.5545631000036053  3.0476544882256462  8.7251805067148123
 46.7558212272791351  5.7415388353352563  9.0958628372090846
 55.1528279087763238  4.8697110519392517  8.5514802647515538
 44.1481207252338450  3.9261126363785972  9.1790395287473654
 57.7477773548213094  6.6950767026334130  8.3855979871831146
 60.3387356400170347  8.5247204096184763  8.2419646224901477
 41.5390918398128690  2.1124632176297009  9.2500480162655965
 62.9275147297243578 10.3580035903455236  8.1386792267552330
 38.9288770062185421  0.2984040747629516  9.3050775542400839
 65.5151320480979820 12.1944094899029487  8.0938330933307761
 44.4441847806460046  0.7611084992964916  9.1696160436347682
 62.6366574916846162 13.5245561679480808  8.3472288723039370
 47.0512852311253695  2.5761794346071376  9.0523111919876218
 60.0472040307914057 11.6906928989784973  8.4171993556821505
 49.6571374713864557  4.3930643844353270  8.9253071168639799
 52.2599660357685636  6.2118843931808705  8.7920786587738302
 57.4556226617559460  9.8596016393629942  8.5267181347472736
 63.2199293102756670  7.1948663522461702  7.9605143622578840
 34.8595499678466751 14.3219228582988443  9.5410692554502212
 60.6318005288375801  5.3617349099596359  8.1044949089658491
 58.0411571755230469  3.5324249720354195  8.2900475160495652
 56.8774215408640202 16.2022107339120502  8.8552847375524539
 54.2807154207999574 14.3717123763850569  8.9435188703064874
 51.6781675113574437 12.5468079966611441  9.0328977376530126
 49.0718139252948546 10.7259937396359994  9.1133451475776273
 46.4629494327504204  8.9084236777152306  9.1813975132436934
 43.8529680081613265  7.0924463466464092  9.2358351290591809
 69.2820118576488682  1.3814282394762825  7.4693330429042888
 41.2435359226172054  5.2780873641376278  9.2756007172224901
 63.8076196203028942  0.8702096160383834  7.7901480532361953
 66.3962818132436183  2.7056156572088348  7.6152568143707891
 38.6332264053172736  3.4644033583985165  9.2994006494520107
 68.9852613147068752  4.5443959703456827  7.5208612654566549
 36.0225666265270092  1.6502169806984144  9.3067721646887929
 58.3340436123324864  0.3703342344301814  8.2562872504397653
 60.9248919823497843  2.1992817766376631  8.0275302215797879
 62.3482423023401253 16.6955577587445099  8.5632872421381929
 63.5133974868861131  4.0323537196031856  7.8375317635706541
 59.7579987195836324 14.8605063579067735  8.6069648461267736
 66.1010581286463150  5.8677457646069699  7.7093858836938871
 55.4466425444118514  1.7066743679312248  8.4982001116266268
 57.1654093671257115 13.0285018168413185  8.6910586691222225
 54.5689324631095047 11.2005865262987214  8.7943804877881853
  7.2254406969013205 45.4251317686492371  9.6948095036224053
 37.4773112101549017 16.1416499099877235  9.5952359723337430
 42.7155370777361298 19.7843113832292978  9.5996063874618756
 18.0476272153278146 16.0532508545773567  8.8708222460490784
 15.4378558902948679 14.2225669669049761  8.6271657296048279
 12.8348571051173739 12.3922033791427104  8.3608637654885172
 10.2386742127746615 10.5611968586394465  8.0874694983849498
  7.6445283626373692  8.7301455360084930  7.8310952086736112
  5.0525461273878314  6.8970286869316277  7.6175312222756064
  2.4611674548211497  5.0613611424869545  7.4740613272554537
 -0.1299052211327340  3.2218318098156820  7.4225698842029493
 52.3029702768518803 36.6780766814172594  9.2412131894524059
 20.6627969665990499 17.8830024268196084  9.0846010255230834
 49.7071653980334744 34.8385177419245409  9.2881410119866796
 44.5076305727530581 31.1665266713125959  9.4758750542879611
 41.8986668900108938 29.3353801494463440  9.5691256805730198
 39.2831092289043013 27.5072455765374961  9.6360323009864626
 36.6621318289007121 25.6810531481636843  9.6670001598516802
 34.0392736485723333 23.8547517652739280  9.6574494550213590
 31.4169372848607935 22.0280419570833921  9.6059615619270211
 28.7943237162804166 20.1996211710931881  9.5128256936983551
 26.1730367930995662 18.3714642110837758  9.3807314400800461
 23.5538330627664863 16.5441743495098024  9.2121231465963511
 47.1095078132236154 33.0010731561006239  9.3737911014689583
 23.2821400076710212 19.7128826792239948  9.2654511525273549
 25.9036972566225501 21.5432921019403985  9.4123006334655273
 28.5269451539528234 23.3743452842026223  9.5237201357201293
 30.8836730350590223 28.3820652589958833  9.5514477309955161
 28.2610026838006050 26.5488911944309400  9.5055657812586052
 25.6375353434485298 24.7151540016403963  9.4211626808514666
 23.0143676724399491 22.8820446662665553  9.3026215739637319
 20.3920939940409589 21.0487500728894048  9.1522484432382925
 17.7725322527695724 19.2162257682203403  8.9698368190307818
 15.1580691238362384 17.3833189742274037  8.7565867794938725
 12.5492958448656129 15.5504868583494282  8.5163398380427839
  9.9474511338794986 13.7187867583173357  8.2587172086319924
  7.3505849666769860 11.8873519358240820  8.0046270777400217
  4.7562139386823352 10.0554566928798561  7.7797172396968115
  2.1638372663391419  8.2218647167049621  7.6091832128630381
 -0.4275143351548734  6.3840150737466965  7.5183435306115376
 49.4266595767186203 38.0285794347958301  9.1909455977858094
 46.8298860455387285 36.1905648559703295  9.2669235898315723
 44.2303632305748309 34.3543509936745508  9.3703054122967231
 41.6250401337476816 32.5216629009103571  9.4752595458055850
 39.0129427794660657 30.6916285739432091  9.5605844982633492
 36.3946192603147267 28.8635018874396252  9.6132353192085986
 33.7726287453682588 27.0349973849951475  9.6259486657736648
 31.1502337904962658 25.2053999715823878  9.5959550207512621
 20.9376858290242609 14.7178738909341806  9.0084583136123655
 18.3271898620751408 12.8910076710114883  8.7727354578973156
 15.7230354876303817 11.0628426729228160  8.5111183903767103
 13.1252476110121634  9.2338572099515606  8.2355460121974300
 50.2678344476529091 28.4578266560388116  9.3888521021710893
 47.6665625013414811 26.6227585576377557  9.4828289097336445
 45.0581161569248110 24.7921423456832315  9.5696221114070017
 42.4427879829679995 22.9658303080980915  9.6316428768673426
 39.8222864535631231 21.1424317654890928  9.6612353885236502
 37.2008406590030916 19.3193391449392564  9.6550989419931987
 34.5813960681144152 17.4969207869664558  9.6113656269308070
 31.9618153208800138 15.6750690314379977  9.5291177898460866
 29.3431471679309404 13.8533337653660329  9.4098623242028570
 26.7270926305253553 12.0320588300815157  9.2560261548618836
 24.1141202188647767 10.2119856056367251  9.0701874468519641
 21.5058909272300838  8.3917188326200503  8.8567565340516694
 18.9027703978569583  6.5692052703992809  8.6229857139089496
 16.3053779439563016  4.7441991695142480  8.3796211793275539
 13.7128191947949354  2.9164847686154576  8.1403330596031047
 11.1216390886323531  1.0861511356678160  7.9235010468614728
 55.7417259815490880 28.9429850949956844  9.2551514687844598
 53.1465685402872694 27.1050388804873705  9.3054332183128530
 50.5482173441715048 25.2687852805086202  9.3886848437378312
 47.9441121863797761 23.4361799038593084  9.4789565512262328
 45.3324110654445036 21.6081456895309465  9.5530398991699190
 52.8649406904588801 30.2953781509200191  9.3147394089548143
 40.0959969122660738 17.9627233295101050  9.6143838201076246
 -16.5421314857279995 32.1344562276750452  9.2810587941598861
  8.2373245364079786  2.4121523389551243  7.6945715970085118
 10.5317168220527702  7.4036280927094511  7.9646830975969873
  7.9404687005884291  5.5717815004833851  7.7226829649947515
  5.3505939667158344  3.7370098733657398  7.5362707877303317
  2.7593555993824910  1.8993997953236839  7.4314067232988821
 52.5841045677105328 33.4867861997423191  9.2932148566828516
 49.9875446570899769 31.6481746082720150  9.3545055853311414
 47.3882715242337014 29.8115367105171103  9.4467109667810210
 44.7833743191864002 27.9785614613580442  9.5433792202917136
 42.1710162504125847 26.1495134100647491  9.6218764206818790
 39.5525428610616743 24.3240121650788161  9.6695126338721042
 36.9298732711497237 22.4996624159335745  9.6801895946620338
 34.3080135661151502 20.6750328061824895  9.6517457567761031
 31.6869305798571439 18.8507449491373507  9.5828612200132799
 29.0662515049461412 17.0255061985709872  9.4738357386953229
 26.4471144338477195 15.2007425555713844  9.3270926420777034
 23.8304452639624067 13.3770437887545057  9.1444828627958454
 21.2186468756197328 11.5541126769260849  8.9286010886104723
 18.6128350755899383  9.7296141163801497  8.6847415532189487
 16.0123840046972106  7.9036363505689655  8.4227940045459189
 13.4179799985064978  6.0755560555169152  8.1571128527542403
 10.8269510286628350  4.2453418566747994  7.9063900041561608
  5.6471997280559796  0.5761762632065426  7.5470076042507728
  9.8493450357620258 47.2511615830527631  9.6173208250906690
 54.8599405080869431  8.0339362632563311  8.6563543210557654
 -6.9663461914258811 49.0353873607470589  9.5087501661566076
 -8.0983764550591157 61.7231925001191399  9.0635114854359866
 -2.0098356482204633 55.8503804804617658  9.4694006124691068
 11.9258973072917094 55.4243802305756859  9.3682713346263142
 -10.7074770883398642 59.9065675107988156  8.9670508080904465
  6.4080611338409073 54.9586854172841370  9.5339724708653169
  0.6060835419821020 57.6661156101896353  9.4559375658995055
 12.2017635025542823 52.2517043767860514  9.4458253300591153
 -13.3143287262619339 58.0866982956926705  8.8604282921430748
  3.7877710344864597 53.1387838514038933  9.6109145530907920
 14.8213685011542289 54.0742493549686714  9.2742214288259763
  3.2214773044622937 59.4813132316644300  9.4166512390647679
 -15.9177527064157012 56.2624202004021541  8.7473541483859005
  1.1669655720643834 51.3189247627581864  9.6517696775609352
 17.4361310527892641 55.8960867911172699  9.0649800881389364
 -18.5163200196979822 54.4329470273806919  8.6391428114163986
  5.8353184476279001 61.2969482600438766  9.3548759821749154
 20.0443727698249177 57.7201950777141164  8.8232562769899960
 -1.4534940106342220 49.4981376328301295  9.6568423341215119
 -21.1107759511776862 52.5986825879865876  8.5540726368088880
  9.0269900119544939 56.7770509605860241  9.4230124028047335
 22.6449070364337750 59.5460793367595471  8.5588044217624333
  6.9565270230406613 48.6055318811828627  9.6717551118121747
 -5.4902734868636527 63.5381311464808363  9.1489399578106578
 -16.2047036236361706 59.4274329463860767  8.5930773137281964
 -19.9802892638636393 39.8686502422907054  9.1594262415296210
 -8.7506234262829068 37.6482044444454544  9.4549402563064167
 -18.8027638552709924 57.5999056305362629  8.4613860651372814
 -12.4667241767017867 48.5652784645541118  9.2600323486384628
 -6.1442653927967843 39.4804052155002836  9.5598416952912491
 19.4617931436665614 64.0492709214446450  8.7114718352927962
 -21.3964075809362662 55.7671970670201844  8.3537649466369892
 -3.5308100081534417 41.3082375452718082  9.6507474026600608
 -9.8571732720003276 50.3917073266469373  9.3476024110050915
 16.8598401935307081 62.2289478775040692  8.9179374379728031
 -23.9885226680396855 53.9316532554877597  8.2903110039308459
 -0.9110775406598727 43.1330314666830503  9.7124203006827603
 14.2536092078449688 60.4106924590231387  9.1099237773694846
 -7.2430713174194379 52.2139431738598532  9.4142736574378691
 -26.5796070351538631 52.0934418865447384  8.2887930350208521
  1.7112431119669274 44.9573001916268424  9.7381817306897265
 11.6428556502278742 58.5943133034905230  9.2802831574328390
  4.3333130465660314 46.7817894363670845  9.7252557234661214
 -4.6261040795771260 54.0328585381935582  9.4553183353292631
 -15.0689191324036198 46.7326233182302602  9.1651221485099317
  8.4471085289730645 63.1121595520525389  9.2719933783025326
 -23.7032667575126297 50.7613696436026771  8.5148159934350858
 -3.8016122824415746 44.4932991985052908  9.6599675374262475
 22.3527485029474349 62.7092151035850023  8.5024493292895542
 -7.5236246459870451 55.3879084828052015  9.2946265911832064
 -15.6331933388434390 53.0921533323867934  8.9077087066305349
 -1.1809277855904867 46.3169362152200250  9.7042497427291217
 19.7552409537100466 60.8852792639479006  8.7484083214235877
 -18.2317306048815482 51.2595921686635805  8.8130836954183636
  1.4405186910630710 48.1397867400409041  9.7129460761250321
 -4.9090613853607792 57.2048605058701938  9.3378012719174244
 17.1516500432465087 59.0631808501724365  8.9809163190547849
  4.0625688770430024 49.9619789842591899  9.6839936851294439
 -20.8267269576413270 49.4238056139858202  8.7446030597275843
 -2.2956768892447643 59.0201696740234993  9.3596715084471835
  6.6850416821160543 51.7839498089928654  9.6163570595525911
 -23.4196539566814828 47.5855168599039402  8.7244420387166901
 14.5418869727175490 57.2435663497584741  9.1900280593892756
  0.3177407858042433 60.8342780067097877  9.3605132571891332
  9.3061717174082101 53.6047645621192217  9.5108312305303144
  2.9300882632298393 62.6490412335354918  9.3419016713945044
 -13.0287518508444844 54.9184016970900188  9.0064435938572593
 -4.0740615550950725 47.6766022345891258  9.6277966561618875
 -10.1369362876971909 53.5684168293875089  9.2299901128260018
 -17.1039246391773574 38.5176163725674101  9.2427015584529535
 25.2394065781562951 61.3736883768675057  8.2856246800386479
 -20.5432447447418767 46.2430542378551479  8.9109573040253096
 -6.6914793323259314 45.8527900446821093  9.5668640942016854
 27.8310277292906214 63.2032796160015877  8.0221903590728303
  0.0244591389187342 64.0008174716337663  9.2972803772538555
 -9.3033576541944818 44.0251929631838053  9.4800045306790697
 -16.8230232682831513 35.3265260982144369  9.2767783914799615
 -17.9487253308589771 48.0804484728897776  8.9645008224158129
 -2.5864027561011143 62.1868656596446669  9.2710162369520468
 -14.2274178638752495 37.1658046987821677  9.3099068272253778
 -11.9081637382179562 42.1927430182859950  9.3810151311223891
 -5.1974203003866402 60.3727027796632356  9.2279559593759632
 -15.3507744738337344 49.9151485197412015  9.0514004099035628
 -11.6296577675217083 39.0027273447592009  9.3870374626719659
 -7.8087260394940845 58.5572363858202820  9.1693682375155507
 -14.5072444494320845 40.3563632528790563  9.2935299661822128
 -12.7464570384444951 51.7446065871990655  9.1460280487214547
 -9.0272438836758599 40.8374002467295441  9.4869254581003482
 -10.4203113860566408 56.7398114184597446  9.0954989117406999
 -6.4176498177607035 42.6671904187632904  9.5842080185571366
 -11.3504104514345698 35.8118366057368718  9.3586830251829607
  9.5798813271557783 50.4288173234841537  9.5782003541800229
 33.3037333213589122 63.7087806193715451  7.6086797855468848
 -16.4943084364600274 62.5893284334204907  8.4694830187873560
 25.5304165640185445 58.2116370374462022  8.3696433378311799
 -10.9986528262579846 63.0705946042837766  8.8683707062450292
 30.7140823422295242 61.8741805736668624  7.8234917263623158
 -14.7878143542829203 43.5452768130985461  9.2456285871166148
 -30.0379723135626051 59.7418650352702159  7.6262834999199818
  6.1248857837717150 58.1290901676674991  9.4384129246495849
 -4.3480589977204849 50.8564930506422357  9.5570249114520145
 13.9599308743649022 63.5767697168737485  9.0586729832008643
 -21.6843282823761747 58.9307649087814056  8.1657243121975682
  8.7401591455427834 59.9457060141354816  9.3349157480942804
 15.0945810768270530 50.9025197534537313  9.3428062296138830
 -19.0909316891419110 60.7624075619765165  8.3044500295680468
 20.3256334565922003 54.5541752305525947  8.9144203681031868
 -21.9739482709202854 62.0917122050233559  8.0147689523015533
 -9.5800798809507430 47.2104231177378182  9.4331598885202617
 -1.7291897579284425 52.6763337647260528  9.5750784870935952
 -26.8660601349469594 55.2587746683443939  8.0425844997568294
 -27.4469852956804559 61.5806872882195364  7.6466838841124654
 -20.2612600853185931 43.0568549007635042  9.0491731925703114
 -24.5648605919842566 60.2573934837532690  7.8840491880949148
 -17.3848320097912215 41.7074541933983909  9.1789447734477978
 -19.3811667093058126 63.9224766455692119  8.1916886777048195
 17.7126224567700952 52.7275423711771865  9.1466509624893906
 11.3523530349762005 61.7613254524058704  9.2068874610649569
 -24.8560385444903353 63.4173785048740655  7.7517000414668233
 -13.9466982488623419 33.9740173795683447  9.2958694411439531
  0.8887857296668514 54.4946295725576633  9.5613684417137339
 12.4727103017245824 49.0769419584493178  9.4998247310315573
 -13.6031571229242090 61.2509492500149264  8.7323491219426685
  3.5073000168635633 56.3114594073504904  9.5149485464199230
 -17.6659447592465924 44.8959353011257392  9.0863635351634322
 -27.1550590773356717 58.4205313601986944  7.8197087440157125
 -12.1875383152483714 45.3805857073167331  9.3390124938395029
 -24.2755501466527228 57.0964524408123637  8.0719155389212442
 -30.3323653577310317 62.9027005247898288  7.4852743157726245
 28.1238571408987106 60.0422042180200322  8.0858475554602194
 22.9321187348326809 56.3825386490466087  8.6516808123555577
 27.9479407345885527 18.5090328220333156 11.0157804226712575
  5.0698892832962699 59.6751202979781681 10.9631177913718343
 33.2273555559239924 22.1817156084941445 11.1995588291678505
 -16.3041391546054868 51.3596752706305963  7.3658107249082461
 30.6760354452262121 20.3755946185624808  8.0080697151182285
 30.5867648257682312 20.3459852335064539 11.1276340726100180
 33.2809346782768642 22.1914435000099530  8.0787444310786718
 -16.5045633810366787 51.4868050083767415 10.4817738662625146
 11.4175405576330284 16.9550494073015550 10.1113996271890052
 14.1711877706377276 18.9554416657199667  7.2168252562718322
 35.8861896620403300 24.0064782272069017  8.1088203240428172
 27.4215000386367791 24.8858771085835180 11.0437505744342683
 11.5625906887351544 17.1392200244365718  6.9932001970173889
  7.7018886790763785 61.4821256497816080 10.8803566909614489
 51.5434448791050031 35.0289472996350923 10.8343421808656331
 51.5264058111167813 34.9749386189899099  7.7113236349404675
  6.3436505215878825 13.4954310437010374  6.5139208630762173
  6.2348530097351720 13.2680171706309533  9.6323915701666021
 -21.5272071412103543 47.6741073910406428  7.2324142573492596
 48.9636801563979418 33.1980118423641528 10.8989519308941674
 48.9126257007507803 33.1281177979370582  7.7766331676124132
 -21.6608096629349589 47.8299218064503151 10.3511238423590495
 46.3712967286222906 31.3647510320902327 10.9924196412853679
 35.8671266741580723 24.0184747387478694 11.2291512226976042
 46.3052937955434984 31.2881118314254181  7.8713398271088479
  8.9555005671878138 15.3209210383492245  6.7524405830908636
  8.8194731654731573 15.1076196618856677  9.8706245474285321
 43.7627667284892894 29.5285133591308870 11.0898831322783931
 43.7019362254568193 29.4582527232164537  7.9699736295015979
 -18.9123419312511061 49.5198242391977104  7.2811076204462815
 41.1396753106488262 27.6910605742306686 11.1695611883351074
 41.0982821177260504 27.6365967777767558  8.0497746297576800
 -19.0894336799141229 49.6574816183958418 10.3983500700142955
 38.5061850694759897 25.8542763488009548 11.2181363670667231
 38.4928731552762926 25.8206394476065526  8.0985401454939741
  7.6449649834906364 61.4156698677667023  7.7587386743144116
 28.0707850270457016 18.5575114730305160  7.8967416112087623
 16.7830620292829877 20.7706940173688430  7.4136828096823457
 25.3120863624808337 16.6734940629795041 10.8660918145444825
  4.5231337612041953  2.0705352995195336  9.0630199769281656
  4.6470050774917206  2.0716216601936535  5.9344227193903656
 -5.9055777310271615 58.6613455834263107  7.6848220020175484
 54.4181970654205642 33.6536826928735593 10.8441051766664494
 54.4048384708329422 33.6459873069807429  7.7205172955334929
 21.9022662548104030 24.3686066806229960 10.8378351748008654
  2.4525044872332038 57.7700852338744113  7.9016484506373397
 24.6342069605896477 26.2182936984822312  7.8229047896688222
 -6.0393297322709687 58.7571711046151037 10.8033813972010595
 51.8420433096380222 31.8240246767293762 10.8809336297243284
 51.7891791807842239 31.7970990163241929  7.7582421405600099
 22.0158405778030257 24.4010446567004564  7.7169318511510303
 49.2574406232640669 29.9929178593050949 10.9568767703737624
 -3.3096625030242706 60.4851888216306079  7.7246549206404307
 24.5321845418463163 26.2207974574488887 10.9438771499364851
 46.6575807141510595 28.1581045802818899 11.0514943704964708
 46.5732225742739203 28.1162963568791113  7.9308968899143508
 -3.4119036968149774 60.5628998041525506 10.8455966199461820
 44.0414137188678865 26.3216944360330949 11.1389969120710841
 43.9702423163267326 26.2908072981082803  8.0188583127438360
 27.2506827610343443 28.0365047448313263  7.8967700373543463
 41.4129221575340978 24.4856942284508143 11.2018774768882512
 41.3657388966483808 24.4727280495036581  8.0816472192659141
 -0.7156744479998927 62.3094423977795984  7.7471958248774344
 49.1779472042627432 29.9524484144731069  7.8352344576263153
 -13.7023001063796759 53.1910513797799425  7.4625705986008839
  7.2696844384878974  3.9294304739357009  6.0835685221702844
  7.0797094140483638  3.8842247102847831  9.2081483738154351
 14.0285879540550020 18.8082066966232304 10.3351054957718738
 25.4659983781728414 16.7395044038346832  7.7477821396990496
 -13.9035464839477996 53.3122972331473761 10.5774910654010998
  5.0500881073522885 59.5918011115246884  7.8418164731456228
 22.6790466970396452 14.8393706975030550 10.6804006307341570
 22.8631198379220031 14.9221989055223929  7.5628613038171038
  1.7118370176424043  3.4168506315214939  5.8709572066250315
 20.0517797395090973 13.0064523071486509 10.4613713142249445
 20.2641597274113749 13.1043496410699962  7.3442432619655129
 16.6484148997372152 20.6621125216507160 10.5333979741022077
 -11.1025571594307735 55.0162997266388629  7.5526364071621312
  2.4367771578146016 57.8646871689788611 11.0221735975432988
 17.4330830391563190 11.1745178144316739 10.2129224012508910
 -11.2886146090748412 55.1330405745613348 10.6679127749791522
 14.8248240943157477  9.3455484314937944  9.9458892966183452
 15.0765914841725071  9.4560985498181829  6.8295653394654208
 19.3980312591753368 22.5848172909001477  7.5808219296575494
 12.2291525397921390  7.5208622774217009  9.6749528864377847
 19.2736950661494149 22.5153980487092618 10.7009982745882670
 12.4820238499723217  7.6219005006730578  6.5572301546182983
 -8.5042289913092102 56.8389137824170660  7.6278508509185414
  9.6473294618618510  5.7006240873055667  9.4207269180554931
  9.8804092879436283  5.7800974950229227  6.3001500114891691
 -8.6657195085797483 56.9477686666783782 10.7439082360516576
 17.6693693618442076 11.2827204739953348  7.0970715468641945
  1.6813077680353050  3.3721309849100614  9.0012864637704251
  9.5730919799889556  8.9692385617612125  6.3975221959115940
  4.3406966973833923  5.2763211880692120  5.9728596529173101
  6.5118402786381466 10.1320257973233243  9.4280111924985146
  6.6523328980620535 10.3169178533955286  6.3069899609443336
 -10.8281907968058473 51.8501100403360553  7.6834439767531064
  3.9461941109896852  8.3072578614969750  9.2258967398507625
 -21.2626326100683514 44.5034417239833999  7.3945720729118962
  4.0329148773987091  8.4749656560768578  6.1011544059465646
 -10.9983915885623436 51.9527473349124946 10.7991931869619684
  1.3913968333287829  6.4889304412410134  9.0917423546899858
  1.4061139101325870  6.6227771320937858  5.9639379078662236
 37.9572390260822061 32.1478235044869152  7.9491634167399852
 37.9665478760498516 32.2613680838081436 11.0684598298603660
 35.3333144808815831 30.4209678164881119 11.1230302664127816
 -1.1596261604546962  4.6722635887756594  9.0455879680470375
 -8.2273297484817594 53.6698999363643949  7.7548908694861183
 51.2438292929444685 38.2330674615856836 10.7569457320384068
 51.2642761521336610 38.1528721983242676  7.6344063529525830
 -8.3757229094400589 53.7753275056248086 10.8710743286163964
 48.6680003712577403 36.4020292422573490 10.8082948289169689
 40.5603210776473873 33.9697668186761064  7.8618813157110532
 48.6478578723536756 36.3041821182667022  7.6864276135495215
 40.5893895730001120 34.1012158360475794 10.9808405683899188
 46.3458439306449534  0.9220573312928043 10.6528988146261803
 46.0825736430160546 34.5701156538250061 10.8967538824784729
 46.0375898165946253 34.4617416190409287  7.7761196446839351
 -1.2235144917848797  4.7601360935666595  5.9164845765939953
 -5.6255484588587805 55.4879565355639102  7.8037839842226138
  9.2641186841166565 12.1494549724569243  6.5545522724480421
 -13.6113345226631690 50.1253790401320956 10.7108231260451010
 27.5263817930089516 24.8775669389356580  7.9233280612658117
 -18.7877611482140523 46.4631665187409411 10.5454824419744604
 -18.6456629250550918 46.3515028597469509  7.4263903298496929
 24.7872239277842041 23.0389058968958480 10.9384444284206062
 24.9131594999868078 23.0595998118924470  7.8181925366815488
 30.1368135128207975 26.6957089415079452  7.9909141632975400
 22.1555553904372893 21.1919542654903523 10.7988929079859304
 22.2991677667757884 21.2425558298605139  7.6798341159329313
 30.0581106365748454 26.7325360455332444 11.1120177359706496
 -16.0350488446815831 48.1927770465078353  7.5010659931621051
 19.5262070287408491 19.3438448663015556 10.6270615652021654
  9.0894363850396651 11.9629758103835400  9.6726885145454098
 19.6863451589129355 19.4264682844046597  7.5085643449384305
 16.9022762773330477 17.4956704524646902 10.4233811688254612
 17.0771748450717347 17.6110112034467683  7.3052524246510373
 32.7451068480042835 28.5135168426469150  8.0184842138205727
 14.2857303495810672 15.6473706168540065 10.1902584633528548
 32.6958407079048357 28.5781120596650737 11.1385600506008977
 -21.3582630384451377 44.6344005413114147 10.5146262105361945
 14.4716912403767335 15.7941469834474546  7.0729999175016305
 -13.4306315307791042 50.0261869713941749  7.5943405682698284
 11.6798264677762731 13.8021650207429047  9.9352428264182091
 11.8687884348108827 13.9748470770665811  6.8174827166026004
 35.3521048609933501 30.3305582360607673  8.0041954158310187
 -16.2080450228013433 48.2938982058236235 10.6183963511614810
 40.7920479014164883  0.4625796068851010 10.8360279324084132
 43.4815453750869594 32.7341172655832082 11.0006683945962802
 -5.7473970505096137 55.5925866008457774 10.9209889751759750
 10.3318656571802965 63.2857525238506753 10.7759287023290042
 -1.5248951218495024  7.9621755979402611  6.0576176889127122
 19.7851006311395672 16.1734631358713230 10.5459991946547351
 19.9747856937689150 16.2667207446559274  7.4282916785853894
  2.1442690929478800 61.0213546927829213 10.9329029162549602
 17.1627871756094059 14.3323196574053409 10.3140583474408238
 17.3724709641297324 14.4493172261545286  7.1973473381224808
 -1.4513509245223735  7.7933945658142481  9.1825881880852371
 14.5500661476248201 12.4921809164332469 10.0560568693471009
 14.7738953429569069 12.6285355141023778  6.9398299670587580
 10.2367231913597116 63.2406346276137157  7.6538311529103371
  2.1675190059295262 60.9498674930081563  7.8108917972426157
  4.7613660628694543 62.7749165617049840  7.7712524390033515
 12.1768809168524115 10.8026550719815582  6.6664632377970658
  4.7747156803192592 62.8251995133305456 10.8941265201794728
  1.1027307719667043  9.8177845674484665  6.1414539063051112
  9.3653162592679600  8.8280570646843675  9.5169826558897839
  1.1021431214619664  9.6126961054374771  9.2651670765566863
  6.7928985393334029  7.0050902130398036  9.2805106285229080
  3.7267234709612089 11.6616412169232770  6.3015132869644113
  6.9618157574592248  7.1277670392930643  6.1571423578405700
 40.7407900909627756  0.4362464469055733  7.7128929722895467
  4.2328670631233924  5.1862643687087795  9.1003251718256308
  3.6628933945488313 11.4367731209778167  9.4229511931221133
 11.9510952721742676 10.6572957231690566  9.7840450259338549
 43.4327540719646379 32.6272111279437809  7.8806441493259847
 22.5807613805354883 18.0825819643763346  7.6280620961943555
 48.3714898768221389 39.6045540320699558 10.6869792372745689
 43.1633576693516403 35.7978211759503324  7.7542075736588210
 40.8651850755982764 30.8967877648529701 11.0953583272339422
 40.8300261734476351 30.8026204742077283  7.9756748810974818
 43.1983888805386158 35.9388859138489209 10.8734421894077418
 38.2366344417859381 29.0579490716253162 11.1636061892435592
 38.2258726391849422 28.9839246417822771  8.0443862425576373
 -3.0256642495748616 57.3070519790701667  7.8285328668597058
 46.2141023512310696  0.9034662021746195  7.5311241433322005
 35.6000185358936747 27.2198960598379855 11.1958351672469707
 35.6201331837469084 27.1685084421280969  8.0764777198001738
 45.7705116040220545 37.6357154347359355  7.6469761208650961
 22.4134284398570429 18.0144533053621423 10.7458969512497937
 -3.1180987977360028 57.4059864417102830 10.9484039639076514
 33.0138427536072427 25.3531479517539964  8.0668353494176106
 45.7918687260273458 37.7735829486557577 10.7672734711509861
 30.3204517128865625 23.5393743338720753 11.1361192375472466
 30.4068547124505244 23.5364203274060948  8.0155282162520756
 -0.4283154443349140 59.1270355761023012  7.8306390508151855
 27.6813643340491318 21.6972372786118619 11.0430939345429469
 48.3841789470561636 39.4795373688265272  7.5654700942925519
 27.7982760747442228 21.7178600057003948  7.9234603833810553
 -0.4875720591324982 59.2152286693262013 10.9516837190372218
 25.0457049337407724 19.8557096812710512 10.9122606106818605
 25.1890896129614710 19.8995078225666084  7.7933417866242776
 32.9607970486175290 25.3799205207965315 11.1877230197272564
 38.7761981023702234 22.6522053085887372 11.2308983440207708
 -19.1806438358483220 52.6863051553773403  7.1100531535765290
 -0.7822029140805311 62.3658213319381218 10.8694735513777641
 -24.9543224920603244 55.3297985261040566  6.5728492278419308
 42.5341851993958500 11.7188475073181841 10.9586724246837299
 42.4606136496312914 11.8140605282526163  7.8388744904909284
 -25.1304517643990692 55.5309238841893418  9.6910471536845151
 39.9039880425341522  9.9064192515027738 10.9598024190339380
 39.8655062446016828  9.9932379532396229  7.8379715964835786
 37.2719082192691289  8.0980421830003735 10.9370261420538437
 37.2715718372196889  8.1717977942687980  7.8147484597327308
 -22.3383996577916939 57.1815051146569360  6.6363586465034121
 34.6397525155307875  6.2910650497932874 10.8917179132306785
 34.6781017120912765  6.3467410911725235  7.7693749092905069
 -22.5660220578519386 57.3482610181238854  9.7530412991027280
 32.0078686632398686  4.4869984603478512 10.8267452295228317
 45.0589731358860988 13.6338008905248582  7.8166365561261211
 32.0855780259737102  4.5200107336894089  7.7044005898102874
 29.4945122580921968  2.6916274908248941  7.6220399093514111
 -19.7317698535416390 59.0314329880207609  6.7506584593320769
 58.4978825574057737 19.4733838905265095 10.4683160987828590
 58.3376137248513089 19.6135030028528909  7.3513131277442918
 -19.9889054750778001 59.1644284762272932  9.8661910930941268
 55.9142309672494235 17.6459249308333774 10.5361354577715272
 55.7312888122293728 17.7711750765624323  7.4192246951734679
 53.3150497938180550 15.8179677004502981 10.6214798592682875
 53.1321452419851852 15.9362564615333646  7.5047307116336066
 -17.1330069173144288 60.8759580548105887  6.8964178732203489
 50.7013600461426606 13.9947859940833705 10.7031557563729436
 50.5347116162992549 14.1086504775458277  7.5866433739423647
 -17.3969157385785316 60.9751441220506791 10.0114331458063450
 29.3781886312696123  2.6845840968929195 10.7439437943732319
 45.1638353472685168 13.5339693562287842 10.9348834826366055
 47.6584946726591596 15.4532839748704074  7.7714878098745697
 47.7911039661692101 15.3545934390409595 10.8893691616535246
 39.5796788665772823 13.1664242342984874  7.9337803732709942
 -11.6640388217095410 61.3682198096788056  7.2963861719669065
 36.9802280797798275 11.2587625760011996 11.0209440682724349
 36.9828949611600208 11.3481628205768228  7.8995747042523430
 -11.8784000640367076 61.4468963303875810 10.4125477999035922
 34.3465535520564629  9.4451418484480243 10.9590748005958787
 34.3874822028067157  9.5274535395508035  7.8377147628417658
 31.7131526518717841  7.6350792078255774 10.8717346379309276
 31.7933224340541614  7.7045098030615193  7.7504031386427057
 -9.0724114907237734 63.1994114143075123  7.4154253748519912
 29.0816077317123280  5.8281951991983121 10.7612903566901785
 29.2016592945320355  5.8790427965806176  7.6406529724598311
 -9.2572345012339348 63.2493300448833651 10.5336947173364521
 26.4535879079253320  4.0252332018722061 10.6322647555703806
 26.6120712800537156  4.0523138782024377  7.5113466233212378
 23.8301656182773094  2.2237208195734817 10.4873995660539521
 24.0235779710581134  2.2223005897222876  7.3687169158228771
 26.9053545439936102  0.8638621302995644  7.5243357698036863
 58.1971107620782533 22.6704576452609174 10.6035678566719600
 58.0716576094913677 22.7864244281067485  7.4838274272619216
 26.7530395586838772  0.8844133611092563 10.6456355618021696
 55.6173841359101004 20.8419129088143826 10.6585618897434884
 55.4601560517915999 20.9411669332661461  7.5404529478977071
 53.0233527596280325 19.0111192923285870 10.7400791753510454
 52.8570990290159060 19.1035424573392412  7.6226690623745412
 -27.5765805619012276 53.4754215239056236  6.5771261843083684
 50.4128094318154041 17.1805831091025638 10.8223527421958590
 50.2576297626322628 17.2752689947901601  7.7051939295185035
 -27.6891891943030757 53.7089203317902815  9.6954458848606713
 48.0796142144194789 12.1765023680808451 10.7722773638905753
 47.9383161917341383 12.2837064758800310  7.6546658756697283
 45.4539258085253053 10.3645347490177908 10.8251418959521821
 45.3422084995518162 10.4604444665787515  7.7065328553858556
 48.3726223283207588  9.0140197693076995 10.6573799278775159
 -28.2812890168723570 59.9942923551229939  9.2546425444342653
 48.2232547505289375  9.1074254266175032  7.5390206571950458
 -25.5219106130233797 61.6964159510857328  6.1950571731449422
 45.7482225615108788  7.2080191495764643 10.7298512132712034
 45.6298589514000525  7.2797622206373864  7.6098647735030287
 -25.7250562798948756 61.8083815665629359  9.3175477279749828
 43.1220650848397682  5.4049045701833007 10.7900467100480295
 -22.9078730877319856 63.5531742316175894  6.3328360601755218
 43.0384670378805225  5.4516916791192322  7.6674354923108856
 -23.1591040147796008 63.6208969849725534  9.4525588725695169
 40.4933973329598089  3.6045552260182565 10.8353994870844588
 40.4474213530777433  3.6249481960690360  7.7117579494944835
 13.0826112632854361  1.2399560448896865  6.5232870540534273
 12.8072179296075817  1.2655656689611350  9.6406273828960405
 37.8641560486835900  1.8044610387616762 10.8641871644620558
 37.8561942510063503  1.7976371398005986  7.7406314011430171
 -31.0707062759583010 61.1703221467007197  5.9737168526514814
 -31.1254362193529239 61.3030879698149747  9.1010022301656033
 61.6770219989227684 14.9273862087726350 10.0619867887065517
 61.4889567306204015 15.1220021415145371  6.9459637731773682
 -28.4405599613341025 63.0333028881830302  5.9903744236726766
 59.0999935435922978 13.1078613251004334 10.1280329285174595
 -28.5740215090473377 63.1183471093830093  9.1173440422924887
 58.8828691584484361 13.2737439964259796  7.0126029698649939
  7.5717525991815977  0.7281616333654805  6.0970738529021080
 56.5090509628673914 11.2895674120272460 10.2272895789437115
 56.2856940193358142 11.4297855651788502  7.1122420167798737
  7.3702617259831014  0.7658512923061040  9.2212961564853586
 -28.1460291959576949 59.8365591379758186  6.1303865207775843
 39.6140309099288572 13.0754863000766797 11.0546259909572235
 50.8167438150913782 10.9360672578124305  7.4567883436894640
 -17.6936652348570931 64.1109543779012085  9.9078636804187212
 -14.5403581070885899 62.7166462307827430  7.0553547690579022
 42.8262677401548899  8.5557534109597917 10.8619084041605110
 42.7474477507995516  8.6363289398196308  7.7406343571323299
 -14.7918107672161128 62.7826194724995759 10.1715066154714098
 40.1970233491165274  6.7502911429599752 10.8803055644614961
 40.1551381519070034  6.8121717076894539  7.7572606090352627
 21.4355444348424236  0.3884929026455630  7.2154694951932168
 21.2104175760008076  0.4215557076369153 10.3323133542596057
 37.5666370338718778  4.9480198344487194 10.8794701497296877
 37.5632411016928742  4.9869131924791734  7.7563390482991519
 -27.8577668183173515 56.6507778530740467  6.3349209356285812
 34.9361211092220856  3.1463172241180355 10.8610462617494932
 -27.9854660748887056 56.8593653153913436  9.4556408620052519
 34.9709737365203637  3.1593631733552865  7.7376135731281810
 -25.2344093475843252 58.5083470228062126  6.3611426995481501
 61.3738301704200993 18.1085401580051517 10.2621483795920820
 61.2177072419442680 18.2913175141715456  7.1454522268893506
 -25.4289382089601155 58.6768503835551485  9.4820117427927926
 58.7992418564490578 16.2833553608196731 10.3074071807557583
 -22.6201104496132785 60.3627266640608795  6.4592563064150115
 58.6081314628081316 16.4441223864869350  7.1908001498976173
 -22.8642636336846969 60.4908111951233280  9.5773506837781763
 56.2116200913532396 14.4603751323428309 10.3873532816814951
 56.0068907095504258 14.6030914924791091  7.2716638239133555
 -20.0150470469365835 62.2150786948652055  6.6092903668119716
 -20.2855746754796762 62.3025612888140614  9.7257845483057661
 53.6081375323078859 12.6388419456971786 10.4809704470787413
 53.4105443738635870 12.7670045066292186  7.3654124240231278
 -17.4186087161698104 64.0614540933913901  6.7916702695890567
 50.9935700407240020 10.8241230322931763 10.5733938013569482
 38.7591938836065637 22.6586029313355475  8.1112600592382851
 42.1791082103048467 14.9839059794580365  7.9398722030346454
 -14.4943951884619526 59.6401673277904223 10.2847319351114095
 52.0526650102944615 28.6199428572933670  7.7742614493606945
 49.5491716325296210 26.7867183131745143 10.9804496955388196
 49.4449511013684671 26.7787665061513529  7.8594751473393902
 -16.5767249091692790 54.5259753243808234  7.2068355278487699
 46.9414251843882795 24.9513719798405127 11.0710925939890288
 46.8416953154863336 24.9474973535263551  7.9510653106062490
 -16.8017377861928594 54.6660177955012969 10.3215434798635410
 44.3187735441049497 23.1164006478554569 11.1454059444080293
 44.2384342558552532 23.1260113490722539  8.0254774882035704
 41.6866008797131329 21.2831932790854239 11.1911835228904621
 41.6329380463075793 21.3102292918535028  8.0718855728846499
 -13.9775376454991793 56.3591086064071618  7.3136419513705633
 39.0499990140716093 19.4527144015247622 11.2040247868468370
 52.1398892787849562 28.6187773147465876 10.8962185395523612
 39.0273401531777537 19.4960290759379831  8.0845467320877535
 36.4134625607688136 17.6220648039348973 11.1817762515349930
 36.4245171010024222 17.6813126021007463  8.0608431158032250
 33.7757228197331685 15.7943333171358873 11.1213129426594932
 33.8232155120296554 15.8665571624690358  8.0009683962966811
 -11.3812053065875300 58.1884804605207080  7.4156116771824010
 31.1378246592662542 13.9688650528551896 11.0241145632264423
 31.2229793338210939 14.0502005995670487  7.9044328727342830
 -11.5822120769481103 58.2975598719958086 10.5310451906310210
 28.5017508513814875 12.1458998494312755 10.8924484010235236
 28.6248029016736112 12.2316973349970244  7.7731370810613205
 25.8686502916488870 10.3261027381649519 10.7283379504230183
 26.0296431292782913 10.4111120927333829  7.6100377901518925
 -8.7858167319627221 60.0157413755833176  7.5069752448501994
 -14.1978627443047412 56.4844827413606509 10.4279522753452039
 -19.3896989435041966 52.8422487276379371 10.2255575695196530
 54.6662223553619810 30.4673997879624530  7.7207580746427436
 54.7184601461209112 30.4486559039967943 10.8437284008618082
 36.1375783054895692 20.8187161238561913 11.2233279377165402
 36.1533556738708413 20.8441808502048040  8.1028716685147462
 33.4987252042975143 18.9857045012371124 11.1762232449815375
 33.5501748885055591 19.0291253629779646  8.0559181879738180
  1.8768520640718718 64.1356019481307982  7.7523367092534814
 30.8596691939387817 17.1542602548441714 11.0888760409947036
 30.9475960653673638 17.2138329339567200  7.9696036450662318
  1.8471955647792766 64.1682090429974323 10.8757211546009511
 28.2216694529352061 15.3237214327403795 10.9636434923836052
 28.3453316036335075 15.3965183331566173  7.8445535850682608
 25.5857930513586069 13.4951464996438819 10.8018642508334555
 25.7451786233708475 13.5779155603680266  7.6838769922939099
 -24.4116126473284076 48.9916473631874112  7.0299723498851252
 22.9541268729567420 11.6696807987286597 10.6066487210311369
 23.1484067946549885 11.7589447425090299  7.4888223174086948
 -24.5288975705268477 49.1910974647957246 10.1487907180392405
 20.3293632247552836  9.8469244098421989 10.3811432497770184
 20.5560466350363313  9.9368733030668999  7.2641615487264044
 17.7126815430137405  8.0260280830685620 10.1332314360208837
 17.9659212748983101  8.1091049654516176  7.0172922104746087
 -21.7932824613927352 50.8412619733728164  7.0441831605380028
 15.1075386303191461  6.2075158247731084  9.8756947433183413
 15.3772876036793313  6.2746949698923506  6.7592482928970243
 -21.9635244893379316 51.0169443346251512 10.1617523205487803
 12.5155923525653172  4.3915418797905570  9.6236365344672503
 12.7850304641322889  4.4328922526126640  6.5057045497309804
  9.9361902579074659  2.5784382665692300  9.3975467098760408
 10.1837670680092156  2.5840113292358207  6.2768364796683871
 27.1645689483767647 28.0734755893253976 11.0175489210314268
 23.2388662328689044  8.5108728080476794 10.5364756428822623
 23.4371625621473463  8.5888762038405737  7.4181521634665417
 -8.9598218117132955 60.1044256897090818 10.6238716275056060
 20.6158258430510948  6.6979587865092318 10.3212275657216512
 28.7892047886157130  8.9809466161300193 10.8175076353244588
 28.9107065405695280  9.0599903604974159  7.6977689445031041
 -22.0631520615629491 54.0092606496134593  6.8392185260652560
 26.1576025757308095  7.1699702423378460 10.6642932718559234
 26.3184594881819685  7.2360520512821420  7.5450077995353002
 -22.2656242887889988 54.1907755432179101  9.9556429435619922
 23.5313720110381190  5.3632559963471840 10.4903844024203412
 23.7295565227051632  5.4091078291069472  7.3719049685988534
 20.9108147127993895  3.5579298992816044 10.3012467157436411
 21.1432955477344677  3.5760488803679751  7.1843543222664410
 -19.4536214126804801 55.8555960567584293  6.9257739664473679
 18.2975137892192201  1.7528432709555792 10.1045803596528270
 18.5575901433725541  1.7386723778811131  6.9878402606073156
 -19.6900920498087153 56.0116965433758338 10.0407907530921516
 57.8951138222537622 25.8702368596309320 10.7103518291133799
 57.8068615571589959 25.9614531085170874  7.5889880314400244
 55.3184595333271361 24.0412958075226832 10.7514864468502189
 55.1926525195853799 24.1138801633323325  7.6309766035794739
 -16.8525331457724477 57.6973524050683650  7.0423129864825871
 52.7303677196986769 22.2110889525614255 10.8270566348121573
 52.5855285172776803 22.2726920480266486  7.7080102231612457
 -17.0996617393243113 57.8283996370974265 10.1565861009091929
 50.1253359650374364 20.3776945842080224 10.9127689836516790
 49.9836580783530025 20.4404978892156350  7.7945210118112600
 47.5060495958982045 18.5464013411544606 10.9859300276799470
 47.3829154654680167 18.6177669984711258  7.8680798250678627
 -14.2564726916264242 59.5343313384973030  7.1699387139034485
 44.8786281162334575 16.7182960919069714 11.0361423997009602
 44.7813560165749820 16.7999347051638850  7.9174837597515157
 31.5056460055682557 10.8813025648814907  7.8244890336530029
 42.2468551473761025 14.8955017915184253 11.0591714075887122
 31.4231850945458326 10.7952325469564538 10.9449055908548232
 34.1019453764775236 12.7003164663973003  7.9225552019961736
 20.8489299124696004  6.7609240190979332  7.2044372741052527
 18.0013623901944477  4.8865766683724088 10.0923683727631470
 18.2626392682430172  4.9265614350946860  6.9760793787199216
 -6.1908240301934168 61.8429813222325890  7.5852605470868548
 15.3984131655408945  3.0757882999782242  9.8607846215761814
 15.6760346301582079  3.0860481313853958  6.7441214270963128
 -6.3349605212847653 61.9078245952472699 10.7055922222257216
 55.0195237531579266 27.2437373558363660 10.8129152589687525
 54.9289442687438196 27.2893801193498824  7.6910231799805953
 52.4364911769696533 25.4144770663930260 10.8791477639640313
 52.3179945895236713 25.4454052197859184  7.7581454042452647
 -3.5989729758876954 63.6695447625332420  7.6511348216465569
 49.8380670613662957 23.5812373179063002 10.9663084390670189
 49.7132888304847356 23.6083397170525906  7.8464789784467879
 -3.7091011891411396 63.7087202835733422 10.7733087533180321
 47.2231498048772309 21.7468778898679673 11.0485705915269641
 47.1109160242833624 21.7820520465352558  7.9298558958752263
 44.5966016325035284 19.9140455993460428 11.1094830622304030
 44.5075527020315462 19.9626521262236842  7.9906646875155340
 32.3799142228105623  1.3315198109768971  7.7024735894413965
 41.9641200423245522 18.0848670436028662 11.1414129512919988
 41.9034354381138527 18.1475529123335875  8.0225664352834603
 32.3067600334107041  1.3445901585124935 10.8252785414840229
 39.3294841352419411 16.2583948847061848 11.1423261794938853
 39.3005064215832007 16.3328510690162503  8.0218873024823818
 36.6939967531879105 14.4336300309914449 11.1098153855520820
 36.7002817180213512 14.5171445363976996  7.9885037500066218
 -24.6804184415970376 52.1582455338188993  6.8037650833408776
 34.0577302610530310 12.6128466223453728 11.0430247195170050
 -24.8302453239691694 52.3685005881679118  9.9211402535813242
 -0.1969936884474983 56.0516920755349091 11.0556569016197770
  6.1943630215176828 46.9503688304821694 11.2569802107359269
 29.7990576993565632 29.9247441520237842 11.0554798795165592
  4.3571328308004018 35.5085246371035979 11.1253225709162376
  4.3411432668965499 35.6202526855360304  8.0078431672725614
 13.8374658078551107 55.6273923603755165 10.8365367009602096
  1.7257503076219669 33.6682673516293178 11.0545631287075459
  1.7356199045570606 33.8049482381219732  7.9368615581862851
 -0.8944273320114844 31.8301235740953317 10.9523652759966801
 -0.8689627069544261 31.9861304905477013  7.8344490407991110
 16.2847286061115177 57.3509215561970080  7.5197863081363350
 -3.4987721408491512 29.9938047725515808 10.8333124008660810
 -3.4743149943026710 30.1607728761579459  7.7153496944601168
 16.4690332503264010 57.4482399244680053 10.6371198734137256
 -6.0877460872810820 28.1588691579680557 10.7190830917254747
 -6.0833761937133035 28.3262918306060101  7.6002260044898158
 -8.6639154933653479 26.3282987534521062 10.6333316069714741
 -8.6982815983040798 26.4839612339610611  7.5130238556489912
 18.8757911262734410 59.1759172206012138  7.2919799390780664
 -11.2345915266856586 24.4990126307116789 10.5932011679501983
 -11.3155903142668635 24.6352858709130338  7.4726643286955721
 19.0923328239817742 59.2671317115420919 10.4082924843363784
 41.1695163965119733 58.1770338718049373  9.2759776668040264
 41.2285204949528321 57.9767322055214649  6.1526726565616299
 38.6141996603878823 56.3543607219957181  9.3808935734883612
 38.5993629015814861 56.1221518114068303  6.2589643234748458
 21.4624600275226065 61.0070396557549017  7.0434336006952947
 36.0498945911866429 54.5273690024285500  9.5539383964302989
 35.9756917602342980 54.2791683677117973  6.4350051420159202
 21.7063576215346288 61.0835610428020104 10.1601458439807075
 33.4722648633425237 52.6913694489032878  9.7713449375488626
 33.3594424092016695 52.4460976261698093  6.6547649100837010
 13.6882837172410863 55.5326887761106391  7.7188438801533570
 30.8814811054929308 50.8463153286429161 10.0063661355179043
  6.9479185823791161 37.4363702872911333  8.0391983853303213
  9.5558266614907854 39.2525778049459930  8.0292025286692983
  3.2754910305518954 48.2737584638349873  8.1479239616051462
 35.7684222154609017 57.6640776086942850  9.3346574888107892
 35.6740026292809134 57.4583793551734203  6.2125705627603010
  3.2821336670500738 48.3150096465011885 11.2675930052259972
 33.1990736304284155 55.8360016623736257  9.5539180890608222
 33.0553918649573859 55.6182370442145242  6.4355839563196602
 30.6156878705337725 53.9990987162376328  9.8069907510974552
 30.4436162951870379 53.7882942571497722  6.6909012897429951
  5.8804393979330829 50.0880546194764023  8.0982124431963047
 28.0197720157754091 52.1531486454800515 10.0674825293207402
 27.8376281595589461 51.9652922834404620  6.9511621724670372
  5.9222458299664016 50.1460730804421928 11.2170795626884345
 25.4103745890774775 50.3016815183401604 10.3130927737396014
 25.2312568513638098 50.1475024096292472  7.1971339469899549
 22.7912960914006852 48.4482854382122099 10.5344683026187731
 22.6213647364152095 48.3308389273118308  7.4175187572819148
  8.4850104969670515 51.9024397872903265  8.0094595866289211
 20.1660951621135602 46.5956346463425959 10.7260600313527004
 20.0092076740585938 46.5152582607440834  7.6078629356410810
  8.5625165292543599 51.9751117726288783 11.1280019420731637
 17.5358032050674240 44.7452713792275532 10.8844105184563684
 17.3950945764358842 44.7011863070719855  7.7660073684471991
 14.9030781933655909 42.8954365270036888 11.0089152296252113
 14.7803004894861552 42.8860892666146682  7.8894679122899483
 11.0876573825738500 53.7169013221771365  7.8830211691758150
 12.2681292488076146 41.0463799732911383 11.0978990846197210
 12.1666409941761273 41.0697115371212575  7.9782471399407049
 11.2006169567631435 53.8023320743017521 11.0009928491978410
  9.6304626486381188 39.1978243291879238 11.1490808282170306
  6.9930637080611566 37.3517056117787831 11.1583322409680274
 30.7478618093175413 50.6222307927378949  6.8899672234855380
 24.0485330876904371 62.8456309575081846  6.7873925784803495
 28.2777652070983727 48.9930669815108288 10.2354137281450157
 -5.7921459479862598 24.9589465689024266 10.5377269578944155
 -5.8180176703926483 25.1557644862683958  7.4196346621114682
 -8.3631993374289610 23.1304534406311966 10.4640967267142102
 -8.4344124667215681 23.3114931660159641  7.3453738751421147
 -10.0197801317190507 42.3528060961821069  7.8894214409601986
 -10.9319732367419942 21.3013219962875979 10.4407865497633239
 -11.0515177483522908 21.4618770570018711  7.3227328091245711
 -10.1366792131851930 42.3530328798497422 11.0090850001317033
 41.4620339556082058 55.0377741911696035  9.5075032043401304
 41.5186213901591188 54.7959135738497594  6.3873601609069386
 38.9006312398959082 53.2102934094306690  9.6298235368400018
 38.8933284572234967 52.9482615621214663  6.5116415762646627
 -7.4153634185990116 44.1771755424240524  7.9846867765272851
 36.3283679803118531 51.3770499804270031  9.8051678704664855
 36.2738327652100878 51.1107265381778078  6.6886745580812246
 -7.5253570793032605 44.1874859697346238 11.1032213363582386
 33.7413891476960828 49.5353165654614784 10.0085868636620514
 33.6593478216576827 49.2828140086686588  6.8925079849266853
 31.1417621426991857 47.6841680665248475 10.2140840541179934
 31.0478469257623608 47.4614352771765979  7.0972030935818999
 -4.8105854042465124 45.9948284498322693  8.0594666134766335
 28.5313962139570698 45.8273330869452806 10.4048037210196558
 28.4353938589025148 45.6432153809259589  7.2872099134917363
 -4.9004963606739453 46.0204316246596576 11.1775476182531559
 25.9133601185493383 43.9677722071043533 10.5729924537083857
 25.8189354720867854 43.8261882332333741  7.4540215932520715
 23.2906763404392940 42.1071856640936488 10.7141493928452913
 23.1998354772571496 42.0106039108783520  7.5931171506294417
 -2.2047095022131513 47.8089801097230875  8.1041911430484301
 -12.7313770643950281 40.5188116732047376 10.9136821043070906
 -3.2060838486516805 26.9927340124478583  7.5325180265294378
 -3.2103024596690655 26.7920847683104988 10.6494404448267677
 -12.6270919748168193 40.5178178552081150  7.7924208887277233
 28.1376641443781317 48.8030294983025001  7.1184412798015924
 24.3098958122039726 62.8975434674350069  9.9045751494900518
 25.6637945897516175 47.1362073304732760 10.4446458582793635
 25.5256470339674877 46.9861126179332658  7.3273832544928164
 23.0424764495037877 45.2784787438446230 10.6283801002425378
 22.9103391547495399 45.1700747820613202  7.5094306187561930
 60.0274778779895755  0.5251001738991905  6.5399169370311068
 20.4161257215621106 43.4216916956303365 10.7817810824194584
 20.2926189055432928 43.3550572715537967  7.6620454869968500
 60.2907175270335927  0.5436527400221125  9.6581879911570301
 17.7867373076601396 41.5661059245710902 10.9032845236485461
 17.6740649342323124 41.5405006393806957  7.7830748122588345
 15.1565752627825301 39.7117794688090413 10.9926662741050016
 15.0557101785697327 39.7254500089454794  7.8720909632034495
 38.3008023516747187 59.3096028730348408  6.0508450712367932
 -17.8593779677846385 36.8245790089846210  7.6903633505436702
 12.4401334923042342 37.9087342991208018  7.9287968343714246
 -17.8855109365398199 36.8585675492842242 10.8137886812510224
  9.8901233375200075 36.0056097602143623 11.0688915523499052
  9.8276279598625500 36.0923091001640657  7.9491115730068493
  7.2555638020664821 34.1558026768270153 11.0491151391125619
  7.2179350011924504 34.2753806782002215  7.9305732899758832
 -15.2414165287163126 38.6743848810678799  7.7193267382297064
  4.6227778981339558 32.3096826669429049 10.9901869877821010
  4.6102418641067127 32.4586900689488189  7.8728550126421561
 -15.3119048850310548 38.6879622540501202 10.8420714110420402
  1.9976411147762252 30.4674284449338408 10.8965158697188311
  2.0052143278478671 30.6418507958048245  7.7792414608107956
 -0.6141413710120356 28.6283663953994960 10.7766551356727600
 -0.5992996568494487 28.8204216561055659  7.6601328635399337
 12.5245604458986843 37.8580313846202969 11.0486409946220530
 38.3255518270187068 59.4847141031919833  9.1764366176789682
 -11.5787155911060822 27.8107427144427675  7.5954106506410879
 -11.5355856801383840 27.6994716344459206 10.7171056775461739
 27.4774988829430313 58.4482029462372807  9.7762374470514128
 27.2351964034452223 58.3101325805234083  6.6599340817490802
 24.8800854962728657 56.6175185241246908 10.0600861111648587
 24.6396993025818709 56.4794619159078195  6.9446249550609460
 21.7543114853075572 57.8270816084585846  7.1191429119960654
 22.2692636909580202 54.7816251944749624 10.3320238453018582
 22.0433511831933586 54.6568386105741553  7.2173179082727996
 21.9938611596194455 57.9380533162367684 10.2345698265963208
 19.6476179347928763 52.9417764073255341 10.5790062374540597
 19.4439954647339235 52.8379456560283032  7.4632976537888283
 17.0183679624164661 51.1027954764251930 10.7929334145072993
 16.8413561781355305 51.0224657766759151  7.6760239202835869
 24.3439908492248698 59.6578728405616161  6.8447411692403071
 14.3828274372895955 49.2652160782502051 10.9695194347732325
 14.2359082233470282 49.2084169676646894  7.8519287375885014
 24.5992045549457643 59.7622034298420033  9.9608660395958815
 11.7443911811196493 47.4271741733673338 11.1072413449958773
 11.6289495821713373 47.3927767793058266  7.9887505583672720
  9.1047252610848481 45.5893993282097583 11.2050669212614409
  9.0219312891702490 45.5764673260760560  8.0866576767386000
 26.9361166340428078 61.4971449814459419  6.5696799787373434
  6.4638407721345992 43.7515760296382865 11.2623625443900046
  6.4155447074106409 43.7612049678375001  8.1430156313856248
 27.1934510145964090 61.5818029580312398  9.6870676718816426
  3.8242605569667831 41.9134170766480665 11.2769627293075736
  3.8093385842130814 41.9462429006939175  8.1575744228632114
  1.1862017895024903 40.0761810641093774 11.2501740659702634
  1.2018188917516905 40.1320673935318908  8.1316328890094756
 29.5351118755578064 63.3435164698877102  6.3142819045681913
 19.3762603765693306 56.1098233937413582 10.4919239408668084
 29.8356554216391139 60.1482253532527906  6.3832326159573505
 30.0618559646075099 60.2725362473551485  9.5027422678206985
 19.1613988923509098 56.0031896111891641  7.3760206303105127
  6.1486021342019015 46.9243749153290608  8.1381454059625469
  8.8352036896806290 48.7840812003653141 11.1819073231550341
  3.5549730766572649 45.1155804260601627 11.2912963461900961
  3.5433607408891783 45.1100340599684628  8.1718425088101583
  0.9167238452178094 43.2802352192402111 11.2845411772329438
  0.9366408092977506 43.2954059825167477  8.1660184918655840
 11.3598424827738693 50.5544164318251958  7.9492319131687363
 -1.7190937134696571 41.4456651383806332 11.2405349645703705
 -1.6705842195085556 41.4818651855541347  8.1215488567210343
 11.4753933882409793 50.6166920298025502 11.0672437017643279
 -4.3464276649944988 39.6101670237887973 11.1632095283561839
 -4.2762092788684214 39.6652344261994472  8.0435499348399304
 -6.9588696893982265 37.7740668781172175 11.0628634511801263
 -6.8818142304665848 37.8420469364985479  7.9431106028709690
 -1.4462813577017266 38.2399982823486155 11.1863809860098797
 13.9636697364835314 52.3696357526516607  7.7961133219640573
 -9.4895204365816124 36.0084099493495060  7.8386353268106701
 14.1138089882080582 52.4490743759027396 10.9130767922037926
 -12.1364709962365040 34.1066930836616180 10.8776302566425365
 -12.1025960151509953 34.1654804211141112  7.7547731058905542
 -14.7102854593384347 32.2776906677131521 10.8365685710642143
 -14.7192437234388240 32.3172653372233754  7.7132005299652615
 16.5643180129068313 54.1845799244119419  7.6036735739184653
 71.1343576747646722  1.5563512381756652  8.9969070930928332
 71.0827603642914738  1.5514716966917135  5.8668645060388851
 16.7485195648536020 54.2794952559932469 10.7206232004397410
 35.1935743379741268 63.9065721289093034  9.0877805059675332
 35.0656649367710429 63.8532601593000919  5.9603830034563119
 32.6335912935765791 62.0915206759479830  9.2639073994289376
 32.4448199884845323 61.9960721167528277  6.1405120528464607
 -9.5551172289363500 35.9390995000880977 10.9597700466552226
 20.6640313805500071 40.2477075421352168 10.8245331975531762
 -1.4043871208909875 38.3177536822622997  8.0675138934975923
 -4.0667801515953190 36.4032621853209548 11.0923582229830515
 17.1177084770216688 47.8618991293345175  7.7304087206068015
 -7.1480816803078850 41.0105617548125494  7.9839346480286046
 14.6455556528965793 46.0801210579209268 11.0014441136663006
 14.5076606755240256 46.0473418959191321  7.8831974821242046
 -7.2436339920163517 40.9810016433240705 11.1037136599796220
 12.0089965294893872 44.2364330384769247 11.1176592779441918
 11.8974430508803639 44.2310460656970648  7.9986907648492958
  9.3696845061034555 42.3931789670268060 11.1946800725086497
  9.2885394112797481 42.4141091860115438  8.0753819359563934
 -4.5426915973183633 42.8306842973399142  8.0722848783422112
  6.7294126839813275 40.5514063416868566 11.2300363063788922
  6.6811514372013390 40.5986232995466310  8.1102386727948925
 -4.6233549600849235 42.8164473983515705 11.1914713910372754
  4.0908967927458031 38.7104819337084081 11.2216744925900613
  4.0741182601710149 38.7830108112742877  8.1031216088485039
  1.4553875940777874 36.8715670156933371 11.1730887430343291
  1.4676676443884196 36.9684948432325555  8.0552525861533493
 -1.9366623839338131 44.6457891047984106  8.1333976537736277
 -1.1715164048691635 35.0340944409817681 11.0896249300375782
 -1.1369042014495359 35.1522406194787465  7.9712041226944157
 -1.9918939386971357 44.6499269541638171 11.2515197719769571
 -3.7846991506688230 33.1974990994382395 10.9816147307203060
 -3.7420703024703430 33.3295496491404961  7.8628291101518055
 -6.3812332489348567 31.3625593883517801 10.8684825246757715
 -6.3495534560096090 31.4984085679722874  7.7485629842757113
  0.6701671260428905 46.4595038073736930  8.1593105278578655
 -8.9630926722736906 29.5298706653042906 10.7730005784614971
 -8.9618718208007486 29.6578568162320657  7.6523244511730431
  0.6443990052057462 46.4824877366617741 11.2782907366620186
 17.2802117039188659 47.9243193382988650 10.8479047734889456
 19.7267178866570880 49.6764196741401278  7.5413641582376165
 19.9109058309924336 49.7695720876236791 10.6582282202200158
 -9.8475510572137708 39.1460859734020161 11.0029855450091727
 -4.0093070423806667 36.4983391817984000  7.9733398415846857
 -6.6713822185039593 34.5676048318253351 10.9836897295052989
 -6.6153730553343610 34.6706791892557646  7.8636755702342382
 65.5317438167789703  1.0333797732731287  6.1040772445173239
 -9.2601059691017866 32.7338236708170456 10.8825585490760712
 -9.2251539070648274 32.8334460046332168  7.7611853659626631
 65.7326078945195604  1.0450704577924530  9.2284842293086005
 -11.8368865518928956 30.9027761868319395 10.8121698197039269
 -11.8410838786943842 30.9880331232608590  7.6897888412324154
 -14.4090083921065997 29.0730370361012120 10.7882518559409348
 -14.4583415139361868 29.1386196077603685  7.6655462028503374
 -14.9804473864766230 35.4963528592608810  7.7311552968128732
 38.0361101457811515 62.6055856022342070  9.0427260507901224
 37.9983101561414927 62.5095741517040722  5.9138225801831776
 29.7756883245783506 63.3977209115725202  9.4351158014659315
 -15.0108342341094421 35.4830224297781953 10.8541889468913446
 35.3692363838373112 60.6501677633337692  6.0469884444423023
 32.9192853474672162 58.9684133968566258  9.3777942639822616
 32.7497201708707664 58.8011671185373714  6.2566448694424350
 -12.3649098254858689 37.3423648195739162  7.7897819783015407
 30.3428055176756004 57.1406671349527926  9.6324337770664012
 30.1390005108002832 56.9625877787741999  6.5155061908291376
 -12.4351068913756020 37.3123967013646265 10.9118023866425151
 27.7530002741775093 55.3054557220156582  9.9094392082210447
 27.5353393886358759 55.1332641788648630  6.7935521201705722
 25.1493106166470604 53.4627547208317395 10.1827566943261090
 24.9351213459645429 53.3103922707686664  7.0672366865698537
 -9.7542286507749338 39.1818833598391691  7.8822665963822143
 22.5345050616958886 51.6165584100378823 10.4344852721052117
 22.3330366910261979 51.4926884281289219  7.3194281337185334
 35.4817043374657217 60.7882230006851714  9.1721003978643108
 20.5789661867287279 40.1963286869845362  7.7031261984437416
 -2.2678590873519804 47.8510914238916740 11.2224463824710661
 18.0363426554169486 38.3882176034216300 10.9044242734471979
 13.5785980570517388 25.2726412384573251  7.5040769181323714
 10.6285475734943589 60.1384271740066652 10.8331709253517694
 10.9077622410276120 23.2827950944089501 10.4831531284760739
 10.9627606670829962 23.4579178187598103  7.3645363124188714
  8.2944374166381198 21.4264642034984263 10.3151828705994113
  8.3503254046228577 21.6433687178007119  7.1976366786760515
 13.1196030608781111 61.8823675485478972  7.5636268894210259
  5.6923479785016395 19.5755079114303854 10.1279136096521771
  5.7401787148042880 19.8259929915558963  7.0115921907354997
 13.2576466949088800 61.9446106377081236 10.6841882730900490
  3.1035166436088919 17.7327760291452741  9.9379912821959646
  3.1279270286631147 18.0028858442922832  6.8221675755311528
  0.5273441696497905 15.8976489552019959  9.7687603328267247
  0.5119426829692150 16.1717545297522918  6.6519322888465515
 15.7076106626955596 63.7118448209168733  7.3965580176202312
 -2.0373562794061617 14.0708204735266502  9.6436022351695669
 -2.1088668425751358 14.3312345879060050  6.5256605989178302
 15.8809879940277803 63.7485155616453980 10.5159032396719141
 -4.5962959330652495 12.2474102094642454  9.5819413722940237
 -4.7300197351880753 12.4793229591892505  6.4640677813576071
 47.7748006155954741 46.0010792568501472 10.3557512459009757
 47.8570989275013048 45.8245433722145776  7.2366475521960147
 51.6819502544363729  1.3810230439932774  7.2166791092041072
 45.2044930283010657 44.1706829460529846 10.4131571016525761
 45.2386134878403041 43.9767385018279171  7.2947318555507907
 51.8877103046644450  1.3865318610049664 10.3354836034108768
 42.6246099582499767 42.3382091288097513 10.5147136466738154
 42.6235672781560737 42.1342873092954306  7.3971726368408994
 40.0303718243707891 40.5016296652582071 10.6399481518927121
 13.5275919675248808 25.1420395861821255 10.6250411755870200
 10.5276029146137553 60.0582996776159064  7.7132104764782490
 16.1978272718152283 27.0872904356608473  7.6147386114704183
 16.1515133569087368 27.0019939079497533 10.7365424661684266
  0.1295068639517594 52.7861496954058254  8.0364456326489684
 44.9082987908351399 47.3617988360125111 10.1924278450480958
 44.9715957278337228 47.1428528680120138  7.0743096386145563
  0.0884985411993522 52.8718055974421759 11.1563297280151286
 42.3355001697217119 45.5305492389048680 10.2873566566921397
 42.3536491625042402 45.2989362153181645  7.1701442513634834
 39.7492359509250264 43.6948867657556974 10.4175536182622501
 39.7410058204276311 43.4617457688355771  7.3011633784121486
  2.7310000672416512 54.5999781629199035  8.0025770296939527
 37.1482178718220339 41.8532282204787975 10.5575472490707103
 37.1338576898140431 41.6332029095082845  7.4405448412803858
  2.7240113283969238 54.6933368854993773 11.1225270835653340
 34.5352636478719290 40.0060278927425870 10.6847051837469866
 34.5275269526375439 39.8094118808988853  7.5664046316828992
 40.0157771129008282 40.3002289895400665  7.5223394193804332
 31.9137484001594594 38.1545079784491108 10.7859791173576234
  5.3321695854515063 56.4173061804027327  7.9356112619953176
 29.2876610462899016 36.2988658144245591 10.8562187847452574
 29.3049430602278456 36.1708168880125740  7.7362759323370591
  5.3602263241789716 56.5129829818510672 11.0556691116492267
 26.6603368722502765 34.4401399106754127 10.8937158512071672
 26.6879095301193203 34.3525565262989829  7.7719177505021841
 24.0317949543602936 32.5814361928403002 10.8981437236909517
 24.0671587271356344 32.5358905549000212  7.7760555039948107
  7.9319103840742544 58.2366950318947971  7.8382553685092464
 21.4041588824504885 30.7215029682439180 10.8726591233716139
 21.4441670279848040 30.7191051171149176  7.7498602669932426
  7.9955319999735401 58.3279678483088588 10.9583212002937564
 18.7777490452846862 28.8617545736837968 10.8185946657903358
 18.8204273438227112 28.9025965074760478  7.6960571233484956
 31.9183328555003101 37.9896032845794664  7.6673908974413383
 -5.0099276906440569 15.6541717679690784  6.7173994815031923
 -21.0007055274271437 41.3290632689428534  7.5283469908932359
 37.4114890226680359 38.4736820763861118  7.6451040210647712
  3.4242986876064760 14.8371772344997552  6.5498410975953920
  8.7541667292255596 48.7392598830251274  8.0634865259850113
  0.8141988741621745 12.7482852614988200  9.4993025873097334
  0.8045175351032599 13.0003590344087527  6.3796478167175383
 -7.9541492551669029 50.5055676900640549  7.8651988333249720
 -1.7438364818215037 10.9255210744269071  9.3903397390807992
 -1.8196760349814525 11.1529951949450812  6.2696292601317207
 -8.0900048339133939 50.5882773679972786 10.9822572569485821
 -4.2989557827555469  9.1057150340910180  9.3582898243267074
 -4.4428911564839622  9.2956389754817081  6.2370140276894048
 48.0743531363440439 42.8051538790407662 10.5357718715757862
 48.1211788306335677 42.6541209517544999  7.4156317095223629
 -5.3506360535435338 52.3213739197093801  7.9172070335991833
 45.4985609120413983 40.9738891899404578 10.6057206382595464
 45.5041374362739930 40.8073858264533840  7.4860142202404090
 -5.4608719237125598 52.4123169857284381 11.0342583702780797
 42.9120261292527445 39.1402244398219210 10.7112012131721333
 42.8931151928875849 38.9670579032770945  7.5923880948021454
 40.3104427523226150 37.3028500619518297 10.8282978896043680
 40.2883974961150173 37.1355616334472387  7.7103471543130588
 -2.7474623787705714 54.1369639150752207  7.9406139720305768
 37.6946605905731502 35.4625528719591756 10.9339330501516354
 37.6857113850559742 35.3113505239488390  7.8154330237761167
 -2.8294053941232944 54.2335098800665278 11.0595843735915622
 35.0672729458322223 33.6194732606158624 11.0119025253512035
 35.0813162453232437 33.4915956011031071  7.8929935801619839
 32.4335179899500403 31.7742470777141293 11.0532901461226150
 32.4739291996157462 31.6732449529206264  7.9336287899753088
 -0.1467855350532332 55.9528266006544186  7.9351899669633603
  3.3822109176027428 14.5784652386935392  9.6680788549775496
 -10.7117460991888613 48.7592660192677130 10.9056585887048314
  6.0394098165940564 16.6642293338673078  6.7556486349545217
  5.9627007555888918 16.4157234699297661  9.8729121088605183
 -21.0584033400384314 41.4351702188331430 10.6501706124684379
 34.8011748704990964 36.8150320200360142 10.8647167572001386
 34.8068115364601596 36.6515635269508664  7.7461570983923238
 32.1728236274964985 34.9663469208086397 10.9344947313903020
 32.1984824065256277 34.8321387791619230  7.8155080201981431
 -18.3821701111865146 43.1784227812171082  7.5429008489547851
 29.5420366527191938 33.1133469442336974 10.9689995278324872
 29.5862250500854138 33.0128834840659664  7.8481555606268083
 -18.4867091497238398 43.2641699956054921 10.6635558159065731
 26.9108340621305508 31.2581186150995016 10.9667145371668546
 26.9708251917427582 31.1943066271786869  7.8451686348422855
 24.2804054003735779 29.4018150181843794 10.9298122650969063
 24.3520251106063732 29.3768677676645105  7.8083107288335825
 -15.7672223767201469 45.0230665719056304  7.6054017270993253
 37.4214924038925290 38.6605050546573636 10.7629292358307147
 21.6521493259615880 27.5451832471950482 10.8621701541065150
 -15.9097242343615601 45.0943650754326200 10.7241791194597411
 19.0252383356957857 25.6881447173328752 10.7652442444310932
 19.1097211787133681 25.7435695591772280  7.6436830044662356
 16.3990594913973347 23.8311236615649520 10.6392274672324803
 16.4899190992261957 23.9294400828056162  7.5179779922290670
 -13.1604759042756161 46.8599963286535868  7.6957495201465598
 13.7770851499018043 21.9729820918797465 10.4825561193911021
 13.8733456839204532 22.1146035076744134  7.3627768008747854
 -13.3194839408118639 46.9275040218161692 10.8134777416006358
 11.1608765660741884 20.1156555053781609 10.2975194057298207
 11.2600601776959426 20.2993873879444706  7.1793684503792869
  8.5551135475051012 18.2622729314209487 10.0905343303961406
  8.6502562230940825 18.4843743975200567  6.9724523947336285
 -10.5572333185883966 48.6861708339035744  7.7887290231890445
 21.7309540656685165 27.5598096607177538  7.7400217344209672
 29.8638928227514846 29.8548445887508009  7.9343767962920886
 -4.8944498048357463 15.4049455820801118  9.8339408523625469
 -2.3315726103959369 17.2305530621009950  9.9163191296399447
 36.5658078972026885 47.9493256470571012  6.9513326146586039
 10.8115906149780354 56.8835090901401657  7.7978210957415666
 34.0067281116605287 46.3675095478623405 10.2478583996546426
 33.9547699808313652 46.1242650098263951  7.1317349976481914
 10.9189766282200047 56.9780362117343273 10.9163884317324982
 31.3993616874931725 44.5140073273056345 10.4187464575912525
 31.3438594293777655 44.3032669599522890  7.3013584647100771
 28.7831648220035134 42.6567349787418735 10.5690980007903939
 28.7289440734104282 42.4852442604125287  7.4506109448734552
 13.4074660930963407 58.7022138926908994  7.6334525305913434
 26.1614617596613073 40.7958048837826510 10.6937093387085493
 26.1103900645500033 40.6678669883071038  7.5730480853011066
 13.5512564941881539 58.7924250296123319 10.7523588542259354
 23.5372226386454848 38.9338076378338940 10.7888312766608117
 23.4895215645193183 38.8520127926278391  7.6666963219656425
 20.9109235754500276 37.0726207064172470 10.8535708549216778
 20.8668849573137578 37.0373163723127377  7.7314511351331721
 15.9983136726982096 60.5267713089095949  7.4429856814525710
 18.2844103854762636 35.2113108138866764 10.8894474297120549
 18.2432224676026244 35.2214197108651916  7.7670966706974776
 16.1780312168538671 60.6037654850519161 10.5609082264646883
 15.6572189488255962 33.3514210661962665 10.8967209140247316
 15.6206979841183315 33.4051853792058182  7.7749918492287238
 13.0288357350675899 31.4919468550889796 10.8742569670663105
 13.0002361833395490 31.5894831797741453  7.7532854297357305
 53.9037545357106325  9.4761365627850136 10.3408047110075749
 10.4013079458293642 29.6339639588067705 10.8192519805625516
 10.3834810806452609 29.7736070896995315  7.6998313474307389
 18.5851846847974471 62.3578423043700383  7.2324723357231271
 36.6026789096032843 48.2138042602919867 10.0675440829991381
 39.1814097424712529 49.7826369160263269  6.7820596435852103
 39.1846551302368553 50.0518877440008509  9.8987715917670638
  8.2827250338668215 55.1588557099485044 11.0490860105320987
 17.9571528576951387 38.3812319393697763  7.7829259135171451
 15.4078439578529078 36.5302951219735164 10.9540510778308402
 15.3360916877574578 36.5652660547709090  7.8331920857906896
  0.4011309122209996 49.6228385126645932  8.1143734585780649
 12.7773753838925579 34.6726023641768251 10.9728452181397778
 12.7175419381978667 34.7481870162233832  7.8525238960865185
  0.3682333788709118 49.6805768050065240 11.2339998946039188
 10.1465667231495544 32.8170189634786738 10.9575890133609928
 10.1027928379889662 32.9320174338639831  7.8376714946078643
  7.5164214587569642 30.9643885474235105 10.9055060078395769
  7.4913989203616600 31.1154772615895645  7.7874007477797207
  3.0055268564168083 51.4365225367769696  8.0893605361926078
  4.8898299483113963 29.1152088826714319 10.8185117284509484
  4.8835727233322244 29.2990636944374963  7.7014110049559594
  7.7761526945577959 27.7782154914403634 10.7313130922279889
  3.0059653697352511 51.5086295102289213 11.2089843911479523
  2.2785337651580049 27.4809332889973419  7.5846113987772625
 -0.3307131471612165 25.4311143386780500 10.5648077637586191
 -0.3272882205030978 25.6575008623919558  7.4491721182094723
  5.6088547291862589 53.2513031884834334  8.0277451286808184
 -2.9189602599918394 23.5956131429728373 10.4319609415726262
 -2.9367909278871775 23.8273584702903030  7.3157097874748764
  5.6450160126514763 53.3353985745733894 11.1470644742809863
 -5.4940291434364807 21.7647263338909376 10.3261574661988984
 -5.5524254304578706 21.9876015828577067  7.2094411154958591
 -8.0616218613049426 19.9359278708992278 10.2672392391732465
 -8.1700214966660543 20.1406075710466652  7.1504381454810551
  8.2112326719855222 55.0668408160160539  7.9298554364380811
 41.7536554697313349 51.8823468627829172  9.7680773321017540
 41.8029421849130216 51.6249090511267994  6.6505349468026758
  2.2724726675716407 27.2707880368319913 10.7009447021759652
 -2.3907915411456009 17.4994862898868035  6.8001867232229198
  7.7705889593124571 27.9571429855757039  7.6138285320309000
  5.1569411520421093 25.9264304777797783 10.6133564829281326
 26.4006405006863574 37.5104769589834248  7.6803151665819396
 -10.2876784511400015 45.5209546769321420  7.8586786418090790
 23.7842801756539792 35.7585120552300850 10.8505470461658238
 23.7793987706505021 35.6941295730321784  7.7283052800535978
 -10.4251730898500004 45.5577647582976724 10.9766343174180356
 21.1572614380154178 33.8970400748880891 10.8696081841751742
 21.1556060224784481 33.8781387345624267  7.7469844259615837
 18.5309506978678300 32.0358799587101757 10.8604748008922520
 18.5311975776503317 32.0614474671814023  7.7374346878481468
 -7.6838885000935795 47.3420397101120898  7.9444431135805491
 15.9044876044936654 30.1752795537132279 10.8232100607131141
 15.9076676958478895 30.2456995338794599  7.7011400934940255
 -7.8076983471556316 47.3906763436081349 11.0619604305600969
 13.2783191345476741 28.3150708254220227 10.7567941911458398
 13.2869608043928356 28.4309015757453061  7.6357261977126782
 10.6546757579128855 26.4555593693100946 10.6592515328310640
 10.6700778516586947 26.6154982907155642  7.5402473280586619
 -5.0797502425638319 49.1579344062890584  8.0059691531186701
  8.0354685655635034 24.5986164279463324 10.5322330407838685
  8.0569051967799741 24.8001959655816435  7.4147080880113254
 -5.1794997862964349 49.2203712558070166 11.1237081438603074
  5.4248937965515678 22.7461180753418368 10.3798338497032887
  5.4477295718502301 22.9839255121692077  7.2629419554326846
  2.8260652365762930 20.9006670020301080 10.2115785255052707
  2.8386150199646361 21.1634039157793161  7.0965722108347480
 -2.4742265912899604 50.9721611702211845  8.0373614503966699
  0.2409191070530073 19.0623412658721350 10.0493320016822025
  0.2262607196250713 19.3363478374307327  6.9341130962396234
 -2.5457981201070794 51.0470892400827125 11.1559121903524190
 26.4104216190460654 37.6195600559478791 10.8017751797075778
 29.0185331119849863 39.3279088621231452  7.6022505896530648
 29.0344793594710602 39.4802306724965746 10.7215381545308244
 -13.0263638463357960 43.7240520391313510 10.8810657259698012
  5.1621231903527915 26.1409958538000282  7.4962709327271098
  2.5490908856446057 24.0805323764302592 10.4707122983770606
  2.5557513405240573 24.3218834398458235  7.3547101657551677
 54.5577603634523385  0.0294087505754864  7.0100070661445191
 -0.0451815661795559 22.2409158279502321 10.3199076130493808
 -0.0526902179508147 22.4968399656411506  7.2046658850919076
 54.7994109926308610  0.0558211798409952 10.1282060383652297
 -2.6251059506070620 20.4070483756714651 10.1845902575884413
 -2.6659218626588594 20.6637849074787994  7.0693449554148957
 -5.1941075695020738 18.5781112987523613 10.0886703543175891
 -5.2839084412717856 18.8215810870953568  6.9724726144783435
 -18.1201131394583435 40.0019833432149241  7.6308251069064088
 -7.7584334951140264 16.7509896863371246 10.0468714316028986
 -7.9007020784354003 16.9725140272474455  6.9301666499341046
 18.7984116631908442 62.4129575292538732 10.3500671336400654
 -18.1863139142709258 40.0618573508441145 10.7533865253413268
 44.7015173011909326 50.3078967775012700  6.8306608147849586
 42.0444752301574454 48.7126881495442277 10.0348244306153109
 42.0803656324534856 48.4605741888174606  6.9172122686632118
 -15.5033976196601948 41.8496831567819783  7.6775435494756294
 39.4676241432314754 46.8799789313315856 10.1670000680891910
 39.4639982115013126 46.6220187930779275  7.0507698238481620
 -15.6115962563788493 41.8916094161136101 10.7986758637650517
 36.8756881875126084 45.0383749467064050 10.3226994868160880
 36.8529303326360846 44.7912918418514110  7.2066618417469197
 34.2705125108134254 43.1904232997217861 10.4763757117293235
 34.2440425420791783 42.9668827730314291  7.3592816019266216
 -12.8927345861012039 43.6903393697424605  7.7616334767022952
 31.6558068917349473 41.3370805893494904 10.6121056067050059
 31.6330895800318501 41.1462229749334796  7.4937252470564939
 44.6110278952959831 50.5430450538064875  9.9486106219596309
 43.3312818193291491  2.2630875251054965  7.6365191367512155
  1.9717274781655536  0.2567924530481753  9.0052254469961781
 51.2892143587591107  7.6678385060229486 10.4563148458217583
 59.4472287462167372  6.9132646877616928  6.6832069732788177
 57.1061650068683093  4.9941019284898793  9.9654724437684141
 56.8546576248167739  5.0646453651104455  6.8485721436690090
 54.5011489882048394  3.1898120870643316 10.1490587314203680
 54.2674102177144846  3.2205459893696577  7.0308302705074910
 65.1449233611498784  7.2893831001655274  9.4052976615347461
 64.9428318905664099  7.4349127071913914  6.2846363973660360
 62.5771601995802840  5.4789559967189057  9.5236162897086061
 62.3345495275734223  5.5767744267638211  6.4042823727010294
 59.9969386136326861  3.6700386463246675  9.6967020040476690
 59.7362526179000284  3.7214177074463239  6.5787604874567105
 57.4035366390401904  1.8629891032955719  9.9047469528614140
 57.1438919511324173  1.8728678504125473  6.7873643605020479
 67.8534550660316569  6.0999876546782810  6.0626196805697550
 65.4399702485779784  4.1634906563609864  9.2776059388129450
 65.2351489158888143  4.2366587178478445  6.1540885269943200
 62.8718364092115962  2.3540806163096599  9.4411808473306280
 62.6263594771983207  2.3780196140023295  6.3210044079494461
 68.2910234190850503  2.8577827590385563  9.0928810887720477
 68.1524846709696988  2.8953662856548075  5.9656012336690196
 53.6925610260883701  9.5917479831114338  7.2250245810378937
 59.6994685687357247  6.8021829223353318  9.7999686620903592
 62.0466420910766132  8.7664970501121040  6.5520132870157006
 67.9981627892987319  5.9770767539875695  9.1872290412860629
 64.6565415534703334 10.6229164716781952  6.4743688255149205
 51.1022247001871719  7.7566576402769538  7.3386334752742055
 62.2788102698415429  8.6134368530244991  9.6696402155027581
 48.6693649330928295  5.8635308753036384 10.5661002741072938
 48.5118366722710093  5.9241393811256753  7.4469537938657817
 46.0464327312856270  4.0624895018860432 10.6683145951417835
 43.4203937989766118  2.2625324753048504 10.7595887824846095
  2.0157237294890731  0.2086311329285293  5.8751654073663762
 64.5459313042905762 13.5815986074082939  9.8139380214508360
 64.3757758545711880 13.8012401155151299  6.6976181896794404
 61.9785512790294248 11.7628369437969056  9.8565438223585016
 61.7650050445402741 11.9477545736036337  6.7408578834944350
 45.9215603448534537  4.0929674077956921  7.5466441667193989
 59.1627353252830304 10.0969067670770016  6.8357549944699034
 59.4001800747291782  9.9473745034295700  9.9510468752962797
 48.9686789229952169  2.7229000704974196 10.5162625460144561
 48.8031036348726772  2.7358529746344376  7.3965014899962167
 51.5880437932728384  4.5239251688147384 10.3718743246360585
 51.3914286728812897  4.5705385287282088  7.2532253278998775
 54.2023043025809059  6.3274323844929556 10.2236056868176455
 56.5682401070580241  8.2507979472331545  6.9633179832086594
 56.8076174113795176  8.1347035778765004 10.0794908362407512
 53.9784543222573987  6.4095513215543889  7.1066361986042015
 64.8469778536477719 10.4284815310315331  9.5922819364281811
 14.9125818862843413 22.6950047220973694 13.7923345252970027
 12.0736893580945477 20.7039267411081589 16.9742408354120151
 14.8129528221337008 22.5647217741394748 17.1464782479675044
 17.6451301720938893 24.5203278028626137 13.9375765908900888
 17.5525342652585827 24.4292728064707703 17.2945490579549457
 20.3739983954820758 26.3451818154447501 14.0529568159993925
 25.8273028293945792 29.9946127329418815 14.1784256791224603
 23.1006632121342506 28.1695029560104757 14.1337419355702352
 23.0350715709657088 28.1639661063428477 17.4940437352014868
 25.7777562412261716 30.0319468924369524 17.5388130221462042
 28.5542219551048966 31.8216697712709440 14.1869066851041978
 12.1753437443412764 20.8696610702223282 13.6224485596453011
 28.5206438636117454 31.9004313457899791 17.5472973411245974
 20.2929768928661005 26.2962174467029968 17.4120036614041993
  9.3360465224262903 18.8489066677623818 16.7867914165118108
 -4.4715616859882168  9.7951491715950993 12.8454153834880511
  6.5998847158288658 17.0001159211596580 16.6009063712195228
 31.2808804325690808 33.6519041783252106 14.1594108417391702
 42.4829864995324726 37.8900394502220053 17.3429028979404833
 45.2371373517323008 39.5749683039865943 13.9023713065759722
 45.2249552278506997 39.7339490687845682 17.2580604513803166
 48.0082250081995667 41.4245188509672815 13.8424161454444992
 47.9658136881203774 41.5730876521042845 17.1978995374494446
  9.4301842476312547 19.0420746521687327 13.4377804567152488
 -4.3638602074297141  9.6444239622215662 16.1883587271051681
 -1.6211251725844351 11.4797695378318032 16.2137650025182758
  1.1198993926474010 13.5181736060682880 12.9560855120245488
  1.1202307541160428 13.3167634737762750 16.2997045182155560
  3.9022846386199390 15.3672924473303922 13.0887590576974819
  3.8614524825516181 15.1569014309665455 16.4337763495314242
  6.6728716760399580 17.2087158909858147 13.2538648415622990
 -1.6739852417447627 11.6603545238396187 12.8709138168925392
 31.2638217152779738 33.7687744100847382 17.5196125668519578
  9.1071644671505663 22.1614221790810113 16.9796670269191345
 34.0071612329590351 35.6350139751842434 17.4586413439444712
  6.3704286883188601 20.3067097780297843 16.8123404185690326
  9.1720931062246471 22.3511784398563833 13.6280370317872475
 42.4749357628132813 37.7280360920704965 13.9860907468248232
 11.9121978792281027 24.1765387605208488 13.7830780791678649
 11.8456118275931335 24.0214428364969947 17.1369972913259758
 14.6469408660003779 26.0005133392872665 13.9160930699851413
  6.4228908873620449 20.5215784116716691 13.4626588262871216
 14.5843947207081790 25.8855765981401760 17.2726082838593271
 17.3233401257066539 27.7523970841494076 17.3801931908345324
 20.1064146097026644 29.6466719545279318 14.0944292883837310
 20.0635747249016418 29.6208991665887602 17.4544152640406196
 22.8339114183750809 31.4690285242159895 14.1323288573426780
 22.8048267534173377 31.4895249636765087 17.4924967791970509
 25.5621641503770221 33.2920243171471384 14.1346896127811821
 17.3780176333690513 27.8239899473076981 14.0212356651318029
  3.6331983941449222 18.4580499141470895 16.6514925519044112
  3.6611448648128175 18.6844448076092746 13.3039607484715585
  0.8929795632954431 16.6144489690493060 16.5134452193354413
 36.7427490638442649 37.3229276842665243 14.0131329451267987
 36.7505056721103500 37.4971421117795813 17.3704763431057643
 39.4853776731083315 39.1639906772148123 13.9103593107900245
 39.4932748181642594 39.3530897158638027 17.2659898218626502
 42.2419347189938179 41.0083838851054452 13.8087423131025080
 42.2345720527453992 41.2005971214870144 17.1628260968927684
 45.0108688021846106 42.8555275747465672 13.7259485284217213
 44.9747718495600850 43.0417954390081690 17.0789248245168821
 47.7873946966155501 44.7065848669095374 13.6744820517213004
 47.7145867700374566 44.8786906664875289 17.0272821629845268
 -4.6917312263403588 13.1291784398008637 13.0186618650464858
 -4.5896712506390074 12.9387988743735267 16.3627275452379521
 -1.8989164868544348 14.9886821378058972 13.0676429002705259
 -1.8480163634451239 14.7748562574154967 16.4123417077467693
  0.8867836443745871 16.8401667866796956 13.1677384164244593
 34.0093138439366385 35.4855951119418620 14.0992802185445143
 39.7390992712475750 36.0386486106725101 17.4381989050376376
  6.8262201427426366 13.6979989945326466 16.4059841990930906
 36.9935726769829643 34.1793704062845549 17.5248670126595130
 23.6257362786282812 21.5720517831985887 14.0715870871284672
 23.4976081940280892 21.5182365049014699 17.4301963491175798
 26.3490628494780026 23.4052888464867408 14.1906885936263389
 26.2441299489853748 23.3849261433526827 17.5513287351398226
 29.0724473493123590 25.2399312230472646 14.2726520546126352
 28.9918992594526443 25.2527273524245182 17.6342846607536785
 20.7529555025867616 19.6530239434145422 17.2728675605469952
 31.7947743839041657 27.0772041332340514 14.3152720434522998
 34.5160314347990465 28.9175686134954724 14.3173903894002557
 34.4906339229525827 28.9921405118533890 17.6794582881712437
 37.2393452749681444 30.7596873565721651 14.2811904725067631
 37.2400629117524389 30.8594681954996659 17.6428608623670904
 39.9686984439616282 32.6039663052181083 14.2144758968691871
 39.9879723991763498 32.7217203975617608 17.5749787742794368
 31.7408989849741197 27.1222163954000806 17.6775761513102303
 42.7093527692677242 34.4503525198831113 14.1297220817733375
 20.9008465277892235 19.7389908258814337 13.9171440830377211
 18.1714658350888811 17.9053411466127557 13.7325156075517150
 -1.2254431089457400  4.9567497049031619 12.6120878128863723
 -1.1794459514197286  4.8894835275375303 15.9550313427991899
  1.5787140531376653  6.8258989031854718 12.6467977511093750
  1.5639783054362648  6.7246476121985532 15.9894339557444667
  4.3763688506087215  8.6896692372863278 12.7464299908284158
  4.3063639524601109  8.5610675721276408 16.0896640455096289
 18.0098371178267342 17.7913769441863643 17.0847451618543964
  7.1621714147955640 10.5450986760068250 12.8991606687424856
  9.9346247648660686 12.3934174916215518 13.0902082211164448
  9.7883418433955534 12.2387347196894734 16.4357600688722769
 12.6919871078097266 14.2350772237170560 13.3048041516157820
 12.5267843397572740 14.0833800842584882 16.6521291476063489
 15.4360578126027299 16.0713621349275080 13.5246490270387163
 15.2674427452910280 15.9342754964833233 16.8742716146182978
  7.0487859882627202 10.3989570240485794 16.2431794750398097
 42.7341340823770963 34.5769185176152192 17.4891808149143237
 45.4651150879482202 36.2977519996839675 14.0469175128032386
 45.4778722968251117 36.4234709725462977 17.4052653288273262
 17.7811896717951221 21.1082901514528594 17.1942181284673019
 20.6389387696447812 23.0429054562759568 13.9928598743805317
 20.5227567527347183 22.9731195842105258 17.3503575118733337
 23.3648091882170554 24.8706616804175873 14.1131280217667410
 23.2658373142187926 24.8399142458770719 17.4726595646103426
 26.0898306672956117 26.6991471616004254 14.1970762814034348
 17.9100250613326430 21.2146014989293867 13.8395269896635487
 26.0102446913152541 26.7074202639905280 17.5579586996460968
 28.7552726963078982 28.5761229833316008 17.6056885003822714
 31.5391074265912579 30.3632754396430897 14.2535373026011580
 31.5011811321529471 30.4458625180285871 17.6151111147272594
 34.2632685996364685 32.2004227044484708 14.2256478855614059
 34.2474416605610372 32.3144727001987562 17.5865939409957086
 36.9910490124268421 34.0400900939276028 14.1648098222254468
 28.8150522314636675 28.5294994516891443 14.2441924448844617
 15.0405716908232368 19.2469007493564845 17.0106295804336369
 15.1762378794314632 19.3860676550959425 13.6589254737029169
 12.3008695836267261 17.3908598126978582 16.8080181936784747
 48.2315074965818908 38.1466814884143091 13.9816608142768359
 48.2201626938277670 38.2649031005603959 17.3394784160328577
 51.0044311377718387 39.9981138268995693 13.9447334715143665
 50.9607383000209353 40.1025333112480311 17.3024929687741746
 -1.4496195154607541  8.3152097553056628 12.7137634335798442
 -1.3985552193844286  8.1848110429814618 16.0563781755713961
  1.3503290420280762 10.1800588122930709 12.7763629130321679
  1.3438557235454167 10.0204171906390638 16.1194913829122122
  4.1410308365239192 12.0362018497400847 12.8972180636252141
  4.0858227680963211 11.8580510426534449 16.2408502676545972
  6.9194965114627571 13.8837411798151766 13.0606769397233755
 25.5460944538287080 33.3573998206839875 17.4945081544806627
  9.6847771776212177 15.7235789471274536 13.2532237197107783
  9.5635506486190849 15.5414211360757921 16.6003836798834072
 12.4359797909176777 17.5566339845851438 13.4588352766401247
 39.7264001194611680 35.8828965263723703 14.0799817919376355
 28.2911184850682318 35.1164614917990932 14.1021084770048226
  8.8768166726941704 25.4776016683039828 17.1655411381575504
 31.0211581974379804 36.9436884143279158 14.0365281545083604
 -5.2985630191633213 22.8324050827076093 16.9945684014944405
 -2.5815332720244859 24.8857057438879394 13.7277017064269451
 -2.5572816505536529 24.6756997754510969 17.0796494420594307
  0.1801238219934113 26.7306768348667383 13.8334072480800447
  0.1835568027602651 26.5259008499567805 17.1875287070350389
  2.9272836814235732 28.5720754099537793 13.9447133767948870
 -5.3545914918994013 23.0374304385683821 13.6436614375575846
  2.9242781256792849 28.3840255929097403 17.3010675048873281
  5.6658062817667547 30.2483246608289846 17.4028825549737576
  8.3936410756061637 32.2436862713416517 14.1212052605644995
  8.4079551179078216 32.1172703424395394 17.4810056809672751
 11.1209849225034709 34.0743763947775165 14.1670800613996430
 11.1496811076906770 33.9882747919356802 17.5277721354367131
 13.8478686127877175 35.9022259431175712 14.1789805817214205
  5.6636522906659836 30.4095847068040257 14.0446331097315138
 13.8909510177408553 35.8586623894553895 17.5399087662162998
 -8.0403137826443043 20.9935157804324426 16.9439949199142816
 44.2510587503124668 52.9429203614658590 16.4533592326088041
 25.0861712369610323 40.0063571873779154 17.3362534754038720
 27.7618296823029844 41.7155544758822430 13.8634481105782665
 27.8261883894124828 41.8698463994440075 17.2182009381982262
 30.4985987322858882 43.5393153509917568 13.7224065724390076
 30.5651148389058100 43.7293990460474262 17.0749996000107132
 33.2429630668672687 45.3665251022359541 13.5655219896197750
 -8.1342717275427869 21.1858553069087527 13.5937419258538998
 33.3023837744651416 45.5832912772628021 16.9159141090713980
 36.0390221940592070 47.4301594660276820 16.7559737163626288
 38.7698992092407266 49.0419960145791904 13.2679027935371092
 38.7755216203635626 49.2712817167176951 16.6151323378149520
 41.5520723468845858 50.8910458659710443 13.1639861006267509
 41.5130297687099272 51.1084582447911657 16.5098663222635338
 44.3417933622654701 52.7477358377974355 13.1078701214209676
 35.9993593384843322 47.2004738666504480 13.4071301691776945
 16.5743861440544329 37.7276118262438587 14.1555972105005239
 16.6324868952729474 37.7282115679165244 17.5159255542310355
 19.3014224400995111 39.5513691450886284 14.0959566181351299
 -8.3539743371204764 24.4700746357673182 13.7727941561498408
 -8.2877515928782532 24.2967145606933030 17.1259161940026239
 -5.5789925518338261 26.3201997872738858 13.8324991590941053
 -5.5460068357426220 26.1373264127163907 17.1862908684251785
 -2.8121673824686431 28.1678604428152362 13.9194157636881606
 -2.8042365593010543 27.9836854007507263 17.2745852220635392
 -11.0291402361709228 22.4590413080394349 17.1021751962807613
 -0.0588807235599563 30.0133186706028461 14.0196022774108879
  2.6800699867834878 31.8557911795521207 14.1151396944631617
  2.6800947946425944 31.6998070459039951 17.4742899247498151
  5.4100804514539131 33.6955374853120944 14.1905547852547702
  5.4237631386830953 33.5672398226822182 17.5511177602864805
  8.1352652778890544 35.5326717697446455 14.2357424626229481
  8.1683945669047482 35.4389038846067734 17.5971780609569635
 -0.0623477268263973 29.8379760919127612 17.3769491238170986
 -11.1324301183093617 22.6171124057212118 13.7493229617674739
 41.2817201059613268 54.4056408319938711 16.3020466572519283
 41.3241188728307307 54.2119532126387895 12.9580261924925075
 19.3745875612348115 39.5964690364063543 17.4551886348010967
 22.0302259382567627 41.3745380715688498 14.0012639511391459
 22.1160905347434493 41.4634158270755648 17.3584762933672749
 24.7618896967038609 43.1971937747973342 13.8741150773869855
 24.8565964245086306 43.3278173086439153 17.2289363071335302
 27.4966814634623873 45.0203697735976505 13.7193316614295053
 27.5963139189695923 45.1883026653293740 17.0715241962543267
 30.2375301533741805 46.8452844560835331 13.5447241188521019
 30.3343235804644422 47.0431929297860520 16.8944864909049457
 32.9886379730134962 48.6746811114020090 13.3629065990984284
 33.0710218355649488 48.8909236749330844 16.7103508111818648
 35.7542515756286079 50.5116539210852977 13.1922649686277147
 35.8071755542939769 50.7325300484814861 16.5383099180772639
 38.5336861296725957 52.3574379871416724 13.0522618335603902
 38.5440181524049663 52.5702940782448209 16.3969992861295211
 25.0287508875695082 39.8933108461394141 13.9793750738478941
 28.2875543836819254 35.2247473407340266 17.4613230032738933
 22.3455719541676672 38.1400479763396589 17.4232242403851991
 19.6045122246486585 36.2721802796019688 17.4760739237404650
  3.4011504336331528 21.7624422957564576 16.8785223840985275
  6.1701876535158950 23.8244079354227658 13.6722290958458288
  6.1386606151318350 23.6174514465470722 17.0247911796664972
  8.9125595731551943 25.6537390093409918 13.8110891842643433
 51.2174663136725954 36.7938992135350205 17.4001562596589956
 11.6484792313591612 27.4795680842455710 13.9313453850872477
  3.4178273343436816 21.9893258000916063 13.5280301554346707
 11.6158895235208703 27.3420459064381696 17.2877980233023685
 14.3548716841295221 29.2088710185649063 17.3834294115278389
 17.1094665924517670 31.1261998547407721 14.0873245745940530
 17.0941803113995228 31.0773160563335580 17.4472492443746283
 19.8373507864253327 32.9479216404619493 14.1156420576604731
 19.8342949607771608 32.9467081409997320 17.4759255576572876
 22.5659709355595162 34.7696748545993444 14.1087061865395214
 14.3802438638451981 29.3035229618668929 14.0248289948547775
 22.5748416054398042 34.8152860029178726 17.4685695882362708
  0.6618071553588083 19.9142382833693432 16.7432898202595908
 -2.0788961540931701 18.0714047607776038 16.6347448305928438
 31.0291349545700648 37.0909827998494137 17.3944771213475420
 33.7547071071040889 38.7741918862484241 13.9433026878939064
 33.7701147225630791 38.9539880849678539 17.2998642963063034
 36.4943789730119335 40.6089548332828727 13.8308701525080338
 36.5105531515841903 40.8123989219017744 17.1852806942934393
 39.2453992510228389 42.4489282728807993 13.7115762070635085
  0.6523109383650053 20.1475935758099460 13.3949116962681405
 39.2504072377829516 42.6636515535855736 17.0642220994910225
 41.9895951569217374 44.5073063155782549 16.9558867905552297
 44.7864485104008168 46.1417532831321324 13.5260833830360241
 44.7288342419172551 46.3454130142661000 16.8764164936566203
 -4.9114883896698789 16.4466276624404948 13.2210933741911330
 -4.8202597304935431 16.2334800808056272 16.5669086523119411
 -2.1254471843272271 18.3004069892292520 13.2879928020879188
 42.0108187867221901 44.2932907246324845 13.6048608268030105
 25.2959075117768961 36.5916466721362355 14.0675110872724485
 25.3156848028567367 36.6825638098353153 17.4260797880463585
 28.0270610333716128 38.4144604061814476 13.9929847467873518
  0.4169078798159732 23.4431167549184210 13.6217916680426292
  0.4252953758886459 23.2177312709173762 16.9726809105506398
  3.1731790661541028 25.2840435310138254 13.7459838400238343
  3.1646486723311216 25.0713246933653231 17.0993260776553520
  5.9169650372836307 27.1198364291588376 13.8693998609797209
  5.9040126334737515 26.9316552510249601 17.2249807930022776
 -2.3153751464587722 21.3715956085626644 16.8625008631586759
  8.6530882546302816 28.9511905092714201 13.9778144460664056
 11.3841837456873876 30.6647325740063934 17.4200026898753535
 14.1134252490584320 32.6040520584621873 14.1137824745768601
 14.1238906702410087 32.5336431505601524 17.4737183661390461
 16.8411311561658614 34.4273185794776069 14.1326262455869127
 16.8638011333420543 34.4030646402700242 17.4930068730159682
 19.5687005060778141 36.2493774637941186 14.1159649463094325
  8.6441542710095352 28.7964925081919354 17.3352248526970953
 -2.3527210716849476 21.5974912374660697 13.5134802354618131
 -5.0565857355584578 19.5309388278810978 16.7834992081649439
 -5.1324453780571737 19.7477821503307069 13.4355897790436174
 28.0564407194172993 38.5482781608410079 17.3499270028138355
 30.7603972874307878 40.2391518002144437 13.8889651680158774
 30.7965355009171269 40.4116370099511144 17.2443128498804370
 33.4987683801040248 42.0670283324342762 13.7627510494077221
 33.5353313726467874 42.2705630649535351 17.1163663930127257
 36.2461899223101653 43.9004124486771730 13.6248657546848744
 36.2731679758542640 44.1237840654389615 16.9764856703987732
 39.0072932175091793 45.7403122188851654 13.4928544375280666
 39.0109276289791396 45.9697190396100410 16.8426767791559655
 41.7810071042562754 47.5859974614583123 13.3848872782249533
 41.7490117844996860 47.8096375388174977 16.7333931117758716
 44.5636472392161309 49.4379153420658923 13.3150215915537142
 44.4874895115514803 49.6453704524367296 16.6626819756038778
 -7.9163746128309889 17.8929098733415550 13.3992304434945151
 -7.7983306537360537 17.6935913657180564 16.7469298014992880
 22.2976822665161052 38.0715202499904208 14.0644959246774501
 51.2259510849857449 36.7214550566108997 14.0406455612678691
 18.4275130444475117 14.5913988699815285 13.6258719703540354
 48.4562354297051243 34.8710338103344171 14.0864952052884522
 47.2333855522973920 13.2283173080219090 17.3964621326642295
 49.8308597510477540 15.1826429040060322 13.9657710412702141
 49.9894675395956440 15.0821093627307619 17.3212728519312300
 52.5727802472591819 17.0443540214392080 13.8862651225320821
 52.7401687671788011 16.9337260861766339 17.2405393295032532
 55.3268587354745804 18.9038974503925239 13.8146255225566925
 47.0969467751518351 13.3188536858589490 14.0390155372995160
 55.4867997411713603 18.7799037717617736 17.1678780592656217
 58.2312857539070450 20.6208504948978977 17.1180607136044962
 25.0570148514175806  1.6763450069689880 13.7968713755768384
 24.8732476090247481  1.6870614757610196 17.1500815616290510
 27.7872219627371742  3.5507075175640934 13.9235908544982045
 27.6382722862494177  3.5396633202645673 17.2796285941073080
 30.5148811385788505  5.4240620158413861 14.0310364052959713
 58.0940785233999009 20.7613057492395363 13.7649664234029139
 30.4055049298053710  5.3931347354851304 17.3892961123437857
 44.4720092900411004 11.3722895363931595 17.4556024788225805
 41.7064869286787427  9.5157405535909394 17.4927138978489971
 55.7308331237279262 15.4764055010943284 17.0329558967298844
 58.3129260452935583 17.4712638453113094 13.6168706575668850
 58.4768557176100643 17.3180328812424094 16.9671569781003910
 61.0878602363645484 19.3300701701516573 13.5849796683019477
 61.2203390679064867 19.1564261915884764 16.9351101028142530
 30.7355712653065680  2.0945262518705672 14.0258835168206559
 44.3682151606699904 11.4529725048633289 14.0970184096330957
 30.6310871471604358  2.0968544455138503 17.3841981527620248
 33.3997021255829694  3.9508826981204170 17.4487304312225540
 36.1892979795546452  5.8424696063380859 14.1287902105471606
 36.1689873167533307  5.8053005465524006 17.4891786483583580
 38.9156267874653707  7.7139266322945002 14.1439434218710058
 38.9383079419053431  7.6600361689422574 17.5042004404048654
 41.6417249972787999  9.5841642447381066 14.1330403230243267
 33.4628118953185734  3.9693735771493324 14.0890066362615141
 33.2408076765464244  7.2954826907869821 14.1153216065252245
 33.1732202056095318  7.2481441101733770 17.4752769536211510
 35.9656860541313392  9.1648774682537084 14.1741630869343833
 24.8364278359019650  5.0093490577901294 13.7904327584439912
 24.6490468389502020  4.9835221487465766 17.1437732718708062
 27.5652868225804788  6.8802859352927870 13.9391849582461784
 27.4129762153796648  6.8365382212183432 17.2954065584871870
 30.2903692025614610  8.7489296957077656 14.0660666242233106
 30.1781810977002216  8.6909979976531240 17.4244308579162777
 21.8879620036126816  3.1323236678083126 16.9756554361902126
 33.0134623715812126 10.6151448611401573 14.1663714762798225
 35.7363036934337330 12.4782017021520577 14.2382113999104227
 35.7087244013100360 12.4045791339907883 17.5996489671505287
 38.4586773553479659 14.3380419562099402 14.2782352658665666
 38.4733703038124091 14.2639467572383296 17.6401311991423633
 41.1806349832961516 16.1961646906302263 14.2847550357929070
 41.2353558862776595 16.1254745680534235 17.6462032102339670
 32.9434494931927091 10.5471596980941023 17.5267599601669168
 22.1035093595625369  3.1369329353882898 13.6249898606253481
 57.9809475747871303 23.9266902063702602 17.2480375296490713
 57.8754055308581101 24.0441314017130843 13.8925625479790202
 35.9407462552335204  9.1033491133567601 17.5346920535381088
 38.6901620068533987 11.0316154980685663 14.2056921604189661
 38.7079774506704766 10.9598262063614147 17.5665540193499723
 41.4142921605385936 12.8963084228305913 14.2079671623745920
 41.4737086750511494 12.8177526602142677 17.5687947769151478
 44.1388466132095800 14.7586202394504067 14.1818588013689482
 44.2359953368356926 14.6769346682865809 17.5419292833409735
 46.8666765251126733 16.6180243058429546 14.1315209898442387
 46.9931732276082812 16.5351463467005679 17.4901426576080965
 49.6009872568877057 18.4761502407844134 14.0638475241706011
 49.7452808649585663 18.3912216839564060 17.4209504685148282
 52.3462268152963830 20.3335126914421380 13.9909085675178329
 52.4928598113360820 20.2423660197818833 17.3472807068479398
 55.1054424584480458 22.1894347443774436 13.9294189690304115
 55.2378503265183198 22.0868403857533089 17.2848386621602224
 55.5489798848866911 15.6096481419115118 13.6816994717978737
 43.9038761542038714 18.0521543593593456 14.2591286018062728
 52.9814256837828523 13.6295179009154204 17.1198113951295632
 50.2272397229455905 11.7791998329855083 17.2141059380881458
 53.4554514183680922  3.7716262459327532 13.4925021605945741
 53.6702119257084078  3.7381045185743749 16.8418108558923478
 56.2046806086119872  5.6465525877025913 13.3335126575934542
 56.4250534796710426  5.5829420589891274 16.6802243554862066
 58.9647206360251275  7.5201889853447890 13.1939874760557903
 59.1762226614563644  7.4254456034682539 16.5388731951770964
 50.9107992939876226  1.8903127127729655 17.0090580188028113
 61.7369720891970175  9.3932399118193644 13.0875078157216134
 64.5203187070002429 11.2634231215175777 13.0263232473045250
 64.6693571091767012 11.1030198102058044 16.3701017165689606
 47.7632869279121977  3.3559098612592910 13.8260068639967404
 47.9223235868858382  3.3331217699879732 17.1811700573629089
 50.4969735059716243  5.2307462256222745 13.6939322002916768
 50.6865119100855850  5.1843141541141335 17.0462538592271677
 61.9239704335213190  9.2652155242513743 16.4312756731813430
 53.2377667369001060  7.1056844326206656 13.5564860444204189
 50.7161449551219334  1.8975393572630017 13.6566531617892117
 64.7382982576798298  7.9249372218267418 12.8817446447537023
 67.9744134517339091  3.0858952678447555 12.6471527942064341
 68.0791872053694647  3.0544213435065637 15.9897917735042547
 62.1732092086734269  2.7000326614865200 12.9109881214660511
 62.3686389711820937  2.6759240549545873 16.2542376565346238
 64.9573822208786709  4.5734366538257714 12.7853752203461788
 65.1155674287552273  4.5132570409857902 16.1279841848601180
 64.8943463653906605  7.8081748997365583 16.2244132244252697
 67.7519764946408571  6.4461122757064837 12.7169154743677169
 56.4224307009450214  2.3050997961734541 13.2818541207775542
 56.6476739126403857  2.2891872239379447 16.6288123131376686
 59.1820175683234311  4.1779344933175393 13.1120015094541955
 59.3989272690699721  4.1306631217809970 16.4568487381066646
 61.9542195579869528  6.0517041075149836 12.9741736168919779
 62.1480777781337679  5.9702296119067126 16.3173271042485659
 67.8604130057933617  6.3497538148870065 16.0597947367857650
 53.4451950782029073  7.0327323092732152 16.9057372500511498
 55.9875987339425905  8.9798913821743245 13.4254962228147434
 56.1989019716217015  8.8788559794957020 16.7730227362279400
 58.7158182949149960 14.0185533597391085 16.8090666988212725
 61.3048357517813614 16.0328678165931038 13.4090296049509217
 61.4610340547754319 15.8571766660333573 16.7565666095951045
 36.4097110643955517  2.5148614198711856 14.1104183803102909
 36.3950089719383385  2.5088246330540613 17.4709138695105786
 39.1364920280868063  4.3892940364278603 14.1043846358007077
 58.5310690950215076 14.1690373395883320 13.4609481642507713
 39.1651576391926426  4.3628207919328341 17.4645817989226337
 41.9352927789544552  6.2173543666406736 17.4336890275824636
 44.5926246395753054  8.1357027495273186 14.0213507543357938
 44.7031410437931811  8.0720572579188321 17.3789095458010436
 47.3222397945741875 10.0071876138835787 13.9477924826302928
 47.4675246482947983  9.9268652784066784 17.3037422714937890
 50.0564443268872168 11.8770144948319505 13.8602457752835981
 41.8642687755703022  6.2628313936599325 14.0743983209966252
 55.9678269747367594 12.1764796328058704 16.8954156796502275
 55.7691811885899398 12.3018834977524048 13.5462997976111748
 53.2157718234773753 10.3296086952455859 17.0025381616000963
 58.7479475455702342 10.8517380314959464 13.3147090775571222
 58.9487626884932894 10.7216640839069228 16.6609563720643052
 61.5210478835972694 12.7211161745359647 13.2373204299646208
 61.6953096881327880 12.5609179693849224 16.5829994747678526
 64.3034736633848496 14.5866185452732608 13.2041312772265833
 64.4398543485648361 14.3975520081668815 16.5498851503187474
 42.0839934955023693  2.9358232412522840 14.0418328992712311
 42.1609081915720054  2.9215075056535080 17.4011005224572131
 44.8133017251948758  4.8105985268155260 13.9671631955772355
 44.9300624411779950  4.7752206697206452 17.3246671984161758
 47.5438294668856969  6.6848140466149850 13.8731352905118168
 47.6969555902359374  6.6286143302471681 17.2283627991932420
 50.2778162541936524  8.5583803855261156 13.7650458677470446
 50.4590208144273475  8.4803633576547917 17.1176435629788024
 53.0189858313247058 10.4312721797216561 13.6521944556566925
 52.7978746061228321 13.7449010064945156 13.7674279273783853
 48.4755256273497821 34.9546384297557822 17.4459522899064403
 43.9935367032086191 17.9879049355767258 17.6200346742132830
 46.7470680538982180 19.8481601645162513 17.5669792352456895
 29.4706821526553888 18.6124021149257963 17.6005707451961158
 32.2952112446227559 20.5077929434239863 14.3328532947274425
 32.2261122153534316 20.4775139954158618 17.6948217231869798
 35.0144624499314503 22.3536631036636919 14.3844526054905124
 34.9825920826865939 22.3456584814735670 17.7470973562040015
 37.7337812420305099 24.2005246863007208 14.3936577663070633
 29.5754717288722659 18.6625596275272478 14.2398269236577040
 37.7382705675458467 24.2146616276847872 17.7563699922971274
 40.4914546221154552 26.0814843682367901 17.7262438251894459
 43.1850817910742748 27.8962735549932610 14.3030429371536254
 43.2412087904731237 27.9433588124134857 17.6648703731424703
 45.9259401254562789 29.7459237912410437 14.2263671739431725
 45.9877166327121856 29.7976879913045138 17.5876757455568402
 48.6820251526910184 31.5958291998166558 14.1545331281440951
 40.4560816267344734 26.0476134005795998 14.3634328697559237
 48.7315836335452985 31.6433546357214013 17.5148971130562394
 26.7169390864337011 16.7495288181880255 17.4677513261349340
 23.9643525694501669 14.8879102924314370 17.2994757839822029
  4.7419880181596001  1.9683135575228112 15.9677448567069948
  7.6303552714680798  3.8354980122927813 12.7318898078353797
  7.4852180978451521  3.8055732682353409 16.0748720169378494
 10.4124726692356777  5.6998825807959443 12.8906411662973657
 10.2293875523200928  5.6435474805924706 16.2341667319854501
 13.1811287497146932  7.5606889169388412 13.0870067131964909
 26.8553990494404680 16.8168411462797494 14.1090770608504794
 12.9728185034784644  7.4833330754773604 16.4318614062408628
 15.7168158698254512  9.3271020664117668 16.6531723370209548
 18.6760297246040885 11.2704112608865010 13.5315158744318396
 18.4638900933607246 11.1756163060839420 16.8813594421893924
 21.4082759715952449 13.1207205101783053 13.7480262745837774
 21.2130659625807176 13.0293760236550575 17.1008454000396242
 24.1339896783143253 14.9695918698418566 13.9432744850011261
 15.9350492540928919  9.4172257611454491 13.3059409128267117
 51.4483126041181933 33.4462492633678465 14.1013601002015552
 51.4742296844423208 33.4843879266354918 17.4619396461585588
  1.8052784203755681  3.4619392333794301 12.5800147643846127
 29.3259280487261798 21.9519444328029962 14.2707992983231868
 29.2306251288463272 21.9310120603512679 17.6321093113428908
 32.0469602385524155 23.7926956393422273 14.3420321263443533
 31.9831136509870113 23.7990124420662958 17.7040931532893069
 34.7666936445480772 25.6358100651906113 14.3709062456362400
 34.7363049597017266 25.6687404726371575 17.7335254829685312
 26.4797109478428183 20.0652060959736538 17.5199861127787493
 37.4871628130779584 27.4801958372586697 14.3581616447291651
 40.2120372325483828 29.3258571160279082 14.3098051128193582
 40.2392149655246882 29.4023883934629033 17.6718686200528730
 42.9459552698893674 31.1734804976974402 14.2362971924211621
 42.9870241097840449 31.2611995184856255 17.5973194871887344
 45.6943389313786597 33.0220338736642844 14.1555817114151523
 45.7322706890940012 33.1111797078218757 17.5157522514555524
 37.4887383832175232 27.5375666015659242 17.7209805202587738
 26.6046621242506625 20.1121935385459736 14.1600258295759769
 23.7308526145103684 18.2003591988514088 17.3700757311378595
 23.8828287930355394 18.2725378051911989 14.0126497368158578
  1.7815607943507203  3.4287240605236757 15.9226416696174251
  4.6075386151114239  5.3307731823559017 12.6526258232290179
  4.5246639919054354  5.2647874804153645 15.9956145074806511
  7.3992785329181645  7.1939805456894579 12.7855887455639490
  7.2677438129340750  7.1020569365994453 16.1289430926345183
 10.1776188397824168  9.0509579637532465 12.9648193794567419
 10.0102450541278838  8.9400294060137053 16.3088806827377688
 12.9410230709234497 10.9029090632285790 13.1756651000512175
 12.7509702904144007 10.7813061106878543 16.5215594864538495
 15.6898459614392198 12.7490479909094319 13.4019519123203903
 15.4930394719782711 12.6277978179131729 16.7500999741777505
 10.8595583038333245 37.3670353235423036 14.2453696804324750
 18.2376207593102357 14.4803221950581786 16.9764907666247851
 21.1581356513814995 16.4320729860613781 13.8323780670386540
 20.9836275410017592 16.3381228835063830 17.1865798353550083
  4.8352437371601829  1.9662905147716543 12.6249012307107726
 46.6321677527953184 19.9069166608004124 14.2072434072964509
 54.4727349227127675 32.0133614292068600 17.4524206197992342
 51.7307736628340820 30.1745454484887645 17.4865023248163673
 30.0588179401964588 12.0648784373939613 14.1225240818409112
 29.9468463647046690 11.9922813010451978 17.4819882645560334
 32.7797682707397158 13.9231170846306096 14.2312595566140629
 32.7090860229019498 13.8506191885667640 17.5924772593062571
 35.5006636668359121 15.7788622903349509 14.3065171312394384
 35.4713263226041278 15.7113356437254978 17.6684492258436769
 27.1848597568967278 10.1355570349871691 17.3401956439189000
 38.2209278643072707 17.6328188236209158 14.3445750777175629
 40.9413084258366027 19.4855586074658724 14.3452094826211773
 40.9909788430454185 19.4401439011028323 17.7073986931551879
 43.6651980393807122 21.3371478900653173 14.3117583491683735
 43.7459138742031755 21.3045994800166483 17.6734965580387176
 46.3961033861159819 23.1891683654365757 14.2521959582385112
 46.4966057690837360 23.1650090119260739 17.6126778140745728
 38.2324151190780697 17.5747913583610682 17.7069301088205968
 49.1388442870134909 25.0418332926653697 14.1799007276299616
 27.3368495673937844 10.2035447171403693 13.9833299490077003
 24.6113942489998045  8.3385789940818018 13.8181146132402635
 49.3697045003894246 21.7614389732835036 14.1382397884005346
 49.4960599132059329 21.7046340894129450 17.4972071106359834
 52.1207490885881697 23.6159339238200445 14.0691221595859641
 52.2413637687987986 23.5530005694284625 17.4274151262110735
 54.8841540033686144 25.4696534153116403 14.0162767857402777
 54.9848913049592269 25.3954608363753849 17.3743095021363629
 24.4238208689816148  8.2809595282928967 17.1719243622284594
 57.6561489629882402 27.3232122681076959 13.9915378123075946
 16.3962070609373001  2.7331989292700500 13.2428852502864789
 16.1588346223556627  2.7334317175737075 16.5886065834217504
 19.1429041958272670  4.6030533814910291 13.4373330594061144
 18.9093249043253877  4.5797437251629765 16.7854145899544811
 21.8801960517043099  6.4714758259968379 13.6333005692386919
 21.6650342112581953  6.4290407937773377 16.9839858362459317
 57.7265730150512866 27.2340868871934561 17.3495067021011629
 49.2429914566593112 25.0185233119245396 17.5400173771631884
 51.8957469458532259 26.8945912342694342 14.1149901133046427
 51.9867220973994932 26.8637983866597558 17.4746508210892877
 32.4691723310484477 17.1606356776637270 17.6537506147662242
 35.2593930878512225 19.0692088973722917 14.3602498147062345
 35.2282318751766539 19.0254243584216098 17.7225276124592916
 37.9784624024916013 20.9190513173623955 14.3872342518398622
 37.9865878115141555 20.8925870002449514 17.7498772557429625
 40.6993825029288487 22.7682187742806725 14.3744421813314158
 32.5399004458989651 17.2192189983651858 14.2924566867856573
 40.7426176817119270 22.7600181025661890 17.7371280835208545
 43.4947885847475959 24.6240553607331059 17.6902251429665291
 46.1603496157498725 26.4684998257923709 14.2587952647733260
 46.2429006109341856 26.4821357129382733 17.6202365547024407
 48.9095082239923755 28.3198089610679524 14.1854295836016302
 48.9875920728428866 28.3315425719504930 17.5461410122926083
 51.6716513073420955 30.1711148726265925 14.1260772164181407
 43.4253599186287218 24.6178371669229747 14.3281754116428957
 29.7106973945791708 15.2991476623609746 17.5465576938392367
 29.8201599141638667 15.3681820814659247 14.1863780667639556
 26.9526979658400521 13.4393958173442361 17.4033504204642568
 54.6627494074964417 28.7469621313143087 14.0712063035735113
 54.7292949685975927 28.7044113134029324 17.4307882380525712
 10.6405057706343733  2.3444339929545848 12.8749468359441739
 10.4475067370689683  2.3471758942733141 16.2179179783860548
 13.4121009187186946  4.2123925309775210 13.0488449400759432
 13.1924292795438909  4.1870867122733069 16.3931389210250273
 16.1700327776855737  6.0773526111426897 13.2506927134699080
 15.9382453420343992  6.0299353301331076 16.5971399839156959
 18.9145238631777381  7.9398903811509314 13.4649865337242254
 18.6875085683809736  7.8767546364785286 16.8141469009776259
 21.6493403171368293  9.8007599064644424 13.6767937013110483
 21.4404408651033584  9.7270128049317339 17.0283660040526357
 24.3772920908789246 11.6595766978888680 13.8733693849988917
 24.1956784572581824 11.5815243634259524 17.2282050649715082
 27.0999931089422290 13.5155867432402683 14.0454884784375729
 54.4417160377272111 32.0227509874261358 14.0918901318995644
 10.9126740908116062 37.3110190827708834 17.6072502762002685
 11.3843768506962739 30.7788372885113830 14.0613022275344441
 13.5846197048113702 39.1983583608747352 14.2188844581293363
  7.1879122137976150 48.7188990425740229 17.7146028734758438
  7.1286513506171936 48.6754156946095051 14.3516907054549581
  4.4324376000531371 46.8514813564166133 17.7690735785508096
 -4.9393958047171251 57.7361667032093493 14.0682984636422166
  4.4090765437632697 46.8265343222621553 14.4055665320358557
 -5.0642181804026469 57.8116143357399466 17.4256546339651841
  1.6781232626144382 44.9818068541007747 17.7825737857323709
  1.6894031232357403 44.9774887920873425 14.4190748234829318
 -2.2113330296582165 59.6064365998077577 14.1107196296782877
 -1.0740511420668628 43.1126258524961585 17.7571436744147917
 -1.0324866145646416 43.1282530682770329 14.3937262835817190
 -7.8232101975770796 55.9546979910989606 17.3602937314642425
 -2.3001890894116821 59.6681787538957735 17.4697108131190681
 -3.7601512057826261 41.2788979783039593 14.3372193680918087
  0.5159953536361351 61.4784719043805694 14.1292865948404387
 -6.5659359671609101 39.3866522408568613 17.6233321705457477
  0.4667305638227864 61.5235110652866624 17.4894660768495953
 -6.4977264560112671 39.4279232128958981 14.2614274411230717
 -9.3071296726099302 37.5348517838992137 17.5458325398821380
 -9.2502932915375542 37.5764778477124253 14.1851730474955868
  3.2426112842373280 63.3513890455864228 14.1237073599903074
 -12.0485377984731823 35.6911222702088295 17.4857335927004591
  3.2346275356371073 63.3783479449216571 17.4842970017724113
 -12.0149448615277858 35.7252842475142174 14.1252048806297790
 -3.8222133192846175 41.2466009563289333 17.7001164322539672
  9.8477906931168686 50.5238537989794949 14.2584183455298490
 -7.6688907611123200 55.8676278244087712 14.0040107006852370
  9.9432570237290161 50.5850272558777334 17.6197777913706304
 -21.5490045628662976 46.7144372121512745 17.0165883545251013
 65.3347403541194183  1.2184515550587660 16.0911397190999708
 65.1791541937103744  1.2137875569539653 12.7484040303514927
 -18.6610529840360186 48.4174772888524103 13.6939620849616457
 29.2012633087977598 63.5473046476332541 16.2485494126364358
 29.0096448481289961 63.5100596208471231 12.9050901594620093
 -18.8083852590461476 48.5527943847988794 17.0461002532972898
 26.4541344094712407 61.7089276920227334 16.4456810822903741
 26.2416275049895837 61.6465028245573876 13.1010340440511737
 -15.8955508492844650 50.2766134487521796 13.7553182487804460
 23.7066967854340653 59.8675925046533948 16.6667991124755623
 23.4874627767586190 59.7870280114860364 13.3192772053403719
 -16.0666515393907119 50.3956411926779140 17.1079831732249943
 20.9573648846933089 58.0212194544835143 16.8956279154690563
 20.7464670384487135 57.9308662437091115 13.5448546993271854
 -13.1433253640174481 52.1382597022776224 13.8372925658410715
 18.2056615424809110 56.1689272246704405 17.1161076270563335
 18.0150617444419332 56.0767596353295090 13.7629023696381729
 -13.3234159983571221 52.2452811827198218 17.1906966767012115
 15.4525529275896290 54.3114278451304742 17.3159312996974180
 15.2889462421118925 54.2243225340622601 13.9600871090424636
 -10.4024080969477293 54.0017444644223303 13.9242619874657496
 -10.5760166084010212 54.0987116949385936 17.2791795549251574
 12.6982345752252925 52.4493866605878267 17.4860194977528103
 12.5672755077876985 52.3734666648092428 14.1269215660636878
 -14.7896796614096893 33.8510698582297849 17.4522444483088535
 -21.4359223237651619 46.5610461868897190 13.6642089221434162
 -14.7865962301115239 33.8745829028828140 14.0916094604490709
 39.3910466298619255  1.0674357000067558 17.4547617419487224
 12.8148193015890133 49.0772413832489462 14.1838553937078515
 10.1881152869363536 47.2703109231708680 17.6612154728259512
 -10.6264510106247148 57.3127861522250228 13.8163614825074905
 10.0952381606149775 47.2336560881794654 14.2992205112140667
 -10.8157632468705600 57.4027766222317695 17.1690557573372153
  7.4354906380703190 45.4018561704795616 17.7381954683233865
  7.3757038322848958 45.3894014130782395 14.3750548079215807
 -7.8920603066765027 59.1843070094903467 13.9118881085616586
  4.6821865418290427 43.5316470138151033 17.7736506411171717
  4.6561310654446357 43.5437586833560815 14.4103618889164711
 -8.0588889926921770 59.2569169972650585 17.2663699099712105
 12.9397728927578655 49.1376328826574706 17.5439957777830706
  1.9295724496529099 41.6602957525326616 17.7677626825215711
 -5.1611859063124195 61.0569169951830872 13.9927962349221673
 -0.8202293407202349 39.7914790340966462 17.7245222970558025
 -5.2959073336460598 61.1117901251831341 17.3494388625716986
 -0.7885586940189639 39.8493418964279584 14.3614777948609902
 -3.5659017243400508 37.9274871794757829 17.6538823108551384
 -3.5198387674737899 38.0006402652622128 14.2916392250234097
 -2.4322227861231926 62.9305257651165704 14.0538348672206954
 -6.3082005207794172 36.0708206505494857 17.5710235444737357
 -2.5295133881608396 62.9661261688402263 17.4124343975502995
 -6.2638088868793185 36.1506730373366594 14.2098753756301015
 -9.0496364849056192 34.2227051234161763 17.4955975902467102
  1.9357914233414144 41.6969184172558016 14.4043653373348235
 -13.5661761784165193 55.5503515329990947 17.0661972741738985
 15.5357940793381424 50.9211971037429549 14.0309455470247286
 -13.3671849204479987 55.4433533647554384 13.7150082573477441
 71.0408673174348166  1.5936363025260010 15.9191924991356704
 71.0023866273434123  1.5915606429564297 12.5761515695775188
 -24.4345769357202087 47.9956221799877412 13.4872257007554524
 34.9104184298138875 63.9242597927904725 15.9858624937700728
 34.8119098130804261 63.8868549911326937 12.6430088023466745
 -24.5351513193520923 48.1807371578300305 16.8370999617163335
 32.1674392294706664 62.0887571413714241 16.1175021393961018
 32.0188527864031940 62.0196579976441669 12.7746731540396041
 -21.6534431167155290 49.8529886910390090 13.4941441696058515
 29.4229339496958886 60.2522465915299037 16.2997935481462513
 29.2402683833700472 60.1593648213463936 12.9564655195505463
 -21.7955618676747704 50.0169379771501852 16.8434484011394723
 26.6786619061064734 58.4134965446501084 16.5159047647759962
 26.4761082426801941 58.3046732965662784 13.1704503470392122
 -18.8794371613054075 51.7132464597290991 13.5407752499169209
 23.9342105317588327 56.5709374027817518 16.7484995869098157
 23.7269375639018349 56.4548007301265926 13.4001794816959059
 -19.0539553353268225 51.8562182201589792 16.8902944174296934
 21.1884859938274879 54.7212527066929084 16.9809105894223222
 -4.4788520396520042 51.1282499717821182 14.2416687255587338
 -16.1168874782857046 53.5765585463089451 13.6184450508441532
 -16.3116017964331519 53.7007177996275473 16.9687687555236160
 18.4406342399432503 52.8649801806347455 17.1978245783749450
 18.2606975229854243 52.7648257335239350 13.8440575629615310
 15.6909303648047160 51.0031457970320403 17.3881350497527443
 39.3565163769774600  1.0605959674939687 14.0944820844742846
 -17.7815936018112239 35.2978288157618820 14.0775541074485933
 -17.7876800129623582 35.3224601606985615 17.4378813127983285
 -15.0078415569648662 37.1495207683905946 14.0891184513364252
 11.8668731492244017 62.3165383413510412 13.9548941287899826
  9.3688086045155234 57.1267785076728387 14.1292969860287094
 11.9939455168840503 62.3516951143347100 17.3119167684793140
  6.6983635768050789 55.3387044039176530 17.5941977794893525
  6.6470893557639394 55.2645516318088141 14.2323858116260009
  3.9382151831813235 53.4775158713211454 17.6659012883208568
 14.5962380323791425 64.1891937034785940 13.8139319300933092
  3.9259190428933750 53.4055952698504299 14.3031388952604548
 14.7598253347037396 64.2045316354681432 17.1686751898374936
  1.1790784815817237 51.6149433961139366 17.7023559050520767
  1.2045770504971995 51.5492521484486161 14.3395581104405299
  9.4599276095849962 57.1984153157418547 17.4894157993447408
 -21.2178803542324097 43.2774089302789591 13.8172071310529709
 -1.5172354256302663 49.6943112188600509 14.3401323976472224
 -21.2975422064224098 43.4094701815304660 17.1726095129699736
 -4.3308688131094435 47.8846339924009996 17.6691295535665844
 -4.2413275493939890 47.8400121203061488 14.3071710297900694
 -18.4421898233702528 45.1315090003339421 13.8318270904817631
 -7.0787219647531261 46.0215706577116208 17.6093729672281505
 -18.5573382643628548 45.2469548949730509 17.1866743945681861
 -6.9708166133776288 45.9865604091103037 14.2482620443327601
 -9.8223793390880605 44.1631501325950850 17.5347465285259538
 -9.7100898584702104 44.1329973555110087 14.1745264236609749
 -15.6737213391452546 46.9870522375467417 13.8794474133658330
 -1.5778745948819448 49.7498312885878704 17.7025455170666177
 12.0927026253634899 58.9919467439097858 13.9963143209863006
 12.2231456568429362 59.0557056489913279 17.3538976908537634
  9.2274387280969172 60.4965886854113748 17.4329748630408865
 -7.3320755319525475 49.3368462954211964 17.5477245817463086
 -7.2071727537420527 49.2714557868620062 14.1879794487386306
 -1.7544032704708872 52.9868341544212953 14.2690668858639960
 -1.8241853738032552 53.0615990228599443 17.6304097130858217
 -10.0780026140605035 47.4780274381360172 17.4754768413996118
 -9.9426867928983782 47.4152943348043934 14.1167912722905751
  0.9687693574626837 54.8470970616882170 14.2651336286684067
 -12.8202290865489665 45.6245071322753617 17.3995740327247894
 -12.6900538984891824 45.5595772568626174 14.0416366280891989
  0.9354962285192928 54.9229838881567787 17.6271552228203099
 -15.5617294366153196 43.7794248423362831 17.3375236702215325
 -15.4516736678532336 43.7046434647298696 13.9802057672731106
  3.6919969014680034 56.7101867498602488 14.2302752952371243
 -18.3027569235155951 41.9397215509645918 17.3025798958267316
 -18.2227866988705571 41.8511743903427629 13.9449617087581093
  3.6975310226961300 56.7816980510910980 17.5921619003117300
 53.8934625965954197  0.4451253786155534 16.8183480612569518
 53.6752438156015330  0.4331811215708092 13.4691005076380499
  6.4156594445281394 58.5761859876188282 14.1660258143614577
 17.7479199559945613 62.7618879508014373 17.0105933734527426
 17.5509506710670244 62.7282432283225049 13.6584710090945514
  6.4613960388325831 58.6397213877977492 17.5269958522033633
 14.9863553990742595 60.9100945568770058 17.1921033088677149
 14.8200973301211096 60.8591824977058167 13.8373104191576051
  9.1400875003099298 60.4453895295361789 14.0735819007008836
 -12.5640610402789790 42.3127040886450132 17.4628528128877747
 -15.8161406584841568 47.0880035385602511 17.2346494225278093
 -12.4641046558011901 42.2792132535715979 14.1034407472361085
 -15.3054527649146639 40.4702294954159925 17.4105359449499382
  6.8853884761435316 51.9656096255302842 14.3003560948030763
  0.6980135719814987 58.2250563150093683 17.5508360016733249
  4.1837653516706839 50.1672264079005501 17.7301094731165172
  4.1653860707896637 50.1125999210014967 14.3668901718023179
  1.4269713752678341 48.3007620445981800 17.7584072263277086
  3.4649969624927470 60.0268351362751105 14.1665085723191417
  1.4451763082256097 48.2607444472057594 14.3950863264966902
  3.4639536877877672 60.0813018868841695 17.5273427466305520
 -1.3270911899538311 46.4328173904901291 17.7480099375549010
 -1.2760482604769259 46.4091102592007090 14.3848150892501927
  6.1905222474981318 61.8980656897260531 14.1168705468139244
 -4.0772763648380810 44.5663268779001314 17.7041485049359011
 -4.0010867811862285 44.5579307884005331 14.3413935302641971
  6.2310591116664948 61.9371533121748286 17.4772393642824930
 -6.8230423149956136 42.7040247929898698 17.6361666605424396
 -6.7337873943958444 42.7062664954107589 14.2742702351977968
  8.9169265800680968 63.7716262471516870 14.0419009184454922
 -9.5654056695089675 40.8482270136061416 17.5589647661135544
  8.9992901310621463 63.7922466227147282 17.4010168485329544
 -9.4794985804213425 40.8538883524407410 14.1979299901973306
 -12.3064918296604286 39.0014869384871758 17.4922394594645496
 -12.2393397879334742 39.0013008251743045 14.1319137177556566
 45.0328446000251716  1.4809448122110482 13.9437715225594232
 -15.0476440987462095 37.1605576212289037 17.4494398277854934
 45.1551508436977826  1.4806419698296238 17.3009490081827373
  0.7392470963930532 58.1578018025814032 14.1899871660767491
 -9.0233278397917811 34.3006107035108130 14.1355421774959105
  6.9416587895146158 52.0317055341759129 17.6626532804109360
  9.6994593875408928 53.8948238359467027 17.5575786449915476
 -15.2299846361151499 40.4258878821084409 14.0513929874994616
 -12.9172858380469435 48.8447592329381024 13.9506120821212090
 -13.0744651074505587 48.9360897442376483 17.3063794967119122
 -18.0455797812458059 38.6314065100327397 17.3875514026335871
 -18.0024478041635838 38.5736003271279486 14.0281178792687218
 -10.1743457605257284 50.7037199700386338 14.0300088930960261
 59.6197186670293533  0.8372392637967400 16.4247329041496535
 59.4025344459603204  0.8291053138991088 13.0799547724601251
 -10.3300310619465119 50.7903353566865405 17.3867072595479506
 23.4825245153930595 63.1617312000105215 16.6244783263667699
 23.2574853091088833 63.1266848342720763 13.2775171180026899
 -7.4402945553783670 52.5639108880276353 14.1018926907675937
 20.7302969314435082 61.3168912168542377 16.8379740221741514
 20.5132364707676480 61.2613694091569272 13.4881083109968518
 -7.5804959916564272 52.6480072537182835 17.4599910590170033
 17.9747221330131062 59.4669319814765061 17.0491358506778212
 17.7788101404676198 59.3981635314615843 13.6965689415739611
 -4.7119027155802407 54.4259360553898333 14.1563266813862594
 15.2166020513112130 57.6134051977577144 17.2452598297781208
 15.0501045311166806 57.5363028696793890 13.8898636271442992
 -4.8255509241064480 54.5077449328575057 17.5155765360103040
 12.4579314452588701 55.7556770605179679 17.4171870596060536
 12.3257731315729888 55.6770202881300875 14.0589643789660030
 -1.9861694876134575 56.2906519227341136 14.1866250909784064
 -2.0656376807665930 56.3672910873792006 17.5469794750636936
  9.6052722016362662 53.8198610235869026 14.1968883638854404
 33.6830055892237894  0.6402246169335096 14.0933249125046167
 20.9901677027056870 54.6089355485370902 13.6301356114154046
 -11.7913727902400556 32.3809314681232934 17.4419925420812234
 24.3962663811380196 49.9602331499509873 16.9826366563639013
 -27.8825362774365892 56.0734864817830569 12.9214152270272677
 24.2343149181116360 49.8149655782267615 13.6325075246517677
 -27.9825020906039725 56.2402448607526964 16.2650030284604341
 21.6537577104957251 48.1021319275694950 17.1822259114029166
 21.5016170479665512 47.9853334593687322 13.8289513096797183
 18.9102460777442509 46.2393369801543415 17.3539795390039586
 -25.0900377851723420 57.9398048654720341 12.9439648467397532
 18.7727421406465922 46.1556156341267894 13.9976356483094477
 -25.2411930771647022 58.0778619088315793 16.2868234034175430
 16.1657385481234677 44.3725343334847935 17.4927805307808946
 16.0477347125436367 44.3244373701163781 14.1332261412477731
 -22.3060259273620183 59.8092640349273381 13.0181838508435987
 13.4200210585634814 42.5031420180510082 17.5942820904571740
 13.3243711858224039 42.4920862557787871 14.2326863944296260
 -22.4979032233667517 59.9177200268222023 16.3608730722141082
 10.6734565272249622 40.6321974429993702 17.6567974137385200
 10.6012942523562614 40.6573581813863569 14.2942956678933744
 -19.5323512847862268 61.6808118885180576 13.1347341766380197
  7.9260646082277404 38.7605997125827884 17.6801206289384965
 -19.7530286177349446 61.7594302381816149 16.4791225862862056
  7.8789539484010174 38.8194249357277386 14.3176899334569523
  5.1784155584116780 36.8880657114884443 17.6641946791544413
 33.6260878841966147  0.6548025594698873 17.4532837124712259
  5.1569402175064489 36.9791640136857609 14.3021780042436184
 26.9737663856286787 51.6461435157692677 13.4173760423651451
 -11.2754062534341877 64.0010946741529239 17.0064252425843598
 -22.0882769051127177 56.4761939292645891 13.1560512472520870
 -22.2701557778388377 56.6174750136234266 16.5003434251942132
 -6.0513294749198545 32.7570683332132120 17.4794834625857405
 -6.0329690477054427 32.8748891642959578 14.1202743687446706
 -19.3154793278380801 58.3452509523844185 13.2465691775426464
 -8.7934874994748835 30.9120124848198401 17.4072055530045340
 -8.7981557781133066 31.0257357086967822 14.0488827993894265
 -19.5264910075134743 58.4593440890877858 16.5917358147329317
 -11.5354926402812836 29.0718729905366651 17.3611301385927597
 -11.5708378006014474 29.1754818265720388 14.0029775853899530
 -16.5544787165374423 60.2171508094927503 13.3687209053820091
 38.0927023914701408 59.1660284706988691 16.0507282516907992
 38.0700018504359150 59.0336778270478391 12.7077522188616161
 -16.7806273643335011 60.3042062174667564 16.7148759309350154
 35.3530634935679942 57.3312683475099618 16.1694440852246686
 35.2748001732277814 57.1744732501521256 12.8263306523864760
 -13.8046899048271499 62.0917271441847234 13.5090568631674142
 32.6134761233970494 55.4949272439065666 16.3395360865775281
 32.4924628672567266 55.3237284987377507 12.9954000952166595
 -14.0307489257699185 62.1514180474610001 16.8574213437856208
 29.8747686495220748 53.6564232225964233 16.5441416371519701
 29.7250729530514377 53.4817394237005601 13.1986089089248928
 -11.0642281287660023 63.9666162744742408 13.6555965130118295
 27.1364394076799655 51.8122816834510971 16.7648032545730707
 -3.2808559096367520 34.7233968376895703 14.2055267706454256
 -16.7711408069249472 63.5544270448649087 13.2839309352960449
 -17.0063611745901149 63.6022657822001989 16.6296503992097513
 32.8408832439166218 52.1946383706461390 16.5136056659704451
 32.7379384996691627 51.9930983622504215 13.1679932928784460
 30.1042333937974291 50.3523228899784172 16.7133199658351508
 -31.1299304511953103 60.8989552397163507 12.6529348005584410
 29.9787558302834860 50.1587474336047094 13.3661250844423218
 -31.1693927689098764 61.0009645907953413 15.9959474278435572
 27.3665359357282227 48.5027722311410727 16.9175310795167064
 27.2333243163739667 48.3300059731778902 13.5675806839345121
 24.6266197057297198 46.6460794423360809 17.1089499410040453
 -28.3270251501542312 62.7678225466204722 12.6658101889907737
 24.4966056472036300 46.5041487444064430 13.7564921871366099
 -28.4277348335886124 62.8368989769172899 16.0085405406199222
 21.8854639011164274 44.7846538872757520 17.2764571665279618
 21.7644852281857233 44.6789167035261769 13.9214475209356472
  7.8564584940237125  0.4742302131980171 12.7429709366693924
 19.1434554749150116 42.9194030550556036 17.4137809747591348
 19.0359514593072063 42.8532665410050484 14.0558314841600911
  7.7027591537603000  0.5090208603473515 16.0854692238682624
 16.4001759380221692 41.0517148085704235 17.5158223089196312
 16.3100101514854074 41.0266597885128164 14.1556746445888919
  2.0317372000912797  0.0956772192376206 12.5822032616492319
 13.6564675727356306 39.1820851742984573 17.5802538060614779
  1.9991928493497735  0.1324739528566770 15.9251871161604868
 13.4121621929576502  0.8911686454768479 16.4094741619113336
  2.4318877464899913 35.0183010208832712 17.6120534111958236
 13.6365444007686527  0.8616836296418006 13.0651632607198742
 35.5783506551401345 54.0326836620333424 16.3377365823025791
  2.4319703672738480 35.1369540524012081 14.2507528829244983
 -0.3122041328801396 33.1534352679981623 17.5324684805876032
 -0.3002419411812148 33.2929397424049895 14.1723820138090506
 19.3648647058620718  1.2635582139928068 13.4519677727105300
 19.1316069768319004  1.2831900340266988 16.7999209816553261
 -3.0546944924818642 31.2953976196248185 17.4387945594940206
 -3.0447644013817374 31.4466327614262298 14.0804632319179710
 -28.1040679069253017 59.4136955929662705 12.7693907346188222
 -5.7969380612427379 29.4459144040254124 17.3500281543418815
 -5.8047122164736811 29.5989101564072854 13.9934706426701183
 -28.2073635593272805 59.5390280408104431 16.1122042497897979
 -8.5393782270142093 27.6032248522571599 17.2824705015349487
 -8.5751531167848274 27.7494446182778631 13.9265483530575498
 -25.3093606820416959 61.2833610391763344 12.8173655656919365
 -11.2807909384626051 25.7643528834828572 17.2464289078020947
 -11.3511759757304880 25.8981419294987560 13.8906543506494184
 -25.4648087769059508 61.3771193877473777 16.1598925044566286
 41.0552179926072327 57.7032827614969008 16.1260861971526737
 41.0981013061355327 57.5483889367460364 12.7827605470800467
 -22.5244034211642372 63.1550686867110613 12.9194023161609355
 38.3164256144717683 55.8685412961072387 16.2035131315607153
 38.3004605875550510 55.6881658765796814 12.8603266768746050
 -22.7206729606805773 63.2161191102210225 16.2621771747951378
 35.5126587401065805 53.8360788373745791 12.9938309085728374
 -3.3092175885505672 34.6102668113905096 17.5662814563455854
 -4.5806465428076164 51.1988210798811352 17.6022333563301956
 35.0410504317813434 60.5259831014120451 12.7053110856777618
 -11.0482197690813155 60.7032339701623513 17.0739997393301408
 32.3893189523739409 58.7925281871572452 16.2033592031639415
 13.1809425676886249 45.8219144204796649 17.5814369703469211
 13.0673851140669335 45.7842652343487728 14.2203716366466324
 -22.0359183430943766 53.3174885047942695 16.6660454937441536
 24.1650470331113567 53.2690818848536836 16.8582805024240976
 32.2525126593182776 58.6668913997649071 12.8603540574400999
 -8.1114884290446909 62.5099426977191399 13.8391360673439401
 10.3464852839568895 43.9455365971917757 14.3122747329815567
 -8.2883745033136140 62.5557766691317170 17.1929161133880690
 35.1308436632156642 60.6281747764344061 16.0481227407194673
 -21.8705567545536113 53.1572027399294527 13.3195733136419534
 37.8415511984718478 62.3919338990750063 12.6095519020011011
  7.6817814835250697 42.0818470835613496 17.7275223935136665
 10.4321113608052425 43.9522725671916064 17.6747100281459701
 15.7891414904351333 47.6221834292617032 14.0904817997300658
 -10.8462710822557931 60.6355215848482629 13.7225563950381613
 -19.0977424300847360 55.0220162842546543 13.3864135097363448
 23.9769031490587565 53.1311335685807506 13.5096843342969777
 -16.3370943655881007 56.8902128955649147 13.4845462093608912
 26.7204607838204282 54.9707889703486217 13.2799100453799515
 21.4214722355112492 51.4147658242531804 17.0807954536026401
 -0.5439089224927112 36.5711210768515542 14.2871456321820123
 -13.5875647269062494 58.7620686260712617 13.6009484782948071
 21.2428681387073119 51.2946022148337377 13.7291877029836229
 26.9063892035805878 55.1155770367904694 16.6261542154207227
 -13.8016550604620214 58.8521298869283456 16.9500099247917895
 18.6758743954737412 49.5547872188883147 17.2803573536564770
 -19.2936379103827989 55.1580454938928071 16.7335613968632195
 18.5138368665147404 49.4589840563902143 13.9253708373325580
 29.4785908626332116 56.8159239477558273 13.0574366561653381
 29.6473678105183183 56.9556210365026914 16.4018287394700302
 15.9287703797059041 47.6899163555503591 17.4491374410063145
  7.6258176614855362 42.1047062060474957 14.3645742152900180
 37.8721353996143932 62.4629153641639832 15.9522658382183522
 -16.5496161652661868 57.0034486361659702 16.8324445998875021
 -24.6526189870284149 51.2956316726883799 13.2930663727940779
 -14.5323398564984654 30.5421622561035200 17.4184966858137962
 -14.5664690610304444 30.5997481904073965 14.0587163963982995
 -0.5657531007133058 36.4714291183844068 17.6490417274784441
 -24.7767665488554982 51.4802120894080986 16.6401550941826848
 -24.8708588474897638 54.6102963994499291 13.1069190917502887
 -11.7923364499735950 32.4505468181002783 14.0821942597101692
  4.9053234540910049 40.2617746216058094 14.3761008754593682
 -25.0121135690196290 54.7786795757068035 16.4514496539070478
 27.8637382959427313  0.2437110617849422 17.2980820870530572
  4.9309260540744022 40.2098226439864632 17.7390589750530943
  2.1832846912321338 38.4170959508288945 14.3479464936234233
 28.0069816295021035  0.2194054947275639 13.9416436470694016
  2.1809911372096180 38.3385541840040744 17.7106307052244354
  2.0251304876879490 53.3028108482340599 15.9921424045301688
 57.3787582785455825  4.0213370547779332 14.9065537113540394
 -23.6390971364633948 49.8042606939507522 15.0932012786166965
 -9.6523881708322978 55.7722526890661143 15.5952995237137237
 -14.6664121442844859 45.4581519671073551 15.6481825948080182
 62.2294893296485796 17.6621147192338981 15.1335129295905038
 -21.5547222768799358 61.5893444324436601 14.6831410572918681
 55.7769744576972855 27.1471087363421155 15.7072803391510369
 53.0216227663772415 25.3003341834177391 15.7492359645776236
 -30.2992583387165233 62.6772471663089590 14.2828552875118540
 59.2394789319673265 19.1110769406241303 15.3290713302574311
 54.6260959947513456  2.1627682714785537 15.0827118376195770
 39.0587407687777883 19.3244930075902239 16.0511337455521854
 48.2338697174845024 11.6891186643672285 15.6297506982035959
 50.2700178799129134 23.4507359103382811 15.8137502969790695
 28.7764384234255601  1.9552992497410480 15.6433742722678648
 -0.7152053143892841 51.4429588967071254 16.0067080969560891
 62.8986932917120001  7.7361829711992005 14.6388567303146218
 -12.3960645282642279 53.9127414558448237 15.5043038057895775
 -9.1767607800903157 49.1664908290757481 15.7975211801613806
 -27.0834979741621673 57.8804957180934778 14.5340509632438994
 44.7819132259095838 19.7401000964746203 15.9489267776884311
 41.7980454208726613 21.1833707046252968 16.0357024152912331
 39.9918413413961673  6.0989068553387860 15.7905979124683924
 59.4686441607814373 15.8124241495454818 15.1654464492104868
 60.1361273026746943  5.8791630417955991 14.7539605592553240
 26.0286571558718727  0.0915027564653472 15.5369390860708609
 42.7400961153753656  7.9629366352259625 15.7588939252985831
 47.5241066474382450 21.5967933263098111 15.8867501227271610
 -11.9190640080241703 47.3105492505287373 15.7199828703702753
 63.3389487253112122  1.0890251142866922 14.5096854157056185
 -15.3743564594924944 55.3603745562099476 15.2793116058563534
  1.3313546606711730 63.2240641224440481 15.7981851959722359
 -24.3172074683403459 59.7336293811455974 14.5836164525357344
 11.6117957329998180  0.7474318785130750 14.6099188924259291
 51.8770390571576812  0.3029213480474852 15.2674661881991423
 37.2432028848657026  4.2351118565427255 15.7973298246011122
 12.9964175477792168 60.7457196580402226 15.6093738054489659
 68.8772138884486793  4.7980955299898653 14.3087217032673646
 22.6114221593279154  8.1736095065832597 15.3840683412612140
 30.8374817058872743 13.7494323039753574 15.8668323395743176
 60.3561356297414520  2.5583883868706145 14.6935345576788627
 50.9810613524313681 13.5492104088889533 15.5434688194810011
 -4.1628573559346282 59.4968981854477974 15.7395491223558448
 34.4951322102947913  2.3708623773612421 15.7798239191235972
 -1.4159142887573894 61.3601514371654631 15.7806546550691298
  7.5078123081802559 57.0229752814833191 15.8616133260907421
 10.2510061067018441 58.8843644298068227 15.7494591582961387
 -27.3057623207252540 61.2027499709473872 14.4034497636260301
 57.5997530252955841  0.7026477438433298 14.8764316955179154
 -20.8793734859106301 51.6524355004821842 15.1209131664526542
 28.0963632804470684 11.8913148286236581 15.7339077040035615
 25.3546813085443965 10.0323553894993704 15.5708851984621059
 -30.0764996823096062 59.3503984087751846 14.3867947026669754
 63.1181124898163262  4.4141789748051812 14.5458213574702295
 19.8662606041835907  6.3156915654087786 15.1822091848111427
 56.4821144109548143 17.2611973735748450 15.3794546855639904
 36.3191339102948874 17.4654858042284573 16.0283052381452755
 -20.1772996767616419 41.7645148392832795 15.5810409601689575
 66.1054508736675643  2.9437049931413055 14.3784994093139264
 -18.1243102433968275 53.5043759288728396 15.1863013055654186
 -18.7980724455006722 63.4459419038484214 14.8231727907747910
 14.3683561398886024  2.6025051121649816 14.7794889285266837
 -6.9084766472959425 57.6339688438436539 15.6762140629658528
 65.8856326444211362  6.2700677393247721 14.4480440904422256
 45.4874440855883435  9.8266713527463310 15.7040152564780868
  4.7660927333261576 55.1624587710609120 15.9431031141407580
 31.7472933602254379  0.5065176806032962 15.7391124210117805
 17.1191012548101114  4.4586364207252709 14.9756959523388158
 15.7426866450413083 62.6072792612475482 15.4465008380975615
 53.7296182841917087 15.4070780667202953 15.4556552220145775
 33.5785088041356303 15.6070966778438383 15.9659833827580204
 -24.5383417272725488 63.0571404762721315 14.4807960140531549
 -17.4200546306539081 43.6101184820005940 15.5985831722880537
 -1.1883550914661520 58.0510659856358160 15.8471294405871497
 33.8150416971813073 12.3023502031944272 15.8983374398247950
 -6.4366501931519151 51.0247931247351261 15.8645848713461710
 -12.1598006501320963 50.6101066121399796 15.6210660075658421
 51.4331952783768926  6.9308180936703065 15.3458447718892312
 39.5364272813933368 12.7170457557318262 15.9175815001333412
 -12.8536292684388762 60.5310965646330885 15.2835558813498888
 50.7475642333375845 16.8522601085550825 15.6540466614594518
 42.9638779132350734  4.6518027395220169 15.7092146180262926
 42.2800610453496617 14.5780315040056809 15.9126020151770486
 48.6841391021261103  5.0679093738715775 15.4749350405302604
 -14.9056965722622810 48.7553634899690636 15.5411481319133991
 36.7913364539173742 10.8559873259194930 15.8915225559139603
 45.0224596487883986 16.4382123659223893 15.8783136972982621
 -10.1063969619976177 62.3934666138780329 15.4145869137458078
 48.0022165424478189 14.9942208836079516 15.7291044391700900
 -17.6570775501998618 46.9047126502610041 15.4792765291418775
 45.9355057988336171  3.2041940942403113 15.5915343849406263
 47.7649242289084413 18.2965046681147534 15.8203991175397469
 -4.3879087115641484 62.8079515864297733 15.6767357361085153
 45.7127934516385892  6.5160370877896536 15.6341747186983913
 45.2576380458913690 13.1342004953394866 15.7905950917634144
 -20.4139765275890035 45.0580489205043833 15.4475065395998286
  7.0507200768788945 63.6406898234484402 15.7667132898656632
 43.1865190496106734  1.3398547434917258 15.6899418961032922
  4.3036361608170477 61.7767851570365636 15.8190561235691458
 54.1836842871419790  8.7926044573309614 15.2156840191017775
 -21.1078923134837879 54.9577574103589583 14.9528764168975759
 62.4555789002362047 14.3606124263370329 14.9483546914502430
 23.0587567754678844  1.5430278091458896 15.3667781929637766
 59.0070362458090827 22.4063607300980436 15.4786908717275988
 37.4664046347689279  0.9229154981996792 15.7920917956487195
 25.8062669156345805  3.4057455927443052 15.5141989617964846
 -3.9326227125300011 56.1888529496677549 15.8220034649747276
  1.5571614524535016 59.9136194960040314 15.8460248662819598
 59.6937966484666660 12.5081692402879661 15.0038040981848297
 53.4957092167659027 18.7076078323363859 15.5771271309914798
 28.5533532180062473  5.2687255499986527 15.6444929962010857
 56.2495726565227159 20.5584557675873434 15.5141241200446576
 -6.6754542311976364 54.3275512442940141 15.7720742051582565
 31.2998757428233212  7.1316145638197384 15.7528770286690509
 56.9366666085476041 10.6519380578528402 15.0973095554717869
 -23.8679993253741927 53.1066323165927869 14.9040435589634619
 40.2149104614316002  2.7872423804000790 15.7623679514588488
 -15.6018899283192329 58.6704074862572114 15.1548201871302322
 34.0456633777881592  8.9942030617902073 15.8357459546029116
 -9.4172111168488968 52.4677053288570008 15.7023335229425136
 -18.3527807262303781 56.8124909014082036 15.0401727682768911
 -26.8587368371358899 54.5655468953541174 14.7044934419748135
 53.2594144666400879 22.0050163735712374 15.6780120868851505
 -23.4072132243373403 46.5070325676564664 15.2811273089562452
 -17.8921809245955146 50.2023554518497619 15.3378935962381888
 54.4054394340334539  5.4786183406806650 15.1299612413949411
  1.7879629418304042 56.6064339911613743 15.9148281701686294
 28.3274487498108911  8.5812383037475062 15.6771952127985141
 34.2716561649935230  5.6832650638503504 15.7937847987597522
 53.9588125016201730 12.1024225025409251 15.3290846895802328
 51.6548642192346108  3.6173450827699432 15.2874080756216859
 31.0714429504319511 10.4422411276319806 15.8022437743849178
 -15.8247499294632057 61.9855955456310497 15.0547246018508236
 25.5826333856436321  6.7198847792238228 15.5269888457888481
 -0.9547212944241150 54.7456181652423624 15.9278497408831630
 48.9065031881348347  1.7549503227079446 15.4420114144337735
 -3.6962478004041581 52.8846904975179228 15.9103308394841676
 31.5242066128115148  3.8192918662626130 15.7299089080405921
 36.5584312853787878 14.1619630770160523 15.9628284120861306
 -12.6275410486743205 57.2194289986314004 15.3860887157845259
 -13.0761682814606104 63.8463320701896535 15.2097776110180050
 65.6653212726472049  9.5912537948496528 14.5741350338238576
 56.7113452479047453 13.9595402124836436 15.2346135964155458
 39.3004869182154550 16.0216075279224377 15.9923438452045783
 -15.1419681197306346 52.0558072390438937 15.4136895986785110
 -18.5767991613701930 60.1267937529684744 14.9146503112417594
 37.0191784232883521  7.5465728196643873 15.8325996161816587
 -9.8819750233782351 59.0810755324265600 15.4943762728362966
 -7.1353803861194240 60.9441177983730853 15.5939385612130579
 -6.5588807085170098 12.9049025495907586 14.7430730445819265
 12.7708583002272000 64.0570405251344965 15.5831596171820834
 56.0143142201743913 23.8535034838855502 15.6258328381182299
 42.5125770057286161 11.2721566823665214 15.8307822474029152
 -24.0940247314320501 56.4162632821126593 14.7293550464837590
 -13.2308554187115650 25.7002515930872093 15.6035874329718940
 62.6781417430794932 11.0524819104145990 14.7780182386739920
 48.4607889789153390  8.3798621944356491 15.5404477346852605
 10.0232254381513428 62.1936902293055738 15.7049075601310673
 -20.6477994903567925 48.3533972200186071 15.2906802824056633
 17.3413185013525926  1.1386478193519396 14.9919562107388291
 59.9161951062801137  9.1969050540828956 14.8616771790651878
  7.2767526326910659 60.3301534215322164 15.8023575242554397
 39.7663611602475058  9.4093833723091258 15.8452990008228962
 20.0896743647462586  2.9983386908484415 15.1749700299216244
 -21.3330222258129254 58.2702572145427382 14.8023803466467463
 51.2089848737451305 10.2421256466249577 15.4351103360305402
 57.1588653502702400  7.3387019116833834 14.9836001378544292
 22.8365620502769069  4.8585998749559334 15.3570571403010856
  4.5316375399060851 58.4677817174795393 15.8726291775684523
 42.0413949579703043 17.8814975788039270 15.9866377387781000
 50.5096765810331050 20.1526017089539806 15.7483868403058871
 52.3034422240411061 35.1791243320628908 15.7550726638381491
 -3.4545037638138125 49.5829870768940637 15.9866639271060862
 15.4429357206841065 27.6658255772806569 15.6669775340377448
 16.9344572855533251 46.0697571340462915 15.7567459315701885
 12.7072677918148305 25.8209065935118645 15.5544796772415950
 19.6699226446285493 47.9185729281450250 15.5963975220584512
  9.9697376208742075 23.9768482152187126 15.4161020389448140
  7.2293682440946796 22.1335047003324306 15.2598883845933777
 22.4067823611308086 49.7645140828279366 15.4053236400209599
  4.4845401635199034 20.2898343058395874 15.1001930726549976
 25.1454642158513764 51.6079897348946375 15.1901739010425576
  1.7323131918194943 18.4456777544551009 14.9543852122277059
 -1.0273656190733629 16.6006710367199126 14.8368163490337928
 27.8878628867061948 53.4492993610171254 14.9634121761800341
 -3.7920325582226524 14.7539503902853415 14.7626342034179512
 30.6371000188702283 55.2896076698695893 14.7433124197234431
 45.8359636280288569 44.6627750713287455 15.3155231047826295
 18.1772137325449528 29.5112027070239229 15.7488416490045431
 14.2002728617474432 44.2186522621275060 15.8815327997756004
 20.9114430968236853 31.3568295080361743 15.7960846245660917
 11.4658338659108114 42.3657414817378779 15.9680392368514177
 -6.7830931884776522 16.2101123911251719 14.9393640815308242
 -4.9616679003558390 31.2376636759538826 15.7476970301140948
 45.6024697052451344 47.9586212664790992 15.1112504156149132
 -2.2155447748954287 33.0882403450535705 15.8391823578638871
 42.8426260280248101 46.1147359824781731 15.1753484547299298
 40.0865798171246368 44.2717943793023849 15.2754497982809170
  0.5242156522343094 34.9418607216090251 15.9258009754501764
 43.0789267999053038 42.8189933821143072 15.3881423693965509
 37.3364761282742137 42.4278432901121860 15.3979715530404615
 34.5930483591755049 40.5829691218000548 15.5239742179363578
 31.8540605455732546 38.7378684700362754 15.6362310316376352
  5.9958749958507678 38.6545933668810093 16.0227961000510781
 29.1171844197411289 36.8922866699996135 15.7249836139031007
  8.7309606896267571 40.5111165509228215 16.0153602708476370
 26.3813857732610053 35.0471572014490320 15.7831417366230955
 23.6460893943041484 33.2021682835323233 15.8071719890026117
  3.2606489192166483 36.7976167585251801 15.9908399903076361
 -4.0189875772688373 18.0568759576803473 14.9804774728003700
 33.3948560871141709 57.1313017842143793 14.5490901218305151
 36.1598397890442911 58.9767128761707013 14.3979533013057655
  4.7220287969009807 16.9822789696465293 14.8789849515778929
  1.9645437667222145 15.1383427371936161 14.7312040411142622
  5.7470373292253996 41.9568214510031794 16.0760417643237830
 -0.7998193154941594 13.2921053460207084 14.6219281499540177
  8.4828941763103991 43.8141184690347956 16.0417481582877137
 -3.5681843766300427 11.4430468175480762 14.5673658008380063
 48.8302415767502893 43.2128997261037071 15.4542923855656795
 11.2181776210179294 45.6695931857806414 15.9664142031194309
 46.0725116381905977 41.3685732417052563 15.5011035216801591
 13.9529700678039656 47.5237913943576515 15.8512973151505445
 43.3176840062945843 39.5242622697708086 15.5783462658016578
 40.5675310981929016 37.6777067171102189 15.6743559142412998
 16.6880899079581049 49.3766646884512426 15.6982536058761060
 37.8237037214479699 35.8282225431236583 15.7709669760095625
 19.4248202030270392 51.2272313548496427 15.5109898257060443
  3.0110260767180974 40.0984106663481441 16.0687156752581686
  7.4714610195357469 18.8244949122574177 15.0519748874868675
  0.2746775550172898 38.2408889004555022 16.0235666766504821
 10.2147195398306305 20.6660978285713668 15.2342352994545465
 37.5793417117932691 39.1277916667904861 15.5987947431319043
 34.8382534597159648 37.2797349512293295 15.7012667483605028
 38.9304729686761561 60.8260788860852486 14.3063259618317069
 32.1008195333420829 35.4313302209185110 15.7820105477166166
 -13.4681418169884015 28.9927804945992378 15.6981226309165436
 29.3650059042314275 33.5831563985083648 15.8332540847775647
 26.6298245530701827 31.7358595622946069 15.8500091017625557
 40.3258459320370974 40.9746285137524353 15.4877891915799015
 -10.7103734021032686 30.8378649278974457 15.7262592733682158
 -7.9550554101380166 32.6834013215804120 15.7846540616619286
 21.1603856551404803 28.0435519056207845 15.7757224792996027
 18.4259997037658074 26.1976569957088223 15.6840588499040656
 -5.2055977063270538 34.5324011956760302 15.8644727534350647
 15.6909060129753772 24.3522907940873097 15.5596061428650945
 -2.4632563100766109 36.3852423965529042 15.9505069530455188
 12.9539707143287277 22.5082064259053567 15.4075771918190725
 23.8948326569092764 29.8894373005861844 15.8310356949937230
 35.0847280892517190 33.9775680605861083 15.8497201681236461
 -7.7149591477747714 29.3905239065937494 15.6702660665605951
 -10.4724949939447480 27.5455672553079758 15.6193121119406300
 34.1063653996961591 47.1928048174625658 15.1130198286141546
 39.3838341746167373 54.1837838616473064 14.6132632446152524
 31.3620590168546229 45.3535249432708198 15.2827035188644231
 28.6223909814638446 43.5134152378943284 15.4434558812346001
 42.1507468620506671 56.0304797924884497 14.5423932042904109
 25.8850793458176476 41.6715080561757034 15.5831805998190038
 -10.2362195105614529 24.2526021138596271 15.4806094394792222
 23.1488750534227528 39.8281298165299660 15.6945622010296262
 20.4133926420543084 37.9835394695931328 15.7733447648854046
 -7.4772350996960881 26.0978358691891117 15.5214595947972800
 17.6788552253445452 36.1381233781977045 15.8171809281140785
 -4.7211497666857767 27.9435676819731960 15.5944672166660752
 14.9449374105068689 34.2916334738399158 15.8247502306596708
 12.2111559442411348 32.4439633250919002 15.7969750571839391
 -1.9710917743202958 29.7921463326926172 15.6890567188139993
 36.6215338436012132 52.3407156333983608 14.7386940685030883
 36.8575144808096766 49.0323577165004920 14.9532658710709185
 39.6154335285745560 50.8736829985303558 14.8226683356323115
 33.8657562367779050 50.5013950623603662 14.9040376498961695
 11.9622901027479980 35.7532121908580507 15.8820994657821313
 17.4303663755793998 39.4503614998434387 15.8185998625710820
  9.2283145935797002 33.9016421656628779 15.8602613453155978
  6.4936224354201224 32.0489305087141929 15.8041446588233168
 20.1650830417327604 41.2962724314030396 15.7318558589161519
  3.7568615862468135 30.1965955504607493 15.7187851845555731
 22.9006804437754781 43.1408774079410406 15.6104418792569746
  9.4766264614641518 30.5948234605430542 15.7360153731346326
  1.0164650078655471 28.3454766033776870 15.6140003131340066
 25.6372778921072921 44.9837468571198613 15.4585940826388484
 -4.4835277105745206 24.6496646212506718 15.4099330270937216
 28.3756626671959040 46.8245287768335245 15.2822958411322993
 -7.2421198093880044 22.8043937658336517 15.3438042136591886
 -10.0028692647003243 20.9585504100682520 15.3156331426087888
 31.1175706009001658 48.6630717753980591 15.0919998318530002
 42.3786039495726286 52.7180798776349988 14.7359431532934551
 -1.7299921636871267 26.4964669704334064 15.5049047613856157
 -1.2580447691448542 19.9023675272734870 15.0668689827164588
  0.7718154091505801 31.6434892539355630 15.7881540192516976
  4.0017135355642628 26.8957193322514776 15.5328402194752613
 25.3905552955143214 48.2958100075473027 15.3251449424824511
 23.3973378918975889 36.5151052100201454 15.7609717952148110
 28.1304430242228527 50.1361174419872881 15.1186522580356772
 20.6622809000895415 34.6703801261394133 15.7950559635957362
 17.9279925203846808 32.8249178212063057 15.7938397461035525
 30.8755824442076552 51.9748572273246481 14.9074527502143166
 15.1940913483149291 30.9790570434949686 15.7567488361984953
 33.6281982276712768 53.8138562525721724 14.7110726950603627
 12.4597177522766991 29.1329216435496043 15.6862054022150286
  9.7236788747250458 27.2864890140919556 15.5857248434374789
 36.3888623817630332 55.6555134950071206 14.5484620378303067
  6.9856406183611170 25.4401337116750632 15.4612718257628785
 39.1554999454419956 57.5015511267202371 14.4360812123890039
  4.2441705980931124 23.5937448523070437 15.3230543415692715
  1.4969397306365533 21.7475718322024996 15.1859387268974402
 26.1332018109384698 38.3591904533189663 15.6929517830954328
 28.8697434224267724 40.2027325001334646 15.5932780684416414
 22.6530225098550595 46.4532507127768923 15.5122674053403244
 31.6077542076483695 42.0453136922033437 15.4674419989507328
  3.5097371623663491 33.4970557514808860 15.8732383985718801
  1.2581901001096529 25.0471733746138483 15.4101614912313281
  6.2451225704295075 35.3519259708860432 15.9313441894122896
 -1.4920943147525205 23.2002527051202172 15.2941509333946382
 -4.2494758399423489 21.3547094151341419 15.2016845603234003
  8.9795236935109184 37.2070746779011898 15.9542332564021692
 -7.0107353692028829 19.5091115295813466 15.1455248992449327
  6.7405791054364297 28.7451505152827735 15.6454227902742193
 11.7137403923522037 39.0605096515561883 15.9395105650928741
 42.6091737162240278 49.4134463350206588 14.9526981472301568
 14.4480736252352102 40.9118591257288529 15.8876043624840335
 39.8499229444216425 47.5705994869839941 15.0487086410154376
 17.1823646223169391 42.7609789783899075 15.7979818407836383
 37.0958351332411524 45.7288350464046829 15.1780004839954756
 34.3488868804587000 43.8870323451207369 15.3242748550429511
 19.9170032985110197 44.6081710508040175 15.6716085201775890
 -26.6308448858725981 51.2586674167712744 14.9022216881526059
 32.3482987112940918 32.1259308889503501 15.8995614323766166
 22.1627778292695332 53.0752169610352382 15.2962257463826834
 29.6131641622340425 30.2747775153153462 15.9142556520496257
 30.3536019679061120 20.3581239881244862 15.9708485854077420
 27.1907246007631507 63.4017915656953122 14.6877835896650719
 27.6165632940171015 18.5041511023884091 15.8564697102847312
 24.8801154477906472 16.6501658935981602 15.7048657123708040
 -16.9422476761478507 37.0241602160996024 15.7466405259315128
 22.1432448275637057 14.7968797717828870 15.5198009987436016
 -14.1863420982407291 38.8695694838862877 15.7735392681832689
 19.4041920322190045 12.9452156055394969 15.3082914117027808
 16.6622542421898174 11.0953640273363554 15.0808419699173388
 -11.4338721326760986 40.7171090220156771 15.8285882821121184
 13.9165965560654179  9.2463857158188834 14.8515587707799046
 -8.6874313122918068 42.5689639832540223 15.9027245248842739
 11.1645428291076509  7.3975195737864183 14.6379581612286849
  8.4046321205689729  5.5477136087867738 14.4562212101113126
 -5.9467515369289963 44.4246099090374500 15.9779822851463820
 24.4366763980218131 61.5495624263008168 14.8965335968510981
 33.0912262695276596 22.2134989519679493 16.0450359488923375
 35.8285828325417057 24.0708341916591451 16.0759749424590410
 21.6888241979217646 59.6971585217659566 15.1203815784087361
  8.1781540466100324  8.8738466343864992 14.5381527556065127
  5.2513640762599749 48.5595837074993071 16.0670074788802459
  5.4142334690358398  7.0253895806684801 14.3797976742431572
  2.6439731990970770  5.1737720136032719 14.2753839383236478
  7.9890689642942778 50.4174311197869258 15.9940998981825988
 -0.1301994780696524  3.3214267648805369 14.2377436595852842
 10.7266595643250078 52.2748562849970781 15.8821221027481609
  5.6378141361540157  3.6958998895073480 14.3199576037753058
 14.6961113721100674 37.6027497893868343 15.8685783320566891
 13.4646869399857714 54.1319666312316272 15.7330507080114774
 46.7943415871194617 31.4877498213721800 15.8638033842434574
 16.2041758968345633 55.9886532919498521 15.5507295181495664
 44.0467473905645264 29.6377884319682039 15.9434999286423196
 41.3047135777805110 27.7842210057675807 16.0165439382923331
 18.9453830712449758 57.8436943447509719 15.3430756439477278
 38.5661590367156677 25.9283959828741430 16.0645372351466484
 49.5476697617035100 33.3341918376790929 15.7973444795872400
  2.5136470812019711 46.7006843091739725 16.0998595029906006
 -3.2087582557705927 46.2825510221353724 16.0362397656334892
 52.5430060419864589 31.8868197241306497 15.7891549859908054
 21.4614591048331924 63.0117508822263375 15.0799194457120063
 16.8937931230547029  7.7779344916880362 15.0065182360142728
 -17.1817161333397692 40.3169371403255639 15.6891659909899417
 14.1449114629853536  5.9250302901871628 14.7895331280377782
 11.3897020849369461  4.0727704767882180 14.5945845174461706
 -14.4266326878989570 42.1630779641962405 15.7271107701792747
  8.6275536102114057  2.2196011889329750 14.4362923401463448
 -11.6764225662558889 44.0129012533827719 15.7907781632522326
  5.8601079212980425  0.3653222825090417 14.3280962825186577
 55.5387114631591672 30.4398008137380529 15.7556241878892109
 -8.9327497202340602 45.8670811941204519 15.8670142840923134
 52.7824243537030782 28.5940347186184169 15.7869165754515315
 -6.1931634983391648 47.7241659734817247 15.9370281296678833
 50.0291042826153713 26.7467774248915191 15.8445534470518297
 47.2809902340045767 24.8956645265324781 15.9176676200846821
 19.6383679463024201  9.6314891488205738 15.2289300715799829
 22.3805828832078575 11.4862691101716354 15.4425581256665030
 18.7150013473640513 61.1544776030458621 15.2878362246081494
 25.1203839228533461 13.3422028646101545 15.6356977128387058
 -0.4710278460201633 48.1418629505198012 16.0657138497029379
 49.7882154005699959 30.0410695993909691 15.8393091375719379
  2.2674596215132845 50.0014938539384133 16.0591800708488073
 47.0373433869720259 28.1926029662426920 15.9099713215286052
 44.2926958359606218 26.3399895714108716 15.9863905679267564
  5.0066252930202362 51.8603369469933924 16.0141104841402324
 41.5521956210131549 24.4843798992468002 16.0474610955602408
  2.8662833739916875  1.8425291746583246 14.2440060786770566
  7.7459593136663756 53.7191905269601762 15.9316975930799032
 36.0750311269842499 20.7681314924708253 16.0701378879165482
 10.4856039403893480 55.5783970948209785 15.8140566351533298
 33.3363086022643600 18.9104613039335661 16.0197267902846541
 13.2268487468586873 57.4374967791997051 15.6636027525870229
 30.5974041418705305 17.0541449989842029 15.9283043200774035
 27.8590457975061199 15.1983700400919446 15.7994342092137252
 15.9702672396092460 59.2962339050920306 15.4856516978895371
 38.8135147691947822 22.6266371563250743 16.0782774598371994
 10.9341270964417667 10.7200696082259679 14.7361842540376848
 13.6820692345759571 12.5651765223764968 14.9589032956451415
 -0.2235936297513544 44.8411772257119381 16.0924319778239813
 -8.1976634611041543 35.9771132918900847 15.8615690071782343
 49.0678196590646678 39.9197613682456449 15.6023720018784413
 46.3119413133695090 38.0750355224240167 15.6578337826469323
 -5.4520952156267883 37.8284310230076102 15.9422784706413658
 43.5588994844742317 36.2293981474721321 15.7371671648204678
 -2.7121939668197070 39.6833734808294381 16.0211174612311886
 40.8115859748047569 34.3806157520512983 15.8275078673245684
 38.0701322847743810 32.5289559944157531 15.9087364918661738
  0.0252215680980313 41.5406721355246162 16.0793765131858741
 35.3324010778015065 30.6755904054843818 15.9643331765494896
  2.7619569296281181 43.3995478832757371 16.1047617555099336
 32.5963218848810143 28.8212039860232352 15.9847720477835420
 29.8609200450563428 26.9679499380610288 15.9653511291577015
  5.4987359992893916 45.2586598075278630 16.0898528699505299
 27.1252538983664770 25.1168122016500277 15.9061551426109400
 -3.3461437457494609  8.1239455881179765 14.4109621908497214
 -10.9500384315941215 34.1299536471033065 15.7974550813041379
 -0.5741729588082930  9.9752694846642083 14.4397132134133201
  2.1939543021084753 11.8240790518358363 14.5320608514627878
 24.9032180099901019 54.9205542439294518 15.0642426598082384
 26.8780245496894707 28.4254522782879349 15.8913686900398510
 24.1429361352664458 26.5777854622708496 15.8315549589335873
 27.6493520511757183 56.7639944172243958 14.8312414194437689
 21.4083158438494081 24.7307309283861620 15.7346562767480673
 30.4037686965182239 58.6076539525759372 14.6151949067669964
 18.6736762683154858 22.8841190614812469 15.6021677505424332
  8.2352431236045600 47.1161693901043463 16.0333357148882101
 15.9377302146357938 21.0386389551957720 15.4390833485684045
 13.1992900741903458 19.1953115453245786 15.2518494902662152
 35.9339089447067508 62.3037014927194974 14.3020180765495937
 10.4578804672186205 17.3536105462297598 15.0503343083351933
  7.7110130176197291 15.5122596986536205 14.8517003116684467
  0.0918591754745008 -0.0095663617902930 14.2374626206692749
  4.9565523134521623 13.6696326628405664 14.6744187543193068
 -13.7065538648218137 32.2848816301521779 15.7595246084783795
 33.1657480690463871 60.4540029180131882 14.4328363222834444
 24.3900085439118399 23.2672178240325493 15.8090832253578277
 21.6551695778314723 21.4184853926135510 15.6748448772487858
 10.9713581294910014 48.9724423199961976 15.9363266625128581
 41.0574451619971441 31.0829066565396239 15.9426320563361372
 -16.7027846380859657 33.7318317128698837 15.7689488883129325
 38.3178483468843396 29.2290124116678314 16.0076030285261020
 35.5807445301675713 27.3734504901298088 16.0407041800937087
 -13.9457713651510637 35.5769410394034722 15.7847200217489636
 32.8443620191479013 25.5172791714284415 16.0339260139373501
 -11.1914227249718916 37.4230315855110192 15.8311616762316536
 32.9402011939471322 63.7806620308088128 14.3733689096216146
 30.1079424223834131 23.6625298476469617 15.9844807619023168
 -8.4421701195670327 39.2725308214846294 15.9008817881302704
 24.6359788545196032 19.9581771372574828 15.7653176393057244
 -5.6994146522748030 41.1259827180373918 15.9804208694209233
 21.9007410979916308 18.1072126803700968 15.6005742633160001
 19.1641902055101383 16.2579871553054538 15.4053714149129970
 -2.9608126697141723 42.9826343981508927 16.0494330821886599
 16.4247611092923158 14.4107223461389200 15.1877077837931651
 27.3715679950315334 21.8098222572959024 15.8940742472520338
 44.5380664890592186 23.0405616000252316 15.9876230795293885
 43.8017999028209388 32.9341516420757188 15.8598044652094678
 30.1755631946576131 61.9298208951706641 14.5343402549578684
 18.9200270617582866 19.5708838308677571 15.5067556733277527
 13.7073635964681380 50.8278801590834348 15.7999228673421541
 16.1826411664230960 17.7248806945300679 15.3115576111457035
 13.4425509460380646 15.8810855357989311 15.0976352013692612
 16.4444043021425124 52.6824501543576673 15.6266617039350226
 10.6980133955268251 14.0386587955830358 14.8789645786319014
 19.1825666610475523 54.5353211613440152 15.4224024017798129
 46.5525813295927264 34.7816574126803459 15.7796156643516614
  7.9469117479723241 12.1956423074337881 14.6749049963052922
 21.9225108090848373 56.3857854217808168 15.1963924580321557
  2.4203573508313569  8.5020851763067213 14.3745244494883568
 24.6664621691103214 58.2337022450943493 14.9621742523407804
 -0.3516937218992703  6.6509019510971727 14.3072605871079652
 -19.9386183031976927 38.4717495196127501 15.6850864138930852
 27.4173575023986373 60.0811807690243143 14.7361153286066049
 49.3074420039891734 36.6268470628010903 15.7180808903859504
  5.1871744136505225 10.3506362539739616 14.5022595489122814
 69.0983900663686939  1.4684473846802892 14.2710211269479554
