Se W 
 1.0000000000000000
    20.1887291331251468    0.0000000000000000    0.0000000000000000
   -10.0943645665625770   17.4839522994093599    0.0000000000000000
     0.0000000000000000    0.0000000000000000   24.7171056087856371
 Se  W  
 148  74
Cartesian
 18.4065423041976501  0.0889577470856805 17.4718917150118145
 11.8795737511736377  9.2284461224002445 10.6740530860614786
  9.6849544267350645  0.7154524137182905  7.3168593054975641
  9.6851405990967390  0.7123246047404249 10.6763465501345625
  9.4114009573588255  4.0252726389470173  7.3267063782319077
  9.4060289648004041  4.0174378220293434 10.6879579513177170
  9.1474731145253187  7.3208036653642550  7.3267063790888685
  9.1433739602269881  7.3293733562425540 10.6879579512314198
  8.8814260530701912 10.6135966715688266  7.3003783877638382
 11.8799127701463050  9.2023937765321389  7.3144691758844518
  8.8874817753517750 10.6419127890559810 10.6585594445880911
  8.6181150115204641 13.9438880687629254 10.6182038350042163
  6.6927820950017471  2.1484726211285690  7.3003783884247184
  6.6652317570720507  2.1395589731142319 10.6585594452682617
  6.4156762940802086  5.4508397392860912  7.3144691755718254
  6.3932838105942560  5.4375199678950104 10.6740530856499127
  6.1443079826183427  8.7388095245097563  7.3168593055006550
  6.1415061344392159  8.7402121990607924 10.6763465504453521
  5.8689163091627448 12.0290906620773317  7.2976736110817653
  8.6020769436103031 13.9181739857434454  7.2627997466140766
  5.8894037413754567 12.0436319446638027 10.6557647580444765
 12.1429217708584041  5.9008714955859478 10.6879579495247921
 12.4194671337798503  2.5817165838644578 10.6740530843948811
 -3.6786882726560113 11.8755994766079915 17.4026364332137717
 -3.4291328088455462 15.1868802434369456 14.0585461628878310
 -3.4015824713815723 15.1779665932924246 17.4167272210156447
 13.4824021418826678 10.4829552916492492 14.0537448314263944
 13.4996289687578166 10.4576487669991653 17.4125328983621444
 -6.4394803581626787 13.7803576707161781 14.0830618345793059
 -6.4104495295689921 13.7566624805069324 17.4394148117004697
 -6.1540439027405514 17.0711463433489712 14.0989017681613138
 12.1334506236319584  5.9016063692047700  7.3267063782319077
 -6.1237558181821123 17.0721786744965982 17.4543058650150904
 11.0448286439782510 15.6597847317743177 17.4718917171286847
 18.4257486445165064  0.0898154895264704 14.1173391957008310
  8.3121777372798125 17.2374814683296300  7.2452138901470402
 15.3916646065098881  1.1692060138875751  7.2776907963691571
 15.4267006598796019  1.1559121736639002 10.6340437703552251
 15.1181165481015949  4.4856133794004398  7.3003783884247184
 15.1396111635992625  4.4662109116233308 10.6585594443780494
 12.3967356315026773  2.5944491576906139  7.3144691758247218
 11.0344826463072092 15.6759890397192514 14.1173391963365145
  5.5838441283813243 15.3344730971794299  7.2767442938084486
  5.6193397929983373 15.3422252749462160 10.6330133317672217
  3.9706087475251803  0.2542605406961027  7.2627997457929769
 -2.3385039592643193  6.3867763511909290  7.2976736110950462
 -2.3361545538270891  6.3617630734667872 10.6557647574062120
 -2.5924727428514154  9.6912699037904755  7.3182100626136775
 -2.6015052367111751  9.6904635146297444 10.6782382739581472
 -2.8490100852767188 12.9991531843362402  7.3111987457839165
 -2.8655270529813737 13.0170551962190988 10.6705908997745791
 -3.1211813538486095 16.3157679590031712  7.2976736112244049
 -3.1440181905605469 16.3262399530516653 10.6557647572533476
 18.1338890204865990  3.0485017306760120 10.6182038404400050
 14.8630622863781383  7.7934207355016989  7.3168593054972106
 -5.5756290834257429 11.1005115961297349  7.3045727105851483
 -5.5889317618602545 11.1280837288443486 10.6633607770474654
 -5.8411904223267710 14.4161969907249929  7.2767442939344331
 -5.8656518370111108 14.4430610483421731 10.6330133318281099
 11.6167450516172135 12.5086999242024124  7.2776907965211679
 11.6107398273637514 12.5456889551043300 10.6340437702448121
 -8.8534108189981229 15.8274990213268971  7.2452138913557853
 -8.8622711619583843 15.8445610713520662 10.5997664105080016
 14.8656779621824970  7.7951458700334202 10.6763465501413002
 18.1196390046068068  3.0752481485813421  7.2627997454451458
 -0.1286037064536378 14.8916901651012221 10.6782382738784154
 -0.1324215996678985 14.8834646015370264  7.3182100622683564
  3.9403206635984551  0.2552928730875140 10.6182038338490425
  3.6839150368755664  3.5697767358503874  7.2776907972430207
  3.6548842074711123  3.5460815442389753 10.6340437705166746
  3.4052644023556025  6.8687904485695075  7.3045727105851483
  3.3880375751441720  6.8434839238574980 10.6633607772982515
  3.1341253383109788 10.1569004678489367  7.3182100616292942
  3.1393399389245435 10.1494812936007435 10.6782382739242205
  2.8605580255756475 13.4516908158900179  7.3111987451223968
  2.8843201069743691 13.4570439244157569 10.6705909002625212
  2.5795956765637515 16.7623329285930254  7.3045727104131890
  2.6101251826338028 16.7600673197838077 10.6633607769975107
  0.9504640772975448  1.6666544840140241  7.2452138916205016
  0.9401180798328409  1.6504501758435923 10.5997664119413813
  0.6665772894180449  4.9809648845588184  7.2767442937878881
  0.6555430391999710  4.9463486488000736 10.6330133317487103
  0.3976830555308560  8.2807909720818706  7.3111987451425895
  0.3904379420216960  8.2575358519252120 10.6705909003537016
  0.1364103319805866 11.5772116577170046  7.3235921468977407
  0.1364103319805887 11.5772116577170330 10.6865321936214723
 -3.7010807568005304 11.8889192476402297 14.0430525242536142
 -3.9500565838334669  8.5876296911485213 17.4002463026409977
  8.3313840782252644 17.2366237259901887 10.5997664125930697
  4.5054328049268166  6.1983554864556076 14.0537448315012465
  9.9619429670002280  2.4429746142622513 17.3988955471593094
  1.7855482035202279  8.1240454386166050 17.4026364329289223
  1.7852091847898048  8.0979930937268740 14.0430525238202968
  7.5018918238043844  7.6351693118831312 17.3988955470885358
 10.2307748985431068  5.7492275579138887 14.0305734158906361
  1.5163752618011603  4.7807502607192029 14.0830618368909537
 10.2307748985431015  5.7492275579138994 17.3935134624927379
  1.2409537466038842  1.4989401943254375 17.4718917176825776
  1.2320934042778355  1.4818781446824891 14.1173391950695652
  5.2973000406388451 16.1572332020777871 17.4394148117004697
 10.4848025072976263  9.0689033638748597 14.0465147085796360
  5.3323360932466173 16.1705270423977510 14.0830618375326839
 10.4920476225398875  9.0456482428930176 17.4059068631784832
  5.0237519805095321 12.8408258361173537 17.4167272203608157
  5.0452465969887674 12.8602283032783742 14.0585461628132045
 10.7499076056797715 12.3800905667290717 14.0840922771847481
  4.7686977197896203  9.5330184801172066 17.4002463032849874
  7.7582100122793394 10.9646761418671321 14.0613408520504493
  7.2453544807592714  4.3272860315340571 17.4059068631784832
  7.7558606070261815 10.9396628637783753 17.4194319974016594
  7.2288375133798528  4.3093840178182932 14.0465147088370532
  8.0395244532662407 14.2779374841118702 14.0989017683012783
  8.0252744376546516 14.2511910671178388 17.4543058634091430
  9.9657608601968217  2.4347490506480431 14.0388673349461133
  4.2287127293156477  2.8833781670062089 14.0840922771646238
  4.2531741433242480  2.9102422249045632 17.4403613148178813
  6.9503463759906854  1.0001992623716778 14.0613408519364906
 -3.9528584318240707  8.5862270165494756 14.0407590583766897
  4.5187354841390839  6.2259276189251569 17.4125328988677062
 10.7609418567655322 12.3454743319487470 17.4403613149771708
  4.7713133955390941  9.5312933457108233 14.0407590586529931
  6.9731832122541784  1.0106712558841402 17.4194319974836844
  2.0485572043328708 11.4255677202186359 14.0291476592975144
  1.5223804847372009  4.8177392918184108 17.4394148118595105
  2.0390860570122471 11.4248328462526985 17.3903992306797655
 15.9632808756694384  5.2973485533748157 17.4194319979783714
 15.9837683082515660  5.2828072706071580 14.0613408520582261
 15.7137043599698121  1.9842139405259784 14.0840922771644355
 15.6782086955303335  1.9919661162209679 17.4403613149977303
 -0.4094101398164920 16.6109868021065239 17.4002463032880463
 -0.4092239674731562 16.6141146107325568 14.0407590577425481
 12.7044897492448499  0.5663718957790793 14.0537448316197793
 -0.6829636090434050 13.3011665765250573 17.3903992294013356
 -0.6883356017682783 13.3090013937776810 14.0291476588516790
 12.6739602427064089  0.5641062865633135 17.4125328987560479
 -0.9468914521885515 10.0056355502707124 17.3903992285909936
 -0.9509906064275337  9.9970658593254846 14.0291476588148196
 12.9786846730514007  3.8693952902962128 14.0465147083650823
 -1.2129385136084798  6.7128425432818206 17.4167272210217625
 -1.2068827913482378  6.6845264264152009 14.0585461629540767
  7.4928593302564570  7.6359757009128435 14.0388673350709325
  2.3251025677764594 14.7447226327443914 14.0430525234925465
 13.2337045052861217  7.1769579219591169 14.0388673343079304
 -1.4762495543159169  3.3825511467466791 14.0989017683599283
 -1.4922876228948214  3.4082652309532500 17.4543058633800108
 13.2284899049365450  7.1695387477434487 17.3988955474174780
 12.9549225922556310  3.8747483988786806 17.4059068638400021
  2.3023710652930554 14.7319900579522827 17.4026364331662222
 -6.9495229860599377 16.0017382338207526  8.9331824511325166
  2.3063155376398616  8.4273340755322170  8.9949335375784365
  9.1453553987712066  4.1700904964798520 15.7135888952651044
 -0.4280939138439688  6.5375351127479036  8.9748888712113697
  2.5733286575120773  5.1269658939925025  8.9635331147997430
 11.8736963002959470  2.2950957347544478 15.7221720710379174
 -9.9579542345820098 17.4051957575202003  8.9135394674353137
  9.4059118371003727  7.4787969495723852 15.7135888951276907
  2.8556406624763992  1.8237103203153369  8.9335428745885590
 -0.9490091673642586 13.1563487193408957  9.0035167128283131
 12.1410574597889287  5.5987952279946249 15.7135888965744357
 -3.4177702505405350  7.9554734742150037  8.9942616749175794
  2.0466928931609032 11.7276439878410148  9.0035167126453750
  8.8713479172558127  0.8603477919514289 15.7228439337619044
 -6.6681255220779265 12.6919013626711692  8.9635331152691951
 -0.6884527292073057  9.8476422664729224  9.0035167126392981
  1.7793317338440475 15.0313434799938843  8.9949335378299509
 15.1443824623867336  7.0163691402914221 15.7228439338024142
 -1.2230166495449075 16.4660914232610587  8.9942616751012547
 12.6676932240114795 12.1994733221961891 15.7535724948964315
 -3.9458254595919779 14.5859249481353856  8.9748888698993614
 -0.1523754231972693  3.2283501070049736  8.9331824511368794
 -3.6764162756470156 11.2729574166354922  8.9949335380520843
 12.4006801042725225  8.8991051393478884 15.7221720696939222
 14.5983924275571635  0.4136714995264310 15.7535724937877522
 14.8775149367154960  3.7182643035134597 15.7422167391688212
 -2.0385480521358774  8.4279035371233864 15.7177672221337819
  9.6662706524712334 10.7889041027460522 15.7422167388820320
  3.9512703603054553 11.2682965054455835 15.7177672220148228
 13.7860180994923294  9.3774698473596665  8.9957738796345090
  4.2222427617974043 14.5858988529097235 15.7394262353186694
 14.0456349276578312  6.0581427104570960  8.9993383880889048
 14.3166073286054996  2.7405403628289862  8.9776793741030207
  0.4243797993530602  3.2273994342080390 15.7835627346806167
 17.0366045704666789  4.6380471145246958  8.9646294471187087
  0.6990936600081443  6.5344333796834109 15.7394262354290699
 17.3179396671459571  1.3249325717284106  8.9335428744173768
 11.5953032919170465  0.8561754844616335  8.9957738808191525
 -9.9579542345819991 17.4051957575202856 15.8035661412148034
 -7.2387239043296594 15.5027288955249336 15.7835627340726603
  1.2248724910455595 13.1576703028029627 15.7073438916205177
 -4.2288149957199526 16.9156428261522223 15.7524761635595105
 -4.5121054267760314 13.6113027409124037 15.7394262349298124
  1.5009387250703397 16.4702637312575852 15.7213317293884334
 -4.7833612622697901 10.3124018733543377 15.7213317281684848
 -2.3041940117735309  5.1276000462742752 15.7524761622137834
 -1.5034913127118068 15.0354349309230244 15.7177672204301562
 -1.7765380836813143 11.7296182158550604 15.7073438914921848
  0.9608965887215944  9.8443464547669066 15.7073438913771497
  4.5040278610294928 16.9127677154493377  8.9635331147258199
 11.3192370575754175  4.1687689129555086  9.0097617170560405
 11.0552611551181883  7.4820927610015353  9.0097617170247624
  4.7831503698710947 13.6081749122369278  8.9748888710079022
  9.9419891427051930 14.0980891089572840 15.7839231549796235
  5.0500178961476756 10.3100700757142878  8.9942616738618000
  5.3110033041701286  7.0140373422008286  8.9957738807086880
  6.1485391064205031  2.7405142674920846 15.7422167386785823
  5.5822591401007635  3.7151364757448611  8.9776793733105951
  6.4179482912599806  6.0534817991639294 15.7221720696939222
  5.8655495711129761  0.4107963897492821  8.9646294456095674
  7.5111294053689637 15.5015466324234108  8.9331824523559362
  3.6916535330633842  7.9489693681743718 15.7213317281323235
  6.6765943166390613  9.3709657414362155 15.7228439338056099
  6.9422400038475232 12.6883921007333953 15.7524761625939131
  8.0558165145795204  8.8985356782697895  8.9993383880889048
  8.3178264830220616  5.5968209998298590  9.0097617181949694
  7.2235751005930373 16.0015066434855555 15.7835627346806167
  8.5908732536174721  2.2910042851526131  8.9993383882515978
  3.1448415811066677  1.3247009816355886 15.7839231568899230
 10.5187443660615099 14.0990397817251338  8.9335428739805902
 10.7934582271342911 10.7920058361236926  8.9776793730658415
  3.4262390442631658  4.6345378530380898 15.7535724938774013
  7.7901705550443436 12.1988391687965638  8.9646294486274201
 17.6054939718941270  1.8248925824733502 15.7839231538587494
