Mo S  Se W 
 1.0000000000000000
    71.8837182846307456    0.0000000000000000    0.0000000000000000
   -33.2983458908734491   67.1452279563734891    0.0000000000000000
     0.0000000000000000    0.0000000000000000   24.4856654507443388
 Mo  S   Se  W  
 548 1096 1014 507
Cartesian
 34.7186169514313363 28.6659117308325229  9.6027487876762212
 35.2088501558905875 15.8806317372444443  9.6975213064233081
 35.3369142636326714 12.6890679709776517  9.6361438993891309
 35.4698038339911363  9.5011571595068691  9.5507746555421011
 35.6097015115602957  6.3173313964363853  9.4570575799653440
 35.7556947017768039  3.1358624710019671  9.3759752404830206
  2.6078265780844712 67.1010551057377711  9.3246382370228353
  2.7606699498515406 63.9216241202380004  9.3127885455189912
  2.9125947635271614 60.7419157951359736  9.3415398298905412
  3.0612702013697439 57.5612734620891118  9.4036022925989329
  3.2050669123624669 54.3791249847729432  9.4843382780125012
  3.3426086347934718 51.1937776733223870  9.5641346695580776
  3.4734587781469966 48.0047011734244862  9.6252839203125280
  3.6001694628746961 44.8129584882605343  9.6580269327970392
  3.7239470275647584 41.6186718626799745  9.6581315620594825
  3.8466055071129501 38.4232364818915357  9.6234334188444066
  3.9691300145550086 35.2281222355358778  9.5533926204291308
  4.0920097065809502 32.0341730076702618  9.4491076456620444
  4.2159845428729037 28.8423104872302147  9.3128436283176956
  4.3413993772922899 25.6533977443156935  9.1473033312572518
  4.4691626242740634 22.4676775718022803  8.9555037999880014
  4.6001531664469582 19.2853254542928703  8.7413763950331163
 35.0847003209044530 19.0749098810382591  9.7275034052129463
 34.9621938117606064 22.2709429179847014  9.7226972515211276
 34.8405911804484560 25.4683860602013539  9.6812065113966224
 34.5958824762160120 31.8623176067738818  9.4883976030012001
  0.7674847263467155 46.2976121075003846  9.6514682736968105
  0.8939059099522306 43.1033837032798033  9.6701222009581311
  1.0185983186948167 39.9068582398648743  9.6529860898584072
  1.1427539057511213 36.7095050311205355  9.5983868443569058
  1.2667375541026269 33.5122688171841574  9.5066030540611504
  1.3915268760386792 30.3164081297580914  9.3797345872128517
  1.5179036516839126 27.1229465028319652  9.2205779982138836
  1.6466230608267645 23.9322488317904885  9.0314974885026942
  1.7777981442858375 20.7450932197562672  8.8149496995157826
  1.9121542437104866 17.5621618417483560  8.5753694969815548
  4.7350685522244795 16.1063619777828997  8.5109317058747447
  2.0499338464528747 14.3834681994082665  8.3211663313470634
  2.3380541488958895  8.0354835253358416  7.8286168850939681
  2.4887571064197918  4.8632066949621402  7.6335574797364796
 33.5090321596567975 57.3122883268904033  7.7504450573020884
 33.6597368453787382 54.1413731149770427  7.9585859173537372
 33.8065733225102605 50.9696383671668158  8.2015313215183294
 33.9484700456340747 47.7951383986052676  8.4578641645101200
 34.0855362787838416 44.6170524507387967  8.7106690733418581
 34.2176925173904394 41.4346908568094037  8.9469843487380984
 34.3461937452167803 38.2479429697468802  9.1584943322287398
 34.4720334321556763 35.0568085750565288  9.3397531320967513
  2.1918323867846259 11.2086051862020017  8.0658306990920963
  0.6379792616151310 49.4887539028175922  9.6007384890686467
  4.8738471881071836 12.9306412009561562  8.2734221327454680
 36.0308230961164497 62.2072893708206607  7.4541145919126075
  6.4311932446963294 43.3300107904204594  9.6240593458039072
  6.5529591480244074 40.1368532798087614  9.6095669185958936
  6.6743196890717593 36.9442571579892629  9.5624811857601166
  6.7959360598230631 33.7528124599894781  9.4835244915832781
  6.9182295352911547 30.5631177377207557  9.3750436633173635
  7.0419470475140002 27.3757262558865442  9.2393750752283630
  7.1671283156751295 24.1908205071562712  9.0797480820027960
  7.2946675685217297 21.0088895848484114  8.8997791456231354
  7.4251672726109881 17.8298302568240068  8.7035132253263363
  7.5598920581518838 14.6536158319303027  8.4968336984098229
 38.7069097843011249 63.9328705432602504  7.4029474580571133
 38.8614051053559137 60.7573985708100039  7.4878162905421970
 39.0145186389804266 57.5829751187732555  7.6529920222307899
 39.1645481976869974 54.4090479017056907  7.8778451280691746
 39.3111368386222324 51.2331270382166792  8.1365936549660240
 39.4543866122540265 48.0540285568248535  8.4061054329033027
 39.5936391675810953 44.8698868141627756  8.6670060078249733
 39.7291148568769614 41.6804848526059999  8.9058267240339060
 39.8614909662068442 38.4867935111677895  9.1172939625034797
 39.9912395686571145 35.2901256506160337  9.2992334315056233
 40.1188371296097230 32.0916492897835610  9.4491664651348799
  6.3073743211038176 46.5222158493756908  9.6069152083983909
  6.1794151253526595 49.7119960186595549  9.5606126511172711
  6.0459035576167048 52.8986045764555683  9.4904266126880543
  5.9053902249071646 56.0819491280715070  9.4094799242831488
 36.1856252073110696 59.0338317250550588  7.5775433839576074
 36.3379069510063175 55.8610290365984881  7.7721656842546132
 36.4870888817967582 52.6884525239907973  8.0144288410179367
 36.6316474865418300 49.5136439331045111  8.2800213169057173
 36.7725067920410638 46.3355239110797683  8.5485865686400633
 36.9087754503736036 43.1521424284770916  8.8037832025759837
 37.0410475430285757 39.9637831446862108  9.0348193954429590
 37.1698243853928787 36.7715560984103433  9.2366731480132440
 37.2961513150257034 33.5763428528367101  9.4063318816828847
 37.4208601488493571 30.3787531918863571  9.5413154924238448
  5.0172341929826674  9.7576425509713740  8.0432415521229643
 37.5447693244716163 27.1800504099468583  9.6397920218952429
 37.7920367381140210 20.7830164981280490  9.7223460504484507
 37.9165594022131245 17.5868382450784075  9.7075723023854170
 38.0436237146319769 14.3936229959052966  9.6585664545260581
 38.1742451685164639 11.2040746091472680  9.5803345753706690
 38.3108661564571520  8.0185832903256333  9.4848325282057040
 38.4535754940455732  4.8365483995744647  9.3919226727127398
 38.6017875225634342  1.6561523247538632  9.3213340812738430
  5.4551381911927859 65.6220910326026257  9.2864132767071634
  5.6078573272202696 62.4429839286550390  9.2929097984152200
  5.7587281521454390 59.2631024571473262  9.3375854876773818
 37.6683385933843695 23.9811195139255240  9.7001973653945992
  0.5030392226508570 52.6759154328610961  9.5249704156400234
  0.3620891640808805 55.8597179925563765  9.4392624553036431
  0.2161411784020928 59.0411629950826438  9.3634984971689050
 -5.4738568207585940 61.9994530000798463  9.1899076577445040
 -5.3235633798684079 58.8199403640472269  9.2452858573471310
 -5.1778273933861474 55.6387423217726180  9.3293017050731297
 -5.0369629800503555 52.4546823613168911  9.4254057692530022
 -4.9006932040744662 49.2668259721911852  9.5126763408472890
 -4.7682854681122997 46.0743740405634199  9.5740097054485496
 -4.6384634864024292 42.8782940387071108  9.6003199806664465
 -4.5095592750390301 39.6801620866059892  9.5883664367174006
 -4.3809727429452314 36.4804237921765875  9.5376979828179564
 -4.2522371415430973 33.2802746858485321  9.4502874916514710
 -4.1225756278646761 30.0805421119907805  9.3295778724778629
 -3.9920029260660770 26.8817044786728800  9.1780371542176589
 -3.8600813722062037 23.6847712446636969  8.9973370578597400
 -3.7260513181461961 20.4908751263661806  8.7891997433198945
 -3.5898508775403304 17.3014284044665985  8.5555869535187021
 -3.4513913505115035 14.1168644095163192  8.3025688789390699
 -3.3093481144930195 10.9374202006662902  8.0443821251449403
 -3.1643216661746201  7.7622532089737568  7.8030549081802976
 28.4307830869919087 47.5327004448752604  8.6294669245010400
 28.5635761371912373 44.3570722011940290  8.8258035882905830
 28.6929783581321054 41.1781083209320897  9.0111078255644639
 -5.6266599767335563 65.1781871531829466  9.1734206737667439
 27.5191815712563894  1.2122082149346165  9.1987316949964519
 27.3699619712845923  4.3922673049996304  9.2605523428444254
 27.2261750494926886  7.5740252178164917  9.3449082962250358
 -7.4667550968778666 44.3645841316048859  9.5149740102356315
 -7.3351142649814935 41.1661808078774598  9.5294712856289845
 -7.2035360046834187 37.9658349987336763  9.5062662218390415
 -7.0724035610151352 34.7644265494030904  9.4471765394413758
 -6.9411122187858600 31.5627690386132826  9.3554019391310348
 -6.8092241476102062 28.3617194174200371  9.2339043528168609
 -6.6763573110477878 25.1613766713059093  9.0844058938909686
 -6.5420482518129832 21.9630058506960388  8.9079523296655214
 -6.4058482482645349 18.7678478176465759  8.7062026217937145
 -6.2682296193777107 15.5776286489180720  8.4809554119873667
 28.8192770108503495 37.9958460495244239  9.1796877950354965
 -6.1285589056998298 12.3934945992377212  8.2402517109883355
 25.9902667019271583 39.4547731020148973  9.1281692940942012
 26.1141508384792651 36.2725089722466691  9.2573155560760974
 26.2364034701736664 33.0882532023894171  9.3674456425646557
 26.3573923401560890 29.9014580634479792  9.4555572493841140
 26.4774157675747972 26.7127238561378846  9.5194295519587584
 26.5973202343123276 23.5226742462672433  9.5568447167720105
 26.7168630638713864 20.3310737096794973  9.5663161350222570
 26.8380117428433920 17.1390862108639155  9.5474517738335667
 26.9621851816567428 13.9481060934866541  9.5013267023566073
 27.0909639474313444 10.7593062627912612  9.4310895373639809
 25.8636933491966339 42.6345685949850690  8.9835804983992738
 28.9428442968595796 34.8103539566467290  9.3275121375598715
 29.0648803207751669 31.6222517587447634  9.4508556517895723
 29.1853584254712075 28.4314691954469296  9.5467108545697936
 -0.4872983042766361  9.4860564218260155  7.9004598167379028
 -0.3388618009514218  6.3124645773930279  7.6738788889211014
 -0.1875703855110479  3.1387967018934781  7.5028566386093480
 30.9790821047374969 52.4225064584412337  8.1864233781268414
 31.1219128093107074 49.2511531208544824  8.4146597478650005
 31.2590881654691515 46.0766763356831106  8.6470111949102400
 31.3918267241534465 42.8988975493028590  8.8704013120452068
 31.5204718178557641 39.7166449009518843  9.0759673341594027
 31.6463723958793643 36.5302591807424548  9.2578182235013831
 31.7701622161352759 33.3403025857708428  9.4121550190426948
 -0.6313802083284299 12.6612971269625376  8.1574804260680533
 31.8921798267494587 30.1475405286559806  9.5360887393022580
 32.1330238875509835 23.7569144698973389  9.6845835347470857
 32.2537980680424283 20.5613270567154203  9.7061836553183500
 32.3761945508823956 17.3668151992955089  9.6931155413622712
 32.5010733254339783 14.1740909204501335  9.6480591592466585
 32.6310299058189131 10.9847424435046399  9.5757832189761789
 32.7671369909231416  7.7986270293181121  9.4865788772567345
 32.9103180740227046  4.6157075644842935  9.3992660502515957
 33.0593241481807283  1.4349152201347593  9.3338172422016790
 -0.0869240696004677 65.4003785430686690  9.3038249320335407
  0.0654453600293981 62.2210354785149704  9.3147447776207013
 32.0130016554914860 26.9527637110977842  9.6276015600818319
 40.2451249450797803 28.8923133854343952  9.5644229170089226
 -0.7715565292038127 15.8400352723464408  8.4213196207827270
 -1.0420865939250685 22.2116217844400943  8.9050687193552527
 29.3052320779222306 25.2387983243996388  9.6124938108069511
 29.4246840740842934 22.0449428273527808  9.6463467888668841
 29.5453638157468710 18.8510648425191008  9.6475703654570921
 29.6682649038635589 15.6579823696896980  9.6173946565722890
 29.7948055576976536 12.4668747965718527  9.5588509859835629
 29.9271578084585173  9.2794062334101799  9.4781088676895831
 30.0668608415778777  6.0953928516228713  9.3890833371216775
 30.2133177507154080  2.9140563828227974  9.3124781796710590
 -2.9339361004452229 66.8795994769028397  9.2658801948801948
 -2.7808479192626439 63.7000896869174653  9.2586632899622234
 -0.9081692471897925 19.0233898613230927  8.6740788291356559
 -2.6293065726220903 60.5203146343960583  9.2917250458854390
 -2.3376794483728380 54.1578211072862246  9.4453347138648134
 -2.1993191614770797 50.9722619075460486  9.5334290382677569
 -2.0661779054462648 47.7826570122523577  9.6032912724964579
 -1.9369876962304491 44.5888819687636087  9.6426403154906257
 -1.8097158495657972 41.3923161664073263  9.6459993651108711
 -1.6836578662003159 38.1941892919121386  9.6109582652963219
 -1.5576172838152675 34.9954690691121897  9.5372327843685021
 -1.4309527493982392 31.7968943871425864  9.4271873409477749
 -1.3032555880358521 28.5993990539462288  9.2836821135642573
 -1.1737633040971545 25.4039000824503525  9.1089952274222377
 -2.4810021972471690 57.3402135505053892  9.3583816675256326
 40.3708142847656717 25.6925761314993402  9.6425449352138894
 40.4963600040378751 22.4930459893974053  9.6816581969312114
 40.6221929307750074 19.2948155985626038  9.6819356281672793
 20.0764659872535560 48.7252597187248142  8.9751244406478747
 20.2043551291948127 45.5459533928781966  9.0688240922445438
 20.3300923896854187 42.3657852519340352  9.1539945774632265
 20.4539475479968225 39.1849999348776095  9.2282677200995593
 20.5773256707952328 36.0038804599306772  9.2888029802255954
 53.8100788884070695 34.2844416762934969  9.2753152866356370
 53.9452208691335144 31.0783657272292082  9.2958174251187362
 54.0807023898163450 27.8724052228933381  9.2896448552356450
 54.2158593285859496 24.6672756449432313  9.2577223911156068
 54.3514057231427969 21.4641365114811684  9.2004403975326383
 54.4870483534613470 18.2638569517326523  9.1173569364652405
 54.6229079724228725 15.0683532385778847  9.0067807093499166
 54.7600262774819839 11.8790639922054524  8.8712950420207779
 54.9002648396001618  8.6955668390361787  8.7226789149383901
 55.0442260723036298  5.5165226082809822  8.5810767587827215
 55.1916639852748219  2.3402654581653199  8.4677126200740904
 22.0438044267613975 66.3111146558877778  8.4001076498964977
 22.1957125626462677 63.1378487565131508  8.3876263369981849
 22.3463275192249711 59.9648725980123061  8.4289108584930741
 22.4936245459411026 56.7919186914704497  8.5140185295923558
 22.6363817048059310 53.6185984853844033  8.6274311870477920
 19.9448653976221841 51.9034161953619346  8.8758181970700321
 19.8070447168816841 55.0799932326652311  8.7761519271867439
 19.6629347944033945 58.2552037266066236  8.6882567275475484
 19.5141376081825548 61.4299407915621103  8.6295769086582830
 17.1149708070131084 53.3677014809307835  9.0117292447396427
 17.2480985679080945 50.1875253751785735  9.0943102872658841
 17.3758972730099011 47.0060270548528081  9.1678597601996934
 17.5009277042142664 43.8238857289127992  9.2298225221118599
 17.6245001234797485 40.6414301936524467  9.2789250212062182
 17.7470655132947215 37.4589226391850190  9.3134899506267637
 17.8689359461702466 34.2759605306135242  9.3319911979270831
 50.7220162300323025 42.1721637519794328  9.0260819296912747
 50.8587261325745956 38.9693603504686266  9.1408192677187294
 50.9944959374774456 35.7652203342568811  9.2320603286544625
 22.7730077300744860 50.4435989299445424  8.7532363832070637
 51.1294956281931761 32.5596118390367977  9.2984389809552184
 51.3983320128470496 26.1494613214670153  9.3507278974641146
 51.5328474950625335 22.9458228127035078  9.3350658779195719
 51.6673412532312781 19.7446487787119871  9.2904987632563056
 51.8017585127796778 16.5470191355126701  9.2157966457407827
 51.9366988744485312 13.3542583501799488  9.1107944982847382
 52.0736306716156179 10.1672505443110683  8.9827880771319837
 52.2145596291792273  6.9857290272203434  8.8492454296280734
 52.3600272855995570  3.8083856549233817  8.7319594780550265
 52.5093908382267642  0.6333899604394495  8.6496461296072713
 19.3626517405220859 64.6043776237383156  8.6145430677006782
 51.2640132002019655 29.3542390739186310  9.3383685739892215
 22.9049328209209015 47.2672531960468447  8.8804237282920866
 23.0335379781320597 44.0896432862362602  9.0033205030391663
 23.1598911435913912 40.9103092893550695  9.1180848797287766
 30.5264339738083841 61.9367537526756493  7.7161559547970731
 25.6011829911270112 48.9868881771901741  8.6659729247089494
 30.3725878585505669 65.1106801014595646  7.6884200372645228
 25.7342374395023938 45.8118262746855862  8.8278674251870299
 63.5180551193200955  1.1398692680263285  7.7396010001520077
 63.3679633737709764  4.3144213806690637  7.8624470982157169
 59.8475295593763974 21.7111894996103238  9.0073113914742908
 63.2214506788138948  7.4900853418316053  8.0387598129076103
 59.9841368900796397 18.5123434637757853  8.8633535248513926
 63.0783427219406221 10.6691093226081168  8.2467708069288790
 30.6798869769987697 58.7640838046409755  7.8180537269983805
 62.9381946958816059 13.8529851794625358  8.4648029347609377
 62.8000409085314644 17.0427207300140182  8.6730726075541433
 60.2607662345768489 12.1302979980061778  8.5096544099112723
 28.2930335882151347 50.7048253873768004  8.4302178490124255
 28.1505227915892817 53.8754402061903832  8.2411558482343228
 60.4018929315753041  8.9478491924150276  8.3179882645392187
 28.0036546467404008 57.0462581097820305  8.0795525178602290
 60.5459540318342135  5.7693956681458713  8.1417038219728344
 27.8527553822605896 60.2182238452137426  7.9632896958188422
 27.6998030665188395 63.3914065055707567  7.9068430609108384
 60.6936370657148814  2.5939231803156102  8.0023398614876218
 60.1219226667243234 15.3183417674527735  8.6960708139726890
 16.9751204758767038 56.5462072356797592  8.9272358492408319
 25.4644354545197196 52.1601204261903959  8.5053012435598117
 25.3225421081528985 55.3320918797932677  8.3570406515138469
 56.7613400366960690 29.5974162495571917  9.2702733726906708
 56.8965053421552014 26.3916612066570053  9.2180347865673244
 57.0321815699529751 23.1876370251894741  9.1415903240204148
 57.1681855082948616 19.9857180978752353  9.0415311996640444
 57.3047730048990260 16.7882819028795147  8.9168685784630188
 57.4423933822654575 13.5961118851801857  8.7682774871918916
 57.5818339563225905 10.4103788394140278  8.6024699963313118
 57.7242652797362794  7.2299593801917394  8.4364625330695073
 35.8755042126697461 65.3825135882132145  7.4165627690729874
 57.8698507307846199  4.0527280695990422  8.2917755506262036
 30.8313520821044129 55.5929434977636632  7.9807703178203298
 69.0197435022512451  1.4128532573010868  7.4686187184792594
 58.0191664996855465  0.8775086438236549  8.1890819560009174
 33.3551640233510298 60.4844128382030917  7.5997969842917827
 24.8729190145960146 64.8487413884785724  8.1442501066561519
 33.2001246119494908 63.6582167272169315  7.5249694967371941
 33.0462508411132134 66.8335428811475651  7.5347538960777687
 25.0253439176168690 61.6757645022759391  8.1623042185182584
 66.1924878958726453  2.8633718545519504  7.6277464785756761
 25.1757513003067182 58.5037216431207838  8.2372135545851002
 66.0429133579331449  6.0377170030274039  7.7905678531974845
 65.8974585704700075  9.2137385232031868  8.0025205481227442
 68.8682052366157222  4.5875474809088379  7.6031860817740595
 -7.5995354149966090 47.5596717998991281  9.4637645285402954
 16.8287631920769059 59.7231180931393908  8.8569076499733672
 16.5254089394462866 66.0744999320763498  8.8243015305977703
 42.4121075353892465 43.3984684094933968  8.7943739172520168
 42.5472549808866631 40.2034590393067433  9.0044930649219364
 42.6798536774517530 37.0058598124926661  9.1874903246079089
 42.8107198585032762 33.8068303798776384  9.3419751541269793
 42.9401994332210748 30.6062837349418793  9.4654502402872733
 43.0685308220914109 27.4051278075078351  9.5554797699045828
 43.1966820656934445 24.2044013281766830  9.6090161844725035
 43.3245484443198521 21.0047643564187929  9.6240093242458542
 43.4528029312458486 17.8073362147651970  9.6004412949273803
 43.5822417667164856 14.6133285754116642  9.5408829234727275
 43.7143728273818652 11.4235880589546355  9.4512734630453572
 43.8511561378218815  8.2382047926104942  9.3453921169670195
 43.9932309767106986  5.0566153212173219  9.2439164339544000
 44.1409656827364785  1.8775202178378145  9.1660192972806875
 10.9940394022228620 65.8447470950367233  9.1246301260449805
 11.1469551947007979 62.6673939993927931  9.1257347121663965
 11.2982230408706226 59.4898491276944625  9.1665826505807839
 11.4449264011002096 56.3107882656880179  9.2357880675780013
 11.5850979051234848 53.1289901684273858  9.3141447915063704
 11.7174309090351318 49.9437340719775733  9.3829077092576405
 11.8439840451404557 46.7563148892577374  9.4326222369786148
 42.2737432735253051 46.5891026502380328  8.5593732423355071
 42.1323675211721351 49.7740973679560952  8.3059362103445604
 41.9876707343325180 52.9547255850630236  8.0499745343974443
 41.8400088331109714 56.1316155095987810  7.8134501950952711
 40.7494566530290214 16.0994937897593751  9.6454460125059249
 40.8791714292981609 12.9078973805925159  9.5760076207708735
 41.0127203136567644  9.7206200237843436  9.4821753949119820
 41.1524090257383293  6.5373139243001539  9.3813410084335942
 41.2975983065430725  3.3564170843887351  9.2943129273087610
 41.4476996502713675  0.1769669445710501  9.2373299760602610
  8.3017080443507236 64.1435291887576540  9.2199101838142141
  8.4539124011829188 60.9651464647916086  9.2438824380403748
  8.6030893790099796 57.7858228532676819  9.3023712287398865
  8.7468906214128861 54.6045417388948735  9.3800649967810354
 11.9673574292627478 43.5683038994050591  9.4604916325639774
  8.8838473382156042 51.4202505221018384  9.4562525999609175
  9.1383091152282585 45.0421976918915732  9.5484534967899979
  9.2604933989139404 41.8518090926065156  9.5550150255098192
  9.3815843745229870 38.6615448422412342  9.5331384755356705
  9.5023407520644962 35.4723563876252612  9.4829238322221645
  9.6236627582102443 32.2850069881740183  9.4056969996360085
  9.7457302718917820 29.0989609086248322  9.3041246912892372
  9.8693324309285728 25.9150557169420743  9.1808256087014861
  9.9946088769485613 22.7333760179371644  9.0391601469676726
 10.1220767256194648 19.5538602296147701  8.8825568452051389
 41.6892777637048439 59.3067940617941858  7.6205547693125286
  9.0136327745104676 48.2322123087074672  9.5146942934475263
 12.0889855339268415 40.3805774450857911  9.4654887697473580
 12.2101445314906769 37.1937894761425767  9.4468788975079629
 12.3313864103805528 34.0082909980986798  9.4049423061061237
 14.5473892812014149 48.4717955587752343  9.2803392593640908
 14.6726145902926390 45.2869919965970738  9.3299670600355604
 14.7955389157168895 42.1017560146550878  9.3628031751485778
 14.9176737736438518 38.9170153675114960  9.3774877090255870
 15.0393795743957117 35.7327482789953308  9.3733066698549603
 15.1604123846194501 32.5491705421576611  9.3502978330652216
 15.2823707531762469 29.3664966448888407  9.3089586956415573
 47.7669081995772373 46.8425987102435784  8.6982252303799772
 47.9064898809260455 43.6473278528757405  8.8791649188739967
 48.0439845538429964 40.4476777265287311  9.0367745815333684
 14.4180769461857565 51.6553642841966649  9.2146359694566318
 48.1794207627596194 37.2454469841992832  9.1705181425396756
 48.4466595306347187 30.8378310372681881  9.3626118026139604
 48.5798672320749887 27.6337415833630580  9.4167497180392115
 48.7125805008734929 24.4306576852867430  9.4404634346419147
 48.8455246723406304 21.2294010260649273  9.4321634020039475
 48.9782374464466059 18.0305040455785850  9.3900051698070115
 49.1107760053825331 14.8352937179015747  9.3139852369457916
 49.2449156650243580 11.6454678397541365  9.2080355543921737
 49.3825488369445864  8.4609605075817917  9.0855692365619483
 49.5248247726494029  5.2809760793357112  8.9683104950932808
 49.6722238734871908  2.1044005933156500  8.8763795516074513
 48.3134363180185602 34.0419898280126603  9.2796626221181171
 16.6780793240560676 62.8991374051140895  8.8187511059245285
 14.2824234791238265 54.8374095593256712  9.1371491698135010
 13.9899657523570955 61.1945166739144426  9.0045152157402431
 12.4524875566727751 30.8236413372298408  9.3413506097969599
 12.5745020211861913 27.6403844967050034  9.2576826578621088
 12.6981096370263860 24.4584764539445629  9.1564723119307772
 44.6611659622572290 54.6771257569272109  8.0344256183959555
 44.8069692655441756 51.4961950173644709  8.2646532276857023
 44.9501480366208810 48.3104784756261836  8.4996730017885511
 45.0908346237382531 45.1193310355199486  8.7210297091697804
 45.2284833660724601 41.9238488351658560  8.9200509186628754
 45.3637931133743493 38.7251402734546843  9.0939547406068311
 45.4972477457504567 35.5243631136107751  9.2423325649800514
 14.1391878508567022 58.0170281303271977  9.0605901087740897
 45.6289814460021574 32.3222987401053103  9.3632624166377703
 45.8912188358816167 25.9176061459566043  9.5141485798326855
 46.0218345518524501 22.7161075241602042  9.5388704764893095
 46.1522188088413472 19.5167231069363361  9.5267477529329465
 46.2826069458095262 16.3203988920906760  9.4776134124304008
 46.4142062761110452 13.1281508614996749  9.3946696266296055
 46.5489844507928794  9.9408325632705186  9.2869774949590127
 46.6885057249342026  6.7578840100157569  9.1732778500272989
 46.8333003040292297  3.5784489681162146  9.0749174853387853
 46.9830694181050958  0.4013097659364765  9.0086685102987403
 13.8373841677306437 64.3705759139167384  8.9847045386622870
 45.7601833294052867 29.1197351043547386  9.4548155234101028
 -7.7347267608227117 50.7504005061354846  9.3811044614226198
 27.5464732077141718 66.5648793283031068  7.9198273034302176
 13.2118460433070606 11.7446543101198628  8.6388476719586400
 -10.5674412902987047 52.2322725100571574  9.2104087096851437
 -21.5841242650999696 51.7543364407049893  8.5507963645126228
 -10.7095983357303162 55.4162227339499225  9.0981426524234799
 -21.4409842063854548 48.5660707118364172  8.7279487059808236
 -10.8559338182586131 58.5968065138713925  8.9982168832646252
 -11.0061702272610802 61.7749716858946556  8.9286592747832145
 -21.3003482117424880 45.3718772794025043  8.8880679492725445
 -11.1589607430499331 64.9518727960376907  8.9013262095238588
 12.8231723331533463 21.2783326371799717  9.0406517437994633
 21.9871869764339856  0.9840793656555991  8.9201398445596976
 12.9499636208435653 18.0994186300266300  8.9135511268133953
 21.8380166303870986  4.1629708093786517  8.9795369573021713
 13.0790783914798059 14.9213196185525181  8.7782344842221445
 21.6949740154175856  7.3440198100452641  9.0642577483896574
 21.5592559921185476 10.5270301888039839  9.1532735438024169
 13.3491343671440390  8.5685091330503305  8.5020274336956927
 21.4303508687443198 13.7121531705851520  9.2313342639374820
 13.4924182643305173  5.3928773405801920  8.3814971885416529
 21.3055137868332629 16.8979472953653236  9.2929997033849503
 13.6409547824516739  2.2171419986017180  8.2954911538097722
 21.1831235272136524 20.0834269213653300  9.3370190940778226
 21.0621740333356122 23.2688339039777361  9.3631990319467793
 -19.5058131592460953 66.1859926112534112  8.2601429953972811
 -21.7292184920755673 54.9374865771537202  8.3705443463275575
 20.9413709128433325 26.4539032326540706  9.3711037811364761
 -10.4292276387938827 49.0434769522733802  9.3135352936863054
 -10.2937567947577904 45.8495660940107967  9.3902314684308728
 23.6493161027640468 28.1786745733880757  9.4278238299201753
 -24.5493618987191695 56.3985067203467949  8.0916435631067092
 23.5287428937726411 31.3640078080255691  9.3779000414679672
 -24.4029237779008383 53.2178289902740644  8.2884889539047570
 23.4071728795601999 34.5478826605672324  9.3084506341318285
 -24.2589256204983528 50.0332009165143745  8.4974387559828983
 23.2846719049487128 37.7299539892253009  9.2208521794650178
 10.2521732199408913 16.3765514447968705  8.7146418059025486
 -9.2210738341362948 20.2383120477293623  8.8600901579058249
 10.3859345185724177 13.2011999336649701  8.5410286122534576
 -9.3571434184336404 23.4372445636346818  9.0230699293311254
 10.5242380215457416 10.0267804561161764  8.3701111732861726
 -9.4918023569671117 26.6390197496595960  9.1612021184949715
 10.6676756712899241  6.8524617576010476  8.2155096398445355
 -9.6253590553918738 29.8422845993378552  9.2736600704868319
 -9.7587943073202794 33.0458406983077140  9.3594429012659095
 10.8158512002942917  3.6776078166247532  8.0955531725712699
 -9.8921612630439579 36.2491423671290960  9.4165732382638794
 10.9673025450161390  0.5021655866804662  8.0271668215693452
 -10.0257220637689990 39.4512937798722518  9.4420055288997062
 -22.1784239242594339 64.4712697231735206  8.0227974193519831
 -10.1594837465107286 42.6517811535423519  9.4334433275532898
 -22.0263352840105711 61.2949411444134853  8.0864509649616281
 -21.8766752676397509 58.1171183474903330  8.2086888850661204
 -19.3531400669332925 63.0091766974010312  8.2844469662349436
 20.8203231931597159 29.6379117097814699  9.3610532955964540
 -19.2023112923129951 59.8316360750420841  8.3665159582227453
 16.1756198783448539  7.1049042488248801  8.6631756870160022
 19.1509566361070434  2.4575826481618916  8.7541556330906545
 16.3198363358512282  3.9277918161190222  8.5688224695815567
 19.0047889106499959  5.6362208551059982  8.8293620169083056
 16.4687362902162455  0.7511546416109690  8.5100689041037558
 18.8648004862651923  8.8161375539060600  8.9240126835246638
 18.7313233738116836 11.9975691080541402  9.0191023562556989
 -16.6776813933740904 64.7197997786292518  8.5006107336061145
 18.6032684959322658 15.1800033974042989  9.1050423957388631
 -16.5254088751850787 61.5427302935619522  8.5451324724367037
 18.4784663702983458 18.3627911760870717  9.1790624206315456
 -16.3744556864071882 58.3648020578879425  8.6372631144887961
 18.3559856186309993 21.5457411762967297  9.2400885425358386
 -16.2270245619236704 55.1847448216123198  8.7623733293920782
 18.2338814790547694 24.7282532170640614  9.2871453737226481
 -16.0830182942385491 52.0011668788724677  8.9001998083767919
 18.1121420682376275 27.9108290914679138  9.3187086256645184
 -15.9420443403333287 48.8120213495076953  9.0298810826068863
 17.9906090137922838 31.0932445333992753  9.3336883052154658
 -15.8031061179193113 45.6168671060517070  9.1367440573610725
 -15.2576952557098533 32.8039977043528808  9.2966383327450117
 -15.6654274452577784 42.4172652173174285  9.2167323179218901
 -15.3934258177154000 36.0098375732258020  9.2967087944216278
 -13.9968401464005563 66.4254805954170848  8.7168083433540779
 16.0375517672589929 10.2828051550161650  8.7740090442635381
 -13.8444539418098529 63.2487936802337174  8.7273553153608017
 15.9051239225064815 13.4617504593136381  8.8859633354029448
 20.6990505819628154 32.8213406799666529  9.3334024375677949
 -19.0532939898456810 56.6532915474273508  8.4933527327163194
 -12.1717038027231723 24.9137572753152305  9.1277566807513928
 -18.9070978930299809 53.4721616128196260  8.6456326228371427
 -12.3068999404511725 28.1179699680014750  9.2240575126557047
 -18.7635176915685413 50.2861251567783754  8.8018491689603202
 -12.4417840804856237 31.3230517856249406  9.2952920334950679
 -18.6224023018299540 47.0942386474359225  8.9437882820871604
 -12.5762191758119553 34.5281107176611215  9.3402148898597179
 -18.4834820731597489 43.8963148407158954  9.0625222639957350
 -12.7110514874176186 37.7323970469979173  9.3572747745441323
 -24.6981478402548333 59.5764263742875713  7.9286308513370960
 -18.3460874564131053 40.6946018613346254  9.1576374742243818
 -18.2092189130842925 37.4903361048280317  9.2289839449715139
 -12.9821921233160662 44.1356498163193578  9.3017025343317403
 15.4044829494602080 26.1844801630430197  9.2503474166756927
 -13.1188344795550300 47.3323140960015181  9.2275613646113328
 -13.2571274517988567 50.5242168349886214  9.1245234463701230
 15.5273629547370753 23.0030612127312502  9.1763590678760778
 -13.3982651314673795 53.7108031623691886  9.0031340206073818
 15.6513630535644257 19.8222992308167569  9.0894795786349132
 -13.5433889791091620 56.8929198984293265  8.8832614647927421
 15.7768665003194588 16.6418058570449290  8.9920554466977620
 -13.6924282314555406 60.0718338060091099  8.7859610829739445
 -12.8464964730097968 40.9354111883988807  9.3446781944066863
 23.7695506649179684 24.9917521279088746  9.4568849162676702
 -15.5289680424561531 39.2143608868964790  9.2699979723729076
  5.1652306413162181  6.5856465429744384  7.8408309399327987
  5.3167270562825619  3.4127464298782395  7.6883539628767013
 24.2589075035864070 12.2378866917189075  9.3463231299929959
 23.8896025691596066 21.8036353085605903  9.4637152944067804
 24.6765213474833658  2.6884633866761654  9.1031534455663881
 -24.8495439188234961 62.7528863164418382  7.8214517233805596
 -30.3473591485512735 62.4827846758817316  7.4958013930256202
 -27.6744796766755918 64.2069569719082693  7.6009325440286961
 -8.0174878102825176 57.1187900753330169  9.1797805498810465
  7.6992125660614406 11.4796794190111129  8.2893282549660814
 -8.1655335634316586 60.2986202374814511  9.1016267599873935
  7.8433518598771643  8.3067116439277253  8.0959040031623424
 24.3906724639639521  9.0516252210560868  9.2658419141884529
 -30.5012738755466337 65.6587683520827881  7.4554646067861672
 -8.4705050720194794 66.6551420800442713  9.0601789750016586
 -25.0028659980303161 65.9290970947392907  7.7864180777049148
  5.4701176072305113  0.2376796371066704  7.6042393932238852
 24.0102149487091339 18.6147479254425754  9.4474194934336087
 24.1327767149072017 15.4259733697954236  9.4081189430960226
 -27.3702741080726604 57.8550552065691264  7.8316602820885475
  2.6421587542095719  1.6890232594824237  7.5038314026559725
  7.9911411535892061  5.1331800281581330  7.9356232400621405
 -27.5210351959138499 61.0309469319341744  7.6802390570962897
 -8.3173298868537042 63.4770886989824774  9.0593371750885012
 -0.0334637336185526 -0.0361857065556317  7.4085161590599720
 24.5296547204850270  5.8683259152945659  9.1779634266361771
 -7.8738125611620822 53.9364707890161696  9.2795979642024804
  8.1425662122196574  1.9591821402708633  7.8273700080180033
 10.5988020019835609 30.7808591381625938  7.7906326361426181
 58.0639254030601322 21.5779653836224199 10.6208496550572100
  3.7049086430972586  0.1730227082416901  5.9534799179555380
 10.7245219599574781 27.4880655852239997 10.8052775742656308
 10.7367903014692310 27.6074936930943409  7.6873823998243287
 13.5824646777768923 26.1401934091117489  7.6609097198495064
 58.0808553731087898 18.4871711387251381  7.3810868990019136
 10.8318231832804130 24.2959858859981459 10.6826601302178013
  9.6588148088490904 56.2745995397685093 10.8642422177038593
 10.8779570410969679 24.4347231212341534  7.5653317528472659
  9.5128138910747797 59.4460214522277539 10.7954916655821922
 13.5385574777517714 26.0415034864474073 10.7791199568113036
 42.7666693700582954 54.7015264987518108  9.5200047059067252
 13.9694599101353649 13.3026904496069456 10.3229872593441563
  9.2450455086905539 62.5800284315309199  7.6359697642140532
 42.8909078931857550 54.4769891414165670  6.4043084646446662
  9.3617297922441178 62.6083507397877170 10.7544987628948547
 42.9209995887702505 51.5315011882073719  9.7611825691570999
 43.0274576272456244 51.2874554987173283  6.6468347629530822
  9.3961544371039860 59.3845215896506673  7.6777933477161087
 10.6174271615695659 30.6837386775428769 10.9084236177082179
 13.6433945310815457 22.8527947022347284 10.6816062359661057
 10.4637633147369620 33.9547172048450960  7.8717739327923111
  9.9299297798807800 49.8950226268161501 11.0098570389963850
  9.8169571967321545 49.8336917540616966  7.8937468446083985
  9.6839948592977301 53.0122264244780652  7.8255586870187539
 58.2191665048421712 18.3669642111294387 10.4973713571961724
 10.0544962705949121 46.6933138418125537 11.0573130545803604
  9.7985426017292099 53.0907110795706814 10.9421145167896334
  9.9452415236980283 46.6562097765325348  7.9409200723551105
 13.8697080650516753 19.7936472403113335  7.4546983397816549
 14.0154860433879662 16.6197357284729748  7.3356077534060296
  3.5460026842598298  3.3863914393989485  6.0422796739805067
 10.1737824852318592 43.4899712526710189 11.0801377580936862
 10.0724767318020110 43.4796219347053849  7.9632623687046156
 13.7494743712205167 19.6669158794115475 10.5710779810409221
  9.5432549802302411 56.1947902311492413  7.7472400987554533
 51.8645162240685949 37.3653781493191204  7.6394627941151469
 10.2885177568852573 40.2861775439629071 11.0765446192160297
 10.2005464953586706 40.3039109908916799  7.9593965384684582
  3.5679182166201677  0.1198982733887823  9.0772089322803158
 57.9622056410013187 21.6752366063774815  7.5030453835885718
 10.4001988851449116 37.0828816397052350 11.0461407099993671
 10.3308381735353301 37.1287476089764610  7.9287555586442782
 13.7252543665851547 22.9670169464986174  7.5641369940592584
 10.5100052722798214 33.8820499717945083 10.9895361946690766
 13.8573090010090247 16.4832354633428224 10.4503806617443455
 43.0749495831458376 48.3465932244829233 10.0099766731418711
 43.3789343841664490 41.9425820521355419 10.4622404651944922
 51.8143759246747138 37.4499753893673386 10.7587695411912794
 44.3859006267706917 16.2746333261133813  7.9823665469200789
 44.6284937555622179 13.0133869130983371 11.0198510032090287
 44.5124455919416206 13.0971322851644310  7.9049412708702995
 -29.4256402296112860 60.9984325271434429  9.1543560293846600
 -20.5029969960942395 50.1216407412554688  7.1357451230308993
 44.7687076408499465  9.8191042921006879 10.9183168583239532
 44.6417994364196531  9.9175879909765090  7.8035142395156090
 -20.6923969598032578 50.2864706171170255 10.2491849063629807
 44.9138935500399867  6.6387782484786806 10.8110308026527484
 44.7764722531969070  6.7324219891120887  7.6956812634287246
 -29.2839843036335381 60.8837325883147713  6.0323526515954828
 45.0636033335494801  3.4710314560080269 10.7187460155785619
 23.5258335837102805 52.0051592873379676  7.0700128465455627
 44.9172058830805483  3.5414992098351430  7.6022361245048247
 -20.6332505548222471 53.3073392065976748  6.9646043474782529
 45.2168248750987729  0.3111229128744525 10.6570573061333054
 45.0642339297485677  0.3454648664856788  7.5398605757230488
 -20.8486449427369500 53.4729977568880770 10.0772472811291092
 12.0732215425606491 64.3000983010215492 10.6356996070858241
 11.9169449329966728 64.2923790957537875  7.5183429092125840
 12.2263426883959347 61.1421218106173470 10.6561797159526748
 12.0695561409049379 61.0956304390438447  7.5393321704361105
 -20.7686610309220789 56.4982803816691757  6.7993146524652390
 23.7287769557279624 52.1393208169417903 10.1844417619719181
 12.3749120047343037 57.9770468955911156 10.7117481623363986
 12.2195253519270572 57.9035012595988547  7.5955897031960582
 -21.0051700087625441 56.6451282930139826  9.9119895208901472
 44.4925859221423323 16.2193715759359556 11.0973146731580083
 43.1590066779038892 48.1039725691111499  6.8957840346664945
 -20.5358960161904349 47.0866886646192029 10.4092034170844467
 44.3585291211579431 19.4321202982535901 11.1415921094592303
 23.8313643293162585 45.6554800722635008  7.3441158675459448
 43.2284018288197771 45.1489398389194392 10.2471138145184710
 43.2856658917812780 44.9229661044080686  7.1328541764187783
 -29.5788462373189596 64.1327702651538942  9.0734380371686552
 14.1630311586217026 13.4448923039109136  7.2093797629010199
 43.4087977652300623 41.7404424672455079  7.3474564715285924
 51.7461714191566600 40.5584035362979023  7.5477019160912278
 43.5264412912265257 38.7317891096632607 10.6518858205939519
 43.5301785668483703 38.5557020180198506  7.5363937425552958
 23.9551581021261342 45.7845130630620574 10.4604992818914369
 51.6590099620795939 40.6651794160480478 10.6654082315095451
 43.6710450449348855 35.5192071331219310 10.8145347569490333
 43.6507599555286490 35.3703988778615042  7.6981183548763994
 -29.4371374815306410 64.0999050077414410  5.9495753804606784
 43.8125019017557520 32.3039621435523259 10.9480673124248202
 43.7708652807844203 32.1846807446272081  7.8311732669161227
 -20.2563810714363193 43.7497378744874013  7.4326471214928675
 43.9517248537032472 29.0864601121671988 11.0501468764733648
 43.8913333286659295 28.9992250095343920  7.9331852455935605
 -20.3799901810475426 43.8785153191398223 10.5487200579038110
 44.0893391327826123 25.8677149685374275 11.1179207403957889
 44.0134568096993988 25.8153830597841818  8.0012807216869408
 23.6796245121728823 48.8292170211205985  7.2072648585106052
 44.2246187775464605 22.6490833120423858 11.1488771873597798
 44.1364753939412537 22.6333426472822872  8.0328701917278593
 -20.3776701513446845 46.9374213724601290  7.2947247815221461
 23.8442520787969272 48.9638903600397555 10.3229091876846262
 44.2607513202983540 19.4530718121848629  8.0263552226610813
  9.0927212312822210 65.7786117106456913  7.6334156886686966
 54.9121124028401297 29.5191877779024345  7.7237294037808040
  3.4185352734978771  3.2546571056617526  9.1640220378181123
 -17.8686028326899873 48.7984575457304928 10.4817425051428952
  7.3302361339582571 44.9728982914138982 11.1519850779298419
  7.2561024822029454 44.9538790659063565  8.0355044560034443
 58.5866057190392340  5.7499513724431406  6.7318238216823731
  7.4499959426429365 41.7648316783089513 11.1551093775291008
  7.3809367633166572 41.7766925564591745  8.0385079071246324
 -17.8163303703765159 51.8506090360716527  7.2254086525997367
  7.5667547248225686 38.5565511294398036 11.1273743444033233
 -32.3639347258585843 65.5629084210347912  8.9793582955777271
  7.5068010876677889 38.6002547837218373  8.0103595131013954
 -18.0211361948643543 51.9943800439017423 10.3386133867336092
  7.6811632618749188 35.3495968920634525 11.0684866477176804
  7.6344791324674786 35.4245917906307710  7.9511470900211476
  7.7942355239349936 32.1450191313216180 10.9798285473205883
  7.7647870606251139 32.2493739622370725  7.8625909770373497
 -17.9504177835772936 55.0368226213958849  7.0764632505115532
 58.8418437222130066  5.6176233599157959  9.8438448470211473
  7.9061743920038507 28.9435576193945607 10.8641670944185051
  7.8981124802084590 29.0751526741868247  7.7469556566803064
 -18.1747834076182500 55.1752684050209439 10.1892016248233102
  8.0173620767068421 25.7457884628376874 10.7239294286214957
  8.0352258641459997 25.9017383228688907  7.6073066916808783
 -32.3090289052923012 65.5708175051503162  5.8525325179360523
  8.1283459778051039 22.5522582752124663 10.5628044193383772
  8.1763744738488935 22.7290691398972022  7.4469181978196479
 -18.0895603066695365 58.2293779154984534  6.9410705546720513
  8.2396214354118786 19.3635700002328015 10.3844610913631534
  7.1305413091690664 48.1308573097227281  8.0032022794211191
  7.2062843055981256 48.1786852528431311 11.1195243766928478
 -17.6864304046198413 48.6672527166146196  7.3671921020879250
  7.0008019333225544 51.3077990993619650  7.9446592859469476
 39.0077229903556173 12.8728202166418555  8.0474773427391124
 -17.3206554046843593 39.1013001824994930  7.6581951741642413
 39.1950052813280507  9.6030615408705575 11.0738351436845477
 39.1376315101082923  9.6940964206640228  7.9577288356025564
 -17.4086902110852897 39.1654417463979527 10.7768599425301872
 39.3387478940438768  6.4219054900375117 10.9772197957916404
 39.2745487738537875  6.5096292110236975  7.8602877738497821
 39.4868867992919874  3.2524385172121217 10.8938525207459520
 39.4176464406380802  3.3183186607646888  7.7758012974808466
 -17.4398265836381334 42.2932057774749026  7.5859770860770253
 39.6394202425740332  0.0904966961757402 10.8400090769607651
 39.5662955962340774  0.1215261575681584  7.7207594638565977
 -17.5625917682025658 42.3801795407598831 10.7027752777228358
  8.3219558424974576 19.5575349462499304  7.2695825815072883
  6.4949220659050289 64.0770370724931553 10.8249777366730822
  6.4192425476105655 64.0675936910498507  7.7052421007081522
 58.7270036954431518  2.5529430607363173  6.6019284278892529
  6.6475783853047012 60.9159141136095101 10.8498987263676359
  6.5707448484023034 60.8695299275637609  7.7308716097757753
 -17.5614968809993108 45.4822288612875951  7.4890052431707037
  6.7963678639404606 57.7481378646426222 10.9082829173749385
  6.7200124811963908 57.6755266384500729  7.7901549438074502
 -17.7158579060254127 45.5920095134748706 10.6043163293194294
 58.9975576970958713  2.4632172842427615  9.7146581513868853
  6.9396179194257384 54.5697242944154439 10.9855377489064434
  6.8639567331966260 54.4883203283765951  7.8680242937292091
  0.8312154681732016  1.6433718802317019  5.9029158278052156
  7.0762941083192548 51.3790808565537844 11.0613485668157843
  0.7825339405892127  1.5493082281021273  9.0282327195060859
  9.2079427721883658 65.7664037241089403 10.7519184572585491
 -18.3298416235325341 58.3423624081664585 10.0540819303850331
 39.8862865012371302 59.1369662968661061  6.0203182797280173
 14.6133879034395466  3.8938130883650537  6.8572580456994556
 41.3837350386147591 24.1489015639646887 11.2025739887405447
 41.3246409802643910 24.1097706534810499  8.0867981115811496
 14.3553975436904260  3.7997134792551210  9.9699360837147619
  3.2731309409122407  6.3952896063087339  9.3224643037672106
 41.5134471966301390 20.9312406998815952 11.2204634289603646
 41.4480148572007820 20.9292485579096699  8.1051454089942006
  3.3870166298258941  6.5898712993757202  6.2033929842076025
 41.6442068829712184 17.7167912200503466 11.2004951969858499
 41.5721033650200127 17.7503381570695069  8.0851893425781682
 14.4618166802444037  7.0848315037988598  6.9582793753784786
 41.7771074381445615 14.5073862740714965 11.1454776844164254
 41.6971968362473007 14.5730625285750364  8.0299112986232810
 58.2013488655299938 15.3040203657521054  7.2352966010187538
 14.2163070194623664  6.9582440214841954 10.0700945071789096
 41.9134723634596895 11.3067145399913436 11.0610259767789287
 41.8248151899494687 11.3954429944760172  7.9453671006044706
 58.3745734986919658 15.1614551164919629 10.3498431089557599
 42.0551189369109153  8.1195579082993241 10.9604894030627324
 41.9572255506974514  8.2140649657168741  7.8445720312017828
 14.3116946289445952 10.2676999318678313  7.0809380120017966
 42.2015584224912672  4.9451557531403774 10.8639985321130084
 12.5166437540879514 54.8005467214186481 10.7870495865429703
 42.0958206718874592  5.0258344062585012  7.7472375903197657
 14.0879775858969971 10.1265941325744979 10.1930930035784346
 42.3526414851056217  1.7805015112482008 10.7902547319701529
 42.2411830333331579  1.8315584363822064  7.6725507495308207
 41.2014301051443610 27.2908396925626739  8.0295480428451942
 41.2535884789406211 27.3673469398510996 11.1458540721665287
 58.5304823323850769 11.9657015207684960 10.1822013824305593
 41.0791434006403691 30.4729409258167223  7.9350009417895917
 58.4527888902534798  8.9396215179004539  6.8945868412799749
 39.9753088275932384 56.1500724321734879  9.3363474372452782
 58.6863502527851040  8.7845763100451730 10.0067772379169817
 40.0373134279113714 55.9336113885215838  6.2173266573413262
 -18.2335377904983389 61.4290630735109104  6.8398097728357197
 40.1255259959946855 52.9911291626408172  9.5759091643872516
 40.1826142061588243 52.7413581075771773  6.4600702628053037
 -18.4868903500008841 61.4977708627373687  9.9538313440350130
 40.2749266984856220 49.8182500058139297  9.8374145445600583
 40.3226037459515965 49.5575704458155073  6.7234737897849755
 39.6719770280592883 62.4312165489525199  9.0187933159071001
 39.7316493549004974 62.3511296985684709  5.8932266858285987
 40.4226457610009646 46.6309343484327599 10.0993460880090620
 39.8239308198222162 59.2952692481071821  9.1427823413429863
 40.4566223433335352 46.3784085713118159  6.9857676994995357
 40.5685734721527638 43.4320267293835229 10.3445672535299931
 40.5854204963092329 43.2004292232633347  7.2311049938155705
 -18.6428847119592298 64.6466063253475625  9.9036774830448433
 40.7117132053591035 40.2256415091417026 10.5651293411602580
 40.7108400978269671 40.0207367472763522  7.4510414505071383
 58.3246841477372371 12.1228589237743432  7.0690115899977579
 40.8513515676771490 37.0150854219785899 10.7580474578291607
 40.8340564832411488 36.8387436716852861  7.6431195757288934
 14.7654642603001776  0.6941795140327852  6.7962834048509624
 40.9882833081960243 33.8011568102089797 10.9209567054431922
 40.9566623087211212 33.6556375097475282  7.8053694348149811
 14.5021993038466928  0.6483814581322171  9.9103200562291462
 41.1223455956540960 30.5850800359871364 11.0510333548094621
 -18.3816233946261605 64.6344729126304713  6.7890634250114044
 12.3641890121520444 54.7182883045608222  7.6711151445248866
 12.6342178389541893 48.3611925158750964  7.8075590202813281
 12.6497221175591008 51.6114667978116657 10.8621397915354319
 17.9379831612065281 58.2137078355995712 10.3805429717365811
 17.7123547462309574 58.1358659032486358  7.2663915527003393
 55.6351795340515380 10.3971696576203545  7.1754405683436771
 18.0753946506539656 55.0428160043869710 10.4616599607135274
 55.8599240800872323 10.2584916878156971 10.2874725282757620
 17.8618053278874669 54.9508576608817805  7.3478526542505547
  9.2583567536336027  0.4404744742982477  6.3184030559020163
 18.2031586190769765 51.8624542939566382 10.5504597715976960
 18.0075611840988081 51.7722217445942334  7.4365796220260210
  9.0112052419880388  0.3901390487099640  9.4348178510512977
 18.3216786532321905 48.6770600981173018 10.6357314287994100
 18.1498949782088026 48.5961783945281596  7.5209453788953944
 55.5084547609343204 13.5775196120051600  7.3248048677869511
 18.4340843550495173 45.4895667845605871 10.7126641384379688
 18.2908486237252248 45.4209897053085214  7.5962581830941707
  9.1013592374586008  3.6467789107845379  6.3915714666293377
 18.5425727861802514 42.3010728632168878 10.7786314677651145
 18.4319305364195429 42.2462619718712276  7.6606731322846127
  8.8644599844781560  3.5318264228192811  9.5072963176841903
 18.6479261524178916 39.1112143824554934 10.8319162101260158
 18.5727282476874578 39.0718647046541960  7.7125499749704920
 55.7071543976118733 13.4491766301161402 10.4383104947200991
 18.7521635593214206 35.9203312651581115 10.8698613694082802
 18.7141161092193435 35.8980465504134401  7.7501611423213292
  8.9426078961249278  6.8444188026722550  6.5220099146751744
 51.9686471186446255 34.2328796768565624 10.8272419069148818
 51.9807565456069085 34.1715453025402738  7.7072499213867793
 -24.1350223246818238 64.3972178250726159  9.4313327463081453
 17.5609119164684238 61.3282895724791643  7.2100766093568867
 17.7921436763105234 61.3751410870908032 10.3243828792077448
 -23.8862399742708824 64.3743292578347166  6.3146972737509657
 49.7534608321591918 22.8642390813102665 10.9606275575842709
 49.6378860175766263 22.8713943880396826  7.8436211228727251
 -23.6669508254419618 54.9445354229886860  9.8041835972259559
 49.8987236633091982 19.6481603536792733 10.9286719864545834
 49.7602024694733913 19.6869818367486360  7.8129112969493875
 56.1689534196654066  3.9195748262035135 10.0012071177517274
 50.0417857869442244 16.4348328605401264 10.8639293051532775
 49.8843855149588080 16.5057765434799109  7.7494657617515674
 -23.5934009095606889 57.9589639546911712  6.5161899981877864
 50.1842956251182883 13.2282855467217377 10.7678562556890061
 50.0108234428926579 13.3275276275268126  7.6542058068893315
 -23.8237598954331844 58.1070998287453477  9.6304710202463450
 50.3284530535223666 10.0346436944469328 10.6482879079929287
  8.7247145002462396  6.6801397915351242  9.6363465552002037
 50.1397351882642681 10.1482839055102243  7.5353507593490852
 50.4764055655962949  6.8564042892302535 10.5231997871710217
 50.2735019881424634  6.9637482131801303  7.4104230367290187
 -23.7365622362634774 61.1635713039999160  6.3839332097392267
 55.7668982094922328  7.2123005941176919  7.0231424080985203
 50.6286394052277871  3.6921154887914969 10.4143389418321881
 50.4129785063355769  3.7737062536147659  7.3007896821405529
 -23.9798352558329206 61.2566284242825105  9.4999323912855829
 50.7836167045779305  0.5369484560945004 10.3390836737076253
 50.5580033156630151  0.5786794732661295  7.2247079438851074
 56.0138741201264452  7.0825408356852435 10.1346659050445087
 17.6402414054523113 64.5299988822524284 10.3083466644777992
 17.4090843790003547 64.5258077877767846  7.1937905736983589
 -26.7321890538902842 65.8460905641298808  6.0986100294354326
 -26.9388853118905267 65.8335907991860125  9.2191767389912673
 -23.4563884621017280 54.7623208016784204  6.6913493082118967
 52.1229004885824097 31.0145578952245593 10.8697291241125598
 52.0968747470982692 30.9778176896478392  7.7495643368527469
 55.1453573421182597 23.1328686085958317  7.6395610499795223
 20.4911938234898479 63.0709434794235762 10.0988194935302573
 20.2297747692875305 63.0454655045679360  6.9856229616127807
 45.7229795231484601 50.0591912609552736  9.9753027830094325
 20.6383003360386219 59.9175230301752109 10.1372699993321227
 20.3834497570920092 59.8493703568563831  7.0242811026902485
 55.2487166951599633 23.0773367845421866 10.7576663491010383
 20.7779345476274919 56.7565333959748060 10.2151865176782728
 20.5370087118038427 56.6597963344210527  7.1016929970081843
 -26.6303170410717129 59.5584600613925161  9.3679573863164762
 -26.1534134743206046 53.0240888575689624  6.6360618520469909
 20.9084007026999963 53.5865006359627856 10.3157703110156174
 20.6897733857399295 53.4779993677808534  7.2021876183217346
 -26.3180786558609761 53.2404864128226194  9.7500285380862586
 21.0286699013890939 50.4084737603861086 10.4242675074765980
 20.8392847348497412 50.3009450622476919  7.3097591223510356
 55.0281459209592470 26.3252572270976657  7.6940702361314663
 21.1417872057335430 47.2269039901324206 10.5313135653721499
 55.0944770125012937 26.2934174929476896 10.8134991703729408
 20.9864847569740114 47.1259881725668919  7.4156485236039371
 -26.2889196763437170 56.2177411323437966  6.4248015789415716
 21.2505501294003700 44.0428196188829872 10.6325034034297214
 21.1323497955032451 43.9515917479366109  7.5153780418231202
 -26.4747673720922343 56.4066181523305019  9.5400825364073878
 21.3565317320795280 40.8563849305670246 10.7244843528679255
 21.2768770686065452 40.7774272426310844  7.6060940247597104
 -26.4304079118530275 59.4203846930131050  6.2506443019073350
 45.8609009496207420 49.8367480155409694  6.8616299413966981
 20.0784636917694925 66.2447244347978028  6.9963571940437266
 20.3388041152031818 66.2206703883429242 10.1097597434002644
 53.2299377572101378  2.2974288715719262  7.0585180457995804
 55.3851667981029649 16.7582013410089701  7.4554168030113415
 52.2766994499936786 27.7962561390903353 10.8848782151936074
 52.2133454682063274 27.7852481523674051  7.7654185767877202
  8.7840756916735607 10.0329577714267248  6.6921860475269801
 52.4291816705996041 24.5787804981076015 10.8725773966681221
 52.3307811994798726 24.5938165519878460  7.7544104219686618
  8.5930656852735794  9.8377968735401549  9.8061149022103518
 55.5548980545177926 16.6526176611432355 10.5703666768213154
 52.5805500236411731 21.3625243691961160 10.8328821460619693
 52.4505473954395285 21.4047808057625488  7.7161702354846549
 -26.5787601199476029 62.6310697829378569  6.1363440652084922
 52.7297384381250254 18.1486747253410883 10.7650508417299502
 52.5722598880191612 18.2194567611536939  7.6498277518507329
 -26.7854321005584772 62.6988828477690916  9.2558471078588109
  8.6265639768958753 13.2122715413558893  6.8832047933830598
 52.6958785637409690 15.0385202991133795  7.5540070936940689
 55.2643474500094669 19.9433736867229108  7.5604314153583774
  8.4696676228590135 13.0048640990251823  9.9973025686844217
 53.0245264342111824 11.7398816781441102 10.5448392712616794
 52.8218973779210828 11.8591064312094314  7.4316888025447838
 55.4022211285742188 19.8633437059645850 10.6769335012885254
 53.1744728723777556  8.5547400575433272 10.4070120048633736
 52.9525510415657692  8.6775139749212205  7.2949136695324466
  8.4721461928091646 16.3859446370875652  7.0792670276284850
 53.3272737739180371  5.3845876407978466 10.2756101283796468
 53.0884957370384782  5.4904682970095804  7.1635750624944725
  8.3526571141338923 16.1805573377522158 10.1938162477295311
 53.4820358693153253  2.2263644082928278 10.1713182415461691
 52.8771867780342291 14.9396555130885620 10.6680490879139285
 49.5175209152780411 26.0585881935246952  7.8429025601791871
 49.6057561880592885 26.0815391510970436 10.9609546118246612
 55.9045218462687217  4.0204967757895744  6.8892102890081821
 46.2293380668816951 40.2820508422558774  7.4571491110898958
 11.6763619587309826  2.0940241038507703  9.6938332885911205
 46.3408276656048486 37.2351091628752755 10.7263297051235700
  5.9309492429241271 11.5004741317912860  6.6419148703866258
 46.3479766824780484 37.0934844253169160  7.6088858586826218
 23.4712263126997520 58.4671623051309908  9.9477172940087417
 46.4889552495689102 34.0196676255635566 10.8529063980534684
 46.4661777295937313 33.9038821743724199  7.7350394561959961
 11.7834982901248182  5.3705231591216629  6.6719530650912278
 46.6348101751227375 30.8027030380567588 10.9516592910453578
 46.5848347902279301 30.7149722966130874  7.8338825511276822
 11.5328652150891493  5.2441185303466833  9.7851192312589692
 46.7798444855844835 27.5848688954445436 11.0201632068848419
 46.7046463794190956 27.5274836123398501  7.9026586595875843
  5.9265280539162450  8.1127838604058624  9.5472518694763586
 46.9224605608301886 24.3664019235860891 11.0562234690207575
 46.8253471878634997 24.3417023083691433  7.9392504625322964
 11.6280617092930108  8.5606722398233188  6.8041753931056954
 47.0634288634700724 21.1481698305805352 11.0575126182277703
 46.9484383648729704 21.1584367587326341  7.9413074828453221
 11.3987324393313276  8.4020504750821381  9.9169432224364140
 47.2022111273475176 17.9326458323456919 11.0224107876126887
 47.0731113446946026 17.9781529072947386  7.9074478887213253
 39.0576451376330382 12.7977262250668655 11.1630433736590202
 47.3396304458427934 14.7223274542400073 10.9526415084864528
 47.1988211374021063 14.7999333433508102  7.8384000147365596
 11.4736912477039752 11.7421612897778438  6.9584141860534192
 46.1898830041069104 40.4479696400189113 10.5737374715689612
 11.9390808014065044  2.1713421335793521  6.5796537653074818
 46.1090930645004278 43.4685062603803090  7.2804749253455769
 46.0362901789819006 43.6578930845452291 10.3962349363670210
 12.5018242865537488 51.5385635194000926  7.7463204266609011
 42.7484620872795631 57.6750777332990481  6.1910218384428717
 -20.9090975272668409 59.6966976019941882  6.6614610793472151
 12.7749568302827399 48.4154564635847180 10.9234841739395865
 54.9397681700926626 29.5114577639884850 10.8441170914341143
 -21.1616342634169570 59.8042080221038788  9.7749250627915476
 12.8938320424813142 45.2173562680283538 10.9658948233735902
 12.7649495797523613 45.1844215209074918  7.8494238110104906
 23.3696462330015429 55.1853052669188386  6.9410089108380664
 13.0074641140725067 42.0184961432572806 10.9880210345122631
 12.8962091565094568 42.0082349609239358  7.8706742303399047
 -21.0543728300205011 62.9021115427565647  6.5712165185928715
 13.1176575256260541 38.8200272112805322 10.9884623379676807
 47.4793587556743120 11.5216229697576580 10.8534212191991166
 13.0294171731237078 38.8334657471685532  7.8703619476989433
 13.2252564405124975 35.6228302505976799 10.9668740720071476
 13.1649102016382358 35.6599309575997694  7.8480493612743292
 23.6049611226250704 55.3075979836792726 10.0546783587813646
 13.3300028979720135 32.4268169010732237 10.9238831554087490
 13.3019121645223883 32.4863669632426806  7.8048656132294099
 -21.2051856797999463 66.1105720503343974  6.5432614022821101
 13.4344627689905405 29.2329112851006414 10.8605395360141941
 13.4412668412733165 29.3131923481446108  7.7420746392426993
 -21.4719706807110171 66.0948690474145479  9.6577119098340987
 45.8803305302923263 46.8633457898366430 10.1951459284429440
 45.9866096593789848 46.6528231834738989  7.0806469747014500
  5.7945696535137294 11.2715756188121912  9.7562352509066503
 23.2124062933500852 58.3722932111727175  6.8350164769170831
 -21.3174790258670583 62.9523142745967519  9.6855939315154131
 23.0555109737021446 61.5665913213289357  6.7676391799383895
 47.3267100878987534 11.6220729570386769  7.7395888286461973
 11.2749529120620604 11.5688502752150200 10.0714795359919158
 15.7224236646663300 43.7535116119209277 10.8652389175818307
 15.5936189403357819 43.7147920640165566  7.7483735383530155
 48.8089724069007218 45.2026070103916950  7.2624324393692286
 15.8316292051581389 40.5598910818906475 10.8979269239021548
 15.7302697946995398 40.5397076912942609  7.7796129147667008
 48.6902497339528324 45.3727326650634240 10.3779780975911855
 15.9378365227801577 37.3661465524948824 10.9132650925185910
 15.8681326864591234 37.3653104117242947  7.7939907832467599
 56.0485038174294345  0.8223059131658319  6.7938153255634930
 16.0419345647531557 34.1724718872627022 10.9105298931595840
 16.0070888660968258 34.1914096990254919  7.7906399778428392
 -23.1978301033309933 48.3876455460566106  7.0825831412897502
 48.8468992003587275 42.1636190128446700 10.5376137294289123
  6.2497343381939165  5.1204509046898767  6.2586320804145075
 48.9289973199497794 42.0149368451332705  7.4204640781692266
 49.0012034912679866 38.9501528931397871 10.6736318567547173
 56.3245755076089907  0.7673873536851369  9.9065448921798485
 49.0470637104594545 38.8239365188996501  7.5552645185818328
  6.2095523081244197  1.8240388814085109  9.2616399706003012
 49.1541905410326478 35.7348663068022958 10.7854218382842859
 49.1647306662277330 35.6317892971909131  7.6664115801490693
 -23.3245781365423781 51.5727334138120597  6.8871515767702727
 49.3058753283886304 32.5180383768621937 10.8719001924482637
 49.2817866214840166 32.4396415040402815  7.7528878989932064
 -23.5097272105491157 51.7676619044894650 10.0000631288861701
  6.4091517465191439  1.9144975714729937  6.1423082741515689
 49.4564701845761334 29.3001565374503734 10.9310251755172203
 49.3990654787971977 29.2483721001802763  7.8122094482189386
 -23.3517142425827480 48.5761041961180453 10.1966611191040304
 42.6124013566753348 57.8564266316831137  9.3100643909220366
 15.4581506411913878 46.8908121232808526  7.7010261018667743
 10.9395435227555478 21.1075739631601849 10.5440699568311373
 47.6231977959034793  8.3350904387872404 10.7381559863426119
 47.4581819194819445  8.4400194874998249  7.6244756587111295
 23.3290588512682042 61.6189189758092368  9.8804611574783117
 47.7714504803797766  5.1626704178945779 10.6283875762309634
 47.5950647352314462  5.2518884701875299  7.5138035662779510
 11.3203890043438786 14.9175490201189636  7.1191138473598787
  6.0899046089176965  8.3160394744111610  6.4320498892295532
 47.9240792656847034  2.0011452475520599 10.5431762644675384
 47.7380619977323803  2.0584015675291676  7.4274041818586571
 11.1591144922088663 14.7429935049252396 10.2332469320270647
 14.7812719838485052 65.9915487563212935 10.4958193756633946
 14.5884811174209972 66.0066664012873616  7.3796503424314892
 14.9358141680669547 62.8370806878331791 10.4926381947763794
 15.6096738770691239 46.9467236797709262 10.8168877585125891
 14.7401897924379544 62.8094584944957930  7.3767146277357121
 11.1698265600305291 18.0904222441975833  7.2775084926341416
 15.0862559944522427 59.6773914915700345 10.5307599635467994
 14.8914023343241659 59.6149593089297269  7.4154813076600004
 11.0482045141309762 17.9230015545606669 10.3926741545303827
 15.2301850856198318 56.5080315610985835 10.5988550942628468
 15.0401048323953308 56.4259869262744616  7.4840128401008750
  6.0646098849790198  4.9644176751642499  9.3760274070461183
 15.3652695603564737 53.3269919325284363 10.6786868685397298
 23.1801615476104601 64.7661510900565531  9.8648724310172717
 15.1835326618632021 53.2437857211305925  7.5639501669056761
 11.0222355980516262 21.2624545905694227  7.4275026504369741
 15.4913649309707466 50.1385824763603551 10.7538426069539383
 15.3223177983856438 50.0665704029272689  7.6387920346393230
 22.9008188700000836 64.7663847137797717  6.7518260915779686
 -9.5076122221478236 50.6301937416888777  7.7442322224838582
 37.4755341943857729 51.0151835938680094  6.5834851257879876
 38.9250881018276971 16.0028825488015229 11.2285229518984551
 -4.0818598717409520 50.9400516826775061 11.0491649688361431
 -4.0065824494968343 50.8587416028647894  7.9325443487516187
 -3.9456369271977718 47.7371861343676045 11.1220424909911788
 -3.8763849122925134 47.6803445490732329  8.0057871919427583
 -11.6922313321610218 36.1800278814755885  7.8109786553944618
 -3.8130171234614902 44.5258152097569777 11.1645099266107213
 -3.7496568983061942 44.5023258010918141  8.0480771255940198
 -11.7666672290831009 36.1597577285386365 10.9300977383699482
 -3.6821155620609267 41.3103704538327321 11.1707307831709812
 -3.6243759459463005 41.3236274564317725  8.0536583690360519
 -3.5523125750127673 38.0927922140497657 11.1382164022685171
 -3.5002755651215480 38.1432755340080618  8.0208572039463117
 -11.8129233757950676 39.3695605890291560  7.8218567853566485
 -3.4218107605302461 34.8752089669010843 11.0674235728995516
 -11.6172475722946178 32.9418680515861411 10.8902676196316506
 -3.3765003589952549 34.9613035290828549  7.9500144766288567
 -3.2893990458815621 31.6594284938923884 10.9609334523358424
 -3.2528986612582194 31.7780842831263897  7.8436740526816431
 -3.1553959119010853 28.4451821802845011 10.8217558780532244
 -3.1291353511345337 28.5939555072391336  7.7049227986325119
 -11.9355281599861947 42.5563744749277220  7.8012257891420402
 -3.0191586440092286 25.2336248628816300 10.6520211008813863
 -3.0042634919741817 25.4107773529917438  7.5361315950503398
 -12.0609283719980667 42.5940321296351954 10.9184548322583499
 -2.8805355727809356 22.0252695887772347 10.4538031432543459
 -2.8779719727699882 22.2294999776739672  7.3384898509512366
 -2.7393513923557524 18.8220707526113920 10.2290926473116155
 -2.7494024737453207 19.0509030323913322  7.1139832974300274
 -12.0609965865029132 45.7402347875302127  7.7486204115849731
 -2.5961154475116603 15.6267281453127893  9.9820086832058941
 -11.9149201071496300 39.3776979315350175 10.9399334142265818
 -4.1422274288940129 54.0410438616990589  7.8412412703671412
 -4.2226108888023370 54.1303544946176984 10.9583353522045375
 -11.5737162053310154 32.9887409355316166  7.7708820037415949
 27.4193875712006445 25.1752189024014648 11.1212723425112134
 27.5027630376184966 25.1396183999993426  8.0045084161802862
 60.8753595961425020 20.0824201681164851 10.4670763226551760
 27.5327080304576519 21.9693663092946885 11.1481474220293197
 27.6277172327672957 21.9619520411728004  8.0318674709650768
 27.6497159445100991 18.7626071151593727 11.1450991059399591
 27.7510862311666315 18.7836269124716999  8.0296502650685913
 -11.2208880283193384 23.4118213128752508  7.4919209715834034
 27.7710806682882954 15.5570618178999140 11.1131826328798464
 27.8749947132179621 15.6053939572746518  7.9981122635174042
 -11.1629008599362951 23.2939874336669881 10.6104355975621818
 27.8975047026645449 12.3548482672229767 11.0549388107422679
 28.0010694717810047 12.4272602106128591  7.9396753904966229
 28.0306440569421511  9.1602949398139124 10.9760303034372697
 28.1321259227479743  9.2482084829891562  7.8601409697410727
 -11.3386175706333852 26.6036287383252876  7.6098741904259324
 28.1723051752309885  5.9789447903995621 10.8894507643950575
 -4.2832844297479236 57.2299980232130210  7.7512094777083886
 -4.3675974560159307 57.3075214856557125 10.8692026467518676
 -4.4297891882464855 60.4246565663948587  7.6817364261736829
 -4.5173955286718641 60.4744377339584958 10.8007351376894327
 -11.4667672507228016 29.7248187394241654 10.8228738994241613
 -4.5800369759659558 63.6228807189807739  7.6465485602764334
 -2.6179958266543708 15.8737136654159201  6.8668542677524824
 -4.6702904545204431 63.6346640766945413 10.7657483029265038
 -4.7323775929758236 66.8220912214083000  7.6522169845430161
 -4.8251151831601424 66.7930345845786775 10.7709162174244959
 28.4157859174787220  2.8737237721981019  7.6974150055179091
 28.3206149555175202  2.8094005234925810 10.8152626162530048
 -11.3156694901515191 26.5084405281142814 10.7293396679614190
 28.2704673843924610  6.0649262433524624  7.7726457891922527
 -11.4559365049135522 29.7962792892766579  7.7031865396031662
 -12.2050623292352292 45.8074181429589302 10.8647335341610152
 -2.4504623903412281 12.4437702858236054  9.7228962805224288
 -2.4816696267658851 12.6950018521643653  6.6072520846331564
 30.3749384410265542 20.4852343172431937 11.2248224348329462
 30.4416418907140169 20.4854532703004679  8.1092379807047301
 -12.9458920070100660 61.7255713464593327 10.3705582257201847
 30.4964222367483835 17.2758877454766626 11.2106000367329308
 30.5641568675349475 17.3073051975447036  8.0953155557095826
 30.6212744694105048 14.0695837401122912 11.1660817963703618
 30.6881619028881865 14.1291593600449907  8.0505707049814710
 -12.8958269645606460 64.8775099875371382  7.2224739550903685
 30.7524128666077736 10.8696612240962551 11.0959130899377367
 30.8166833045451476 10.9511903029069462  7.9797083802407247
 -13.1022873930501209 64.8782906738376681 10.3384384203196102
 30.8906165541872326  7.6807045941117522 11.0095153171859490
 30.9506966928544607  7.7699642391531016  7.8926067331708047
 31.0362190179789117  4.5049017300432057 10.9252390513145041
 31.0920204067206889  4.5819746253277973  7.8072037562640917
 20.2526704156231467  0.9318195849693982  7.2382632432391478
 31.1872387318541158  1.3396025609299849 10.8626521354138283
 -1.3212375639952139 52.5621369169349464  7.9428791840099127
 -1.3641614501511619 52.6454801355466628 11.0599224359544142
 -1.4605131700898688 55.7470731236480006  7.8550219142747197
 -1.5062744233174601 55.8291884158253922 10.9727947626743045
 19.8918214331749930  4.0460331060300936 10.4107337277666989
 -1.6053071644776522 58.9383971206288919  7.7775766636355819
 -12.7466206026929605 61.6778604380361202  7.2547792530647577
 -1.6526264567386479 59.0010580041054951 10.8964745174990458
 -1.7556268629011584 62.1347951138237775  7.7275004304703527
 -1.8040222704726121 62.1647945467317129 10.8471737811872355
 -1.9073500234880318 65.3344153549638804  7.7151546559802888
 -1.9574522564987189 65.3249766220958605 10.8348810084142197
 20.0417239031080037  0.8866813386809397 10.3534621882511964
 31.2398413849756231  1.3876243831453727  7.7434151398976914
 20.1043635610267977  4.1271067449912815  7.2965341010783975
 60.7815724105440296 20.2226710410882866  7.3501270572237809
 30.3193145630413348 23.6635768234309829  8.0902218227136746
 30.1960537048083815 26.8418051147394365  8.0379636640677479
 -2.3022020494300950  9.2756608886588978  9.4706916621701467
 -2.3408137155361142  9.5100444664997585  6.3529592079102528
 -12.1896212941168738 48.9212946463731342  7.6646707324912393
 -2.1520184291695106  6.1219431522106289  9.2488028657104113
 -2.1953026346288862  6.3155416382291429  6.1277004547345948
 -12.3484095723381007 49.0158434697674537 10.7797159171728634
 69.8832108329933845  2.9800410202284389  9.0810276142669419
 69.8391152506249711  3.1094817666539507  5.9566800849042609
 29.2236759561346027 52.4298343052474820  9.8413066679008843
 29.0634676242140166 52.2350784893766260  6.7256224233816884
 -12.3220528952946236 52.1029467491082983  7.5553950037927349
 29.3457850317834001 49.2631927916595487 10.0472283769784116
 29.2233929697053867 49.0596063673622496  6.9318697611074889
 -12.4925760900710987 52.2137978893034926 10.6699471738492377
 29.4620560167231673 46.0868294406332453 10.2569639275392923
 29.3776100971959231 45.8876417690101732  7.1414152255028664
 29.5756755626252108 42.9031039570139825 10.4590210611352052
 30.1409452146301078 26.9059405625171699 11.1536926283458957
 -12.7911105125834421 58.5667278980543742 10.4456086768712257
 30.0701170424549211 30.0191342681712747  7.9532548162775312
 30.0263292876934855 30.1136426765510201 11.0691603528604681
 -12.6007436143242995 58.4810385863592757  7.3305025498304426
 29.9411857811914999 33.1956130171144892  7.8385096626696633
 30.2567265236061651 23.6957296769220136 11.2059855532326065
 29.9127935761552983 33.3178604399841660 10.9546113087958190
 29.7998567616270904 36.5178150537708817 10.8123045819184025
 -12.6398925476022406 55.3971439937901522 10.5514346251993789
 29.6700186486236994 39.5443782357583302  7.5298968364023615
 29.6877593761327851 39.7131544770080751 10.6459676307812892
 -12.4592601424747418 55.2890038292360799  7.4368796535984742
 29.5267399675542102 42.7164529142423888  7.3432105480110685
 29.8079298539111193 36.3706200058983740  7.6963696326493034
 19.9600796680420451  7.3154839684839432  7.3822334939154564
 27.3745967350775032 28.3161181840843348  7.9485685562026935
 27.2435248317715022 31.4921848056825020  7.8656287881526694
 24.1689040179214771 39.4153657399059441 10.7131671475615207
 24.1254718986744550 39.3092985674395052  7.5951887656362214
 -10.3983847084749872 66.5678147861898708 10.5178088065700894
 24.2738602360845839 36.2256285041972319 10.8202356415401901
 24.2674040684067798 36.1361003978533688  7.7014785584907557
 24.3785652298191131 33.0328677087453570 10.9094302461966226
 24.4066691725288720 32.9627104233672057  7.7908040086112873
 22.9219078440386888  2.6457077549136638  7.4421379805051044
 24.4840233906872733 29.8376250462036197 10.9785233386595618
 24.5430113361802178 29.7879411252440462  7.8603758368384478
 22.7471156235921192  2.5807442165601553 10.5578864537702763
 24.5906451743296195 26.6400020854431752 11.0260810218299472
 24.6763389318098483 26.6121681339542491  7.9085695663033109
 24.6999096973172776 23.4402872267528437 11.0503233327766779
 -10.2264172492720391 66.5937398290921152  7.4008030835188547
 24.8068928243402915 23.4355135072311285  7.9338258061382625
 24.8115888939240250 20.2391022690666489 11.0502427525528244
 24.9344167249555149 20.2579701172247688  7.9344229802942934
 22.5992140937262391  5.7479104228931375 10.6309487496486366
 24.9276476872941828 17.0379120563575235 11.0253651540742172
 25.0606051136136578 17.0801309081216708  7.9100321744106266
 25.0489888081214147 13.8375889059437416 10.9760738784502916
 25.1872599500794010 13.9024838796013714  7.8614564938532157
 22.6365458601945875  9.0208873813382180  7.6042278416598448
 25.1766765722818775 10.6409727253818769 10.9052235900376502
 25.3167956881920873 10.7245998755591661  7.7907161549186066
 22.4603423698312028  8.9274956255356610 10.7182181656805415
 25.3124265085656042  7.4526977189734724 10.8204240080624459
 25.4513250869120427  7.5434578712859262  7.7051022423896409
 25.4577818781452834  4.2785338735162117 10.7379634980072165
 22.7756460561273286  5.8370827656021795  7.5161814919007917
 23.9798239880276682 42.4821054734252002  7.4747660214949958
 24.0626617657849309 42.6016352450061717 10.5920855241895975
 63.8515790500960847 12.4079917509805711  6.7573391159737000
 -9.5058669851595443 47.5207195165270520 10.9474909153754805
 -9.3768170209984483 47.4506441728182864  7.8317863589367231
 -9.6427438147839926 53.8132173327191197  7.6380414409249342
 -9.3668779093593493 44.3087319422567631 11.0049027085429021
 -9.2490393384941019 44.2704755851556655  7.8884073765604086
 -9.7887807284257455 53.9155397576528372 10.7534620944889010
 -9.2271508868650063 41.0926011911793125 11.0272735796912436
 -9.1237436269636749 41.0877897592311427  7.9098045909973020
 -9.0851363250661858 37.8750864234589883 11.0138238973468088
 -9.0002577105878139 37.9029719228421698  7.8958295005498096
 -9.7826427634452493 57.0017513267968283  7.5332968699406431
 -8.9422870213005474 34.6574055411272113 10.9665567257252476
 -8.8791665575545231 34.7154955539718273  7.8479469666992170
 -9.9364157424877266 57.0917770074145210 10.6490251041282420
 -8.7976377271621136 31.4404832017065416 10.8881188315532107
 -8.7591226893209697 31.5260178894255816  7.7691638233560205
 -8.6517647523602417 28.2245210860445681 10.7810600232065532
 63.9930828538933483 12.1982371080160750  9.8722704757750943
 -10.2427312941610253 63.4135950503102919 10.5204721136457255
 63.7266837277760345 15.5900356944162493  6.9799067498799738
 63.8374810742944163 15.3881773015169188 10.0954795950370642
 -10.0754432034865573 63.3945500897792797  7.4030686229419009
 -8.2795773501551864 18.7725129037033227  7.1865188901290828
 25.5943554094616772  4.3568453016705782  7.6216879415430965
 -8.2006405619381635 18.5904106866152681 10.3029532502993764
 -8.3531039980205293 21.7987505214250596 10.4875279588150079
 -10.0878694205746360 60.2566961918674906 10.5666366361880613
 -8.5203178985658337 25.1458933557364936  7.5289592707403505
 -8.5035030615235421 25.0103080362238153 10.6473049606008079
 -9.9269348011386214 60.1962778029550662  7.4499221303159819
 -8.6397821578430616 28.3355847715101490  7.6623607331024592
 -8.4003648005329197 21.9579127254391544  7.3699541790177294
 22.5020504651636308 12.1994255241233756  7.6868651874589293
 25.6084302582772629  1.1153104822343565 10.6782707388578864
 25.7427948719488597  1.1632411838206032  7.5608307085945441
 -5.6922262672815371 23.5156183894569182 10.5536889717692706
 -5.7007661369141855 23.6885499940698345  7.4368090405013696
 21.8394231571133908 28.0825665143410284  7.8259201789827673
 -5.5456765778787656 20.3072718914281083 10.3575615085922283
 -5.5770124785824366 20.5048615413860595  7.2415151372659317
 21.7714253133522213 28.0928729744940000 10.9449287895975491
 -5.3967059578818901 17.1038146692162485 10.1370306714762570
 -5.4516925867351995 17.3238259105658230  7.0211978826140680
 -5.2460809368748631 13.9105041214422815  9.8966479434155765
 -5.3242802075320181 14.1442105030538894  6.7810892646447734
 21.7016756967004660 31.2571957179290685  7.7963272333428728
 -5.0936477604453323 10.7315426827639406  9.6503518005091138
 -5.1925997318571273 10.9610566326933760  6.5343725621915825
 21.6676376902908387 31.2863005808167891 10.9159420157691418
 66.9437483853421327  7.5676763531665641  9.4198374449403310
 66.8280427229909009  7.7709032833871143  6.3021615972604819
 26.6544661501616602 47.5251742279894245 10.2640427978402364
 27.1983584404577421 31.5795372964164933 10.9823214077927762
 21.4614828771344612 37.6687349537839538 10.8043576820112097
 27.1089820301726441 34.6667526709011824  7.7578172197896400
 27.0898643230590572 34.7769791889468678 10.8750548346574494
 21.4206848826210745 37.6046193655344538  7.6846638416570467
 26.9707378104575639 37.8401477449654422  7.6286404158585546
 -5.8225402230757251 26.8746113460434195  7.6059580334577035
 26.9821432017307998 37.9706946196843802 10.7457392506680076
 26.8740830429693034 41.1604786414852484 10.5980294087636260
 21.5643889215204929 34.4784008501729033 10.8686540121383644
 26.6801117120492037 44.1853979114247650  7.3192399779674400
 26.7649920242710202 44.3453255603955441 10.4357868630676673
 21.5619707498214588 34.4312540599898611  7.7489819905666346
 26.5279708992507430 47.3576562297390424  7.1480799416001917
 26.8278731753019493 41.0131183012928915  7.4810508662023834
 27.3078256780223896 28.3785578216692755 11.0652315262336902
 -5.8359101762290067 26.7274097909511852 10.7231102678015322
 -5.9442590695740254 30.0611344039888841  7.7467551079576129
 22.3306961550143761 12.1173058401745095 10.8003624942750296
 -7.5358219974761713 65.1029455839545363 10.6555189504662646
 -7.4042347181473254 65.1100512555384512  7.5371719130929673
 -7.3808613048519112 61.9457881603044029 10.6748697221815814
 -7.2533255184066316 61.9105977982559068  7.5565663102716369
 22.3708654469095620 15.3768883683981947  7.7535111408386150
 -7.2281873180835614 58.7837867721681206 10.7332464420040701
 -7.1056086083266594 58.7134639241607701  7.6158688238595147
 22.2093665408045986 15.3117769321920374 10.8676585808237736
 -7.0797977168665387 55.6130531398333332 10.8205834424259439
 -6.9628729302692420 55.5214607987086737  7.7040633953836144
 -6.9360424448496403 52.4294191947804080 10.9201774020381244
 -6.8251342246469067 52.3357184643086413  7.8039954273859582
 22.2402464520400933 18.5539068796650177  7.8009586336441084
 -6.7965876508941339 49.2320274025368363 11.0109768107919042
 -6.6921037533839867 49.1556015931555592  7.8949995155614792
 22.0943539757459817 18.5072123416717496 10.9163459715925875
 -5.9771897148648216 29.9412094643672049 10.8646521274512953
 21.9751624353439787 24.9069886634932729  7.8372210233498594
 -6.0660882069930677 33.2476596930455912  7.8582738430087282
 -6.1164992312050046 33.1563562001859964 10.9763398421306810
 -6.1885130004582090 36.4331342093661803  7.9382065964259114
 -6.2541386478206400 36.3736656027172529 11.0561291061960727
 21.8765193949430063 24.8980500029236751 10.9548343654889280
 21.9839083321459228 21.7024930853024358 10.9454346582723545
 -6.3903095258092106 39.5918732861270328 11.1005540074096078
 22.1087371473726435 21.7305238572108834  7.8289608311005860
 -6.4369146650467464 42.7980734851690414  7.9904303613279275
 -6.5255540651402688 42.8092349897380586 11.1071281812108413
 -6.5630511671837990 45.9772709007934566  7.9601407928046291
 -6.6602934376017737 46.0236963537092976 11.0761628565057872
 -6.3119710688393775 39.6167491732272694  7.9830544296058861
 -1.2269325321968811 49.4487611660288806 11.1381422569870168
 -1.1884584398663827 49.3826627028009213  8.0212964728826019
 19.7497792503034830  7.2159632007362182 10.4958474755341609
 -15.7136233949029016 66.3596111033929077  7.0169761410000566
 36.2017684818865675 14.2912586237311778 11.2220757007377081
 36.1915108051107737 14.3512983720661893  8.1067462591358073
 -15.9551707947442836 66.3396821077219272 10.1317530844461494
 36.3349645341846710 11.0902873443375203 11.1473343892956436
 36.3193955474078010 11.1732637612163206  8.0312952561909707
 36.4749606853851276  7.9018554981211180 11.0557865790494620
 36.4534281943414555  7.9921073776514149  7.9388229403571371
 17.4348983005099178  2.4139092159979452  7.0528732753469949
 36.6207569910293884  4.7263940566495988 10.9665641595965884
 36.5939142805959108  4.8042014878839820  7.8484533102610863
 17.1917874165411355  2.3466353433362852 10.1665710617684795
 36.7713135137300355  1.5606769111129577 10.8992268497841831
 36.7407147857444230  1.6096352709465245  7.7797620881906440
 36.0670650806800879 17.5285191800010445  8.1534257847094231
  3.6263967394547283 65.5458636107861139 10.8668481064706022
 17.2863241253677096  5.6070246633227923  7.1298883929498000
  3.7800646012290136 62.3860186415569160 10.8746069633621634
  3.7450377609515395 62.3567603710092371  7.7546392472682113
 17.0474394248082923  5.5061515278720163 10.2425563007086602
  3.9309226252750626 59.2216479834108469 10.9195623788218104
  3.8955057072848329 59.1600681042392580  7.8007331416603396
  4.0773776885623318 56.0489353393010461 10.9912649172381869
  4.0420194892975063 55.9693742213973806  7.8732838208984486
 17.1403965569856709  8.7918884786980396  7.2302548440953922
  4.2177441597251599 52.8642891826691397 11.0719921329658817
  4.1823710295184897 52.7855902618434669  7.9547074902324910
 16.9123133383813347  8.6758212452776480 10.3426000575445300
  4.3515926474085154 49.6671290696536900 11.1423648472256964
  4.3152001806250206 49.6064930625088749  8.0256205277914709
  3.5929958735492376 65.5563393263057463  7.7465133336444163
 36.0732013142963339 17.4992027830011878 11.2688845983754540
 35.9449464859306431 20.7066765051750643  8.1666641097445414
 35.9480377629201229 20.7115083833438369 11.2822787030578606
 34.2999325939388200 58.8669061550819848  6.0766282410868584
 34.5459734456893415 55.8757629868093986  9.3820471870854139
 34.4612808029642252 55.6673906423978551  6.2634430859343597
 -15.1359305850233259 53.5719909140964532  7.3313083550952340
 34.6848346334365232 52.7207396307129983  9.6129980090466827
 34.6197335865099944 52.4789121628268660  6.4968338627209246
 -15.3358993987701364 53.6979000164409186 10.4449811970486799
 34.8198073431700621 49.5527591483684020  9.8680543889231469
 34.7724925800054123 49.2987379216582582  6.7533912653313655
 34.9521610232487632 46.3736514577190633 10.1277924754910025
 34.9200359012083297 46.1236391517004733  7.0139916187759281
 -15.2740326140561073 56.7611948265882589  7.2031968470129399
 35.0818201768156896 43.1840541126370496 10.3768325904262433
 35.0609262330304858 42.9505637107256177  7.2628565138271801
 -15.4878800298556918 56.8733033914988226 10.3168518428678766
 35.2089523040946801 39.9859325704407667 10.6037204302873178
 35.1952637451658887 39.7772078393384518  7.4895567950433106
 -15.7999410766130897 63.1897068853687784 10.1470050493140640
 35.8232477240435614 23.8856169197393839  8.1438878290788228
 35.8240187617906116 23.9263791825432328 11.2593663124897745
 -15.5642588000881368 63.1572282558455527  7.0320294693222802
 35.7009929078868495 27.0656352217803722  8.0837748158724452
 35.7012773357826845 27.1424764496131772 11.1992660778482271
  4.4804019715242660 46.4627723408755742 11.1890475912643499
 35.5776753052753705 30.2456715098923077  7.9866745589070991
 -15.6429973072130206 60.0359392275308608 10.2120097270971488
 35.4524265497734206 33.4248269992240381  7.8542626138322102
 35.4567182008109683 33.5709101444652660 10.9688655999384057
 -15.4172096453006340 59.9566864865534157  7.0976255140374809
 35.3252998226332693 36.6024434840306299  7.6878212288437711
 35.3336316964030459 36.7809947928429466 10.8021413046546559
 35.5788645504937548 30.3576201788822360 11.1019116219987115
  4.4428173916434357 46.4295994343981278  8.0724671935656627
 16.9962692657939023 11.9703875713748928  7.3357764615484955
  4.6044636815779247 43.2537567649101362 11.2057419338838447
 37.3261830710724922 54.2008914624791913  6.3253240087683613
 37.4784145693415596 51.2751860119077989  9.6981769882147901
 -9.6457654349855506 50.7247547346063570 10.8596904465037820
 16.2882589513213247 27.8452303582553817  7.7315606596777471
 37.6196272094043707 48.0993032402461225  9.9664096655526677
 37.6192786953028886 47.8365908046827926  6.8528769456212260
 16.2477505991023961 27.7888239599290685 10.8508128317043955
 37.7589833164379272 44.9106021272627132 10.2285043642910551
 37.7569699376805019 44.6613090071790282  7.1152616227479841
 37.8961162443120045 41.7114104719077545 10.4708438410774036
 37.8885625185253048 41.4856030703275849  7.3571756507449537
 16.1472106199656338 31.0184181357644384  7.7694948514050761
 38.0307734151728809 38.5053982081101225 10.6863189165569530
 38.0166937548750354 38.3081016173085587  7.5721568364365135
 16.1451848586133480 30.9802977465033393 10.8896753789999163
 38.1619604166085438 35.2948787354204683 10.8713277360473626
 38.1421594341656416 35.1290470993649606  7.7567272018158784
 -17.2542454247688966 35.9483100986970214 10.8256248696378332
 38.7581127895203039 19.2277296981845929  8.1463994330500640
 38.7956238115023027 19.2140776908271071 11.2619818823588886
 -17.2037634845240568 35.9074583070447346  7.7058409505689616
 38.6356567672363269 22.4070469869622215  8.1438681874875840
 38.6684077692628136 22.4294790544115514 11.2595348039605305
 37.3349427999208530 54.4383909392787189  9.4431501035132772
 38.5129761884800104 25.5872179054414204  8.1032713858886467
 54.7847255876651857 32.7297227971521068 10.8481073856610468
 38.3897259706333358 28.7679019271042087  8.0242984134871289
 38.4163912840927466 28.8645526819470000 11.1397741603851799
 54.7962872089180806 32.7130232650884949  7.7278088599290493
 38.2662751979385618 31.9488392238680632  7.9082117170915458
 38.2898490230133888 32.0808806912440758 11.0231534056168972
 38.5422074234721634 25.6468641668780180 11.2189421102753641
 34.4032814312410267 59.0195551866721786  9.1980232578704371
 16.3509102136366877 24.5987718672186304 10.7954842011359506
 37.1887549767327101 57.5884955022058378  9.2230787722843868
  4.5669128292460730 43.2523073590769513  8.0892066688260051
 16.7878642090877150 11.8544172949691244 10.4485737523996232
  4.7256231695693973 40.0419792325594344 11.1894355486903212
  4.6899923439182309 40.0746187877533586  8.0726364321353206
  4.8452339581803203 36.8296901774677323 11.1388333927908825
  4.8143065241066498 36.8971353519878704  8.0217986244682926
 16.8536663668516766 15.1467430521814244  7.4363983064012249
  4.9633914426998684 33.6187738293554048 11.0541359054865502
  4.9403328400580921 33.7200446419481565  7.9372661914885265
 16.6718979037250392 15.0378506735802446 10.5499436500294177
  5.0804320949387325 30.4106464021300376 10.9373472163356329
  5.0693099513312054 30.5435940037717835  7.8208017464652650
  5.1969945718871609 27.2063500503174751 10.7909342177381404
  5.2015753287902626 27.3681711240002379  7.6749404038307087
 16.7121863360927421 18.3224249179567167  7.5278055144960581
  5.3129038685009782 24.0067158038067738 10.6179466528178086
  5.3375992240625010 24.1946698400050977  7.5024386639259557
 16.4295957753855184 24.6717057634792027  7.6773148857634697
 37.0135779602909523 60.6051336636767388  5.9380074016983739
 37.0400653022785775 60.7270537552059793  9.0628528974706839
 36.8543738176869482 63.8212182010825160  5.8548750258093465
 36.8895281397830530 63.8596540374935202  8.9815470828151582
 16.4555241412168165 21.4105268531851820 10.7255459720244346
 37.1715225725162313 57.3972601599487788  6.1018340920560243
  5.7753708360861236 14.6776343135640808  6.8677077088534606
 16.5711909968406168 21.4975752351111851  7.6087309294761329
  5.6241672209494276 17.8507925485612766  7.0929580352219990
  5.5471628947771929 17.6236937968311302 10.2077510720550233
  5.4783528797322383 21.0224589295295416  7.3069623379612585
  5.4292655799072893 20.8122129292115083 10.4219387802518835
 16.5616256036666911 18.2234904833680780 10.6430973012022090
  5.6686496816926777 14.4424982103569626  9.9819648354657691
 -15.1871334643203753 50.5078045955948554 10.5752638709034041
 34.1375155002078969 62.0767578371717903  5.9584133759332580
 34.2556863795173925 62.1557240203983810  9.0824421608473926
  0.6745904229480475  4.8540138206807741  6.0367559797632495
 19.2732628022073094 23.2020357933946642  7.7366535484082997
 31.7557167473959687 57.3064580664696308  9.4045064664468772
 31.5951073953763775 57.1385120361876346  6.2863726986471198
 19.1648038814857884 23.1545061911482009 10.8544089305905480
 31.8915095559001571 54.1560245481021880  9.5967350423920976
 31.7590526352557845 53.9469336751005102  6.4800484661029945
 32.0227040059674550 50.9953590838104631  9.8229077967474510
 31.9195236308385297 50.7649096240652398  6.7071642561559370
 19.1344243980524666 26.3765951529986324  7.7647108166788126
 32.1487256390207747 47.8231863085478963 10.0622483648615670
 32.0744515543861581 47.5898113889468135  6.9474234860977564
 19.0606974104636251 26.3457976402208160 10.8838539777847494
 32.2706662316436450 44.6415644276054593 10.2989032010806749
 32.2234592103330471 44.4182197486653152  7.1842423724546434
 32.3895226892022094 41.4514527512591826 10.5210394270695229
 32.3657772140327680 41.2470263091993132  7.4064509130779879
 33.0106460670755197 25.3640799975025217  8.1072229286377127
 32.9808840095291274 25.4196837269622442 11.2223664546772390
 25.8542620231466138 66.4625431381552687  9.6380495650182176
 32.8878793678389414 28.5431744041140547  8.0313039445620067
 32.8616771021210781 28.6327795735657595 11.1468393608659024
 18.8545717259813301 32.7241094840161111  7.7715653909748461
  0.6326095633237823  4.6856055720930465  9.1588976070047394
 32.7626875487397484 31.7217586173686570  7.9211747675277664
 32.6346053672108241 34.8989055872347436  7.7788927380694703
 32.6252248453821920 35.0513053291294199 10.8941571461839821
 18.9576384144895620 29.5372762752061320 10.8964527025425024
 32.5026215978015074 38.0740751677716389  7.6063236368573310
 32.5075051135048056 38.2543009591646026 10.7211862125000774
 18.9948358806309194 29.5504428107239399  7.7762896355063917
 32.7432746544703122 31.8437320671042592 11.0368437458156219
 18.8549009812988082 32.7287652498850363 10.8916079020591337
  0.5202328079322976  8.0539616689794009  6.2368935561342607
 19.2708031862799096 19.9635358421832763 10.8087801269912180
 -1.0945689253686857 46.2418400503707403 11.1913818101299274
 -1.0614593160923689 46.2051137825266522  8.0747540990609501
 -0.9655353580339991 43.0291607306411379 11.2119169019136713
 -0.9365146694022113 43.0272155463472643  8.0951929689689681
 19.8196501363784243 10.4963577070633534  7.4754230173305167
 -0.8387796151454437 39.8130474075992282 11.1957735840439554
 -0.8124356774811804 39.8482195354142945  8.0788584239532675
 19.6177011471363087 10.3964716498865144 10.5884696304732682
 -0.7129904689839385 36.5962714362781085 11.1411346488693699
 -0.6882843429526520 36.6687101890930904  8.0244221006962739
 -0.5874394965639670 33.3802398098272235 11.0490059068903008
 -0.5641315357928024 33.4876866467324774  7.9324394207760305
 19.6825686518276299 13.6738040152872600  7.5614780572914384
 -0.4606987376762364 30.1663243381210613 10.9218870936017449
 -0.4391941241243436 30.3064656239639660  7.8054375323167386
 19.4958101343916326 13.5836204496495760 10.6743510960567445
 -0.3322310046130358 26.9548104773011339 10.7622543345051973
  0.3703395313763603 11.2420383735865865  6.4796421876168475
  0.3418767307132163 10.9902135507918892  9.5960845459021460
 19.4101915483989735 20.0262871241007332  7.6930065804128969
  0.2251383676638202 14.4214427482572898  6.7403429372259005
  0.2022478001055294 14.1628724126577676  9.8548532666475612
  0.0845795545691506 17.5962477033384133  6.9983109275142725
  0.4852942893537660  7.8313607299738832  9.3559836950099662
  0.0657184394852264 17.3484803450457257 10.1124094353691998
 -0.0511662922685310 20.7706688923887128  7.2397564083694164
 -0.0686966166107040 20.5440341899215078 10.3545674588105161
 19.5465009420346014 16.8501597591483581  7.6344402214736684
 -0.1833153701384539 23.9471422872498110  7.4570073826379808
 -0.2015338965030599 23.7471722954106959 10.5724214110814270
 -0.3125170964770599 27.1258163348591133  7.6462556217089030
 19.3808702008288840 16.7731751179410331 10.7484350614440221
 38.8816000442251308 16.0498694383011440  8.1130233041531010
 33.1009559069460977 22.2061727491251730 11.2624530318032345
 33.2230069866427371 18.9939847465031875 11.2668814947753546
  1.7533270154499170 44.7288215702570184  8.1021589316087130
 -14.5890037675439395 37.6629970933274194 10.8665158847433325
  1.8808523991197799 41.5339533527982780 11.2193924855597018
  1.8766218536264343 41.5510075669477104  8.1026894247537626
  2.0042594959076072 38.3188520879953742 11.1839517588386048
  1.9999612113348151 38.3723929991059407  8.0671698080696750
 -14.6257413709311841 40.8325642205308981  7.7174035052500036
  2.1264111148886675 35.1037267084374704 11.1115769020546171
  2.1241495169519293 35.1932689423777489  7.9951171975080131
 -14.7408088833904429 40.8794573505177397 10.8351484701617906
  2.2478651371657552 31.8904059643625786 11.0036308451647660
  2.2498724219922530 32.0141272571404869  7.8874856589415829
  2.3694293219202831 28.6804780685788288 10.8626276888243751
  2.3779237847731705 28.8361907780363076  7.7465699849509084
 -14.7477868591984169 44.0215417849933957  7.6596409260141991
  2.4918768542208882 25.4743315560490515 10.6909319417973965
  2.5085277664242231 25.6594925436249106  7.5751511718414664
 -15.0022472604760306 50.3886314292600588  7.4610561770613515
  3.2294303352008655  9.7816975262500350  6.4175215272165103
  3.1332334669335489  9.5468516021023735  9.5334056275433543
  3.0759872320037394 12.9636437610745325  6.6601141220929225
  2.9984779553043737 12.7117958553779697  9.7746364971850763
 -15.0395478706885637 47.3046637170848925 10.6888146086600511
  1.7555610165700588 44.7469191417440655 11.2188990286184325
  2.9269115494572278 16.1389876524408962  6.9102315943269605
 -14.8733069806416118 47.2063891836739273  7.5737507820050292
  2.7823126720574658 19.3118705745805634  7.1520127672855045
  2.7408063187277443 19.0766526946434141 10.2667467206768404
  2.6430661455668174 22.4848645620471785  7.3757702239877139
  2.6154416135330747 22.2725478525168761 10.4911508888929212
 -14.8907763422313906 44.0939436938168257 10.7761253823174457
  2.8682384615355838 15.8891219272253750 10.0241962268191518
 33.1321118649004731 22.1854000919024728  8.1472048850165848
 -14.5059355185881316 37.6411717579899019  7.7474452063544632
  1.6270920360713306 47.9554785182565979 11.1849840885692835
 33.2541025745094174 19.0073079132722214  8.1515246453826737
 57.8448462510815418 24.8671106660758170  7.6013993093370171
 33.3473475521453508 15.7842981953954240 11.2375438762555984
 33.3769876517374726 15.8294867598030198  8.1220957103672866
 57.9095235818022971 24.7920487775593408 10.7204521358296070
 33.4767472883122181 12.5803076231365463 11.1782598510503224
 33.5033937986299790 12.6524024213952462  8.0622894579757673
 33.6118820623239927  9.3850818041734154 11.0961642595784280
 33.6338165732638785  9.4731151667944751  7.9794157488316548
 57.7278791635881774 28.0604064103711721  7.6761168713955374
 33.7547539233143326  6.2026499059386504 11.0059563780901719
 33.7712501819637154  6.2882498884773996  7.8883638987524787
 57.7549904189586343 28.0082192969446666 10.7959431321777721
 33.9032641871776264  3.0321393273571724 10.9282946975345396
 33.9156810879405484  3.0965867886792289  7.8092725339224298
  0.7573149038629635 67.0146108018746389 10.8797568746826681
  0.7667013979340456 67.0446277244316491  7.7595005915310686
  1.4984893427542565 51.0839011724558176  8.0052978979604479
  1.4948583958947186 51.1572698195283522 11.1223444609952100
 -14.4361652773212192 34.4452032556643957 10.8700311035782899
  1.3617736020987683 54.2652989960393128  7.9242744707839998
  1.3562480195074074 54.3478570908786978 11.0415319278160240
 -14.3886475565310512 34.4486912798103972  7.7499652038938711
  1.6278938757736909 47.9059773857669455  8.0680186141689436
  1.2185725791331463 57.4530249492399889  7.8424549703768145
  1.0702833413611406 60.6472689246931225  7.7792514325635462
  1.0636551781002699 60.6942565727823009 10.8986937948868050
 -14.2827661802308086 31.2266198931106445 10.8461154838668659
  0.9188621758368073 63.8452004588700177  7.7491490354611310
  0.9112340408919248 63.8552528287754626 10.8694234613248977
 -14.2722298498639084 31.2547481069733593  7.7260986908491347
  1.2122960359288726 57.5260286366121036 10.9606763954707009
 26.2116502229633852 53.7096242908211252  6.8083836952701997
 36.7373939368016451 66.9909680717299665  8.9880113818202609
 26.0062148835226523 63.3199437848674478  9.6251199369460565
 28.7362480660610302 58.6124882324548651  6.3917525566149909
 29.0950971358586692 55.5876407596941604  9.6552191997293395
 28.9004005018670789 55.4187885120190487  6.5395897016857623
 64.1490526597575013  9.0234112071338419  9.6502359297914815
 63.9811648256883885  9.2218204724497479  6.5353410463313883
 64.3046770507651360  5.8629118807251430  9.4519340382922827
 64.1168476118812407  6.0286740338008782  6.3348980854998711
 64.4604108727386773  2.7155286280926956  9.2981123956268590
 64.2604939076070849  2.8275228016514005  6.1792347183893250
 31.3157844647497861 66.7218387666497676  9.2093063139274740
 31.1127846106906532 66.7630268060203775  6.0889820131544408
 31.4668051061758831 63.5860520615853346  9.1983915721303422
 31.2693965405230152 63.5499225781111718  6.0775900227854365
 31.6139330974070845 60.4490331906709457  9.2662902593615399
 67.0981724960150672  4.4179027001571258  9.2290754387642018
 66.9714482893803904  4.5722601067683071  6.1083255664844707
 67.2513559467038817  1.2781431210093515  9.0996706301206807
 67.1207904660885220  1.3632101434210224  5.9761934801849268
 34.1052005735091726 65.2888433090575120  9.0483809622924163
 33.9775505422786424 65.2924790081916910  5.9238664836788359
 25.5766099400585496 66.4945970462695186  6.5243600500653516
 28.9592501165805700 58.7374740890489022  9.5082873120496370
 28.5738449687320824 61.8150196914785468  6.2997063415489887
 31.4310610150369314 60.3401809417192183  6.1468084054848786
 28.4157972115314585 65.0230572098635804  6.2758462019190944
 28.8165220483552389 61.8815419537202089  9.4165806677861568
 26.1519241441461183 60.1744897357205701  9.6752593394525732
 25.8901736054071705 60.0888802063701277  6.5609312575864944
 26.2899639418555182 57.0240282577486184  9.7790625728504210
 26.0510279065624246 56.8951738380093630  6.6650651198004338
 26.4191258864401846 53.8656181473876927  9.9229910160280763
 36.6962183740470920 67.0399277271185099  5.8617854473468674
 26.5398800530906556 50.6987572887023461 10.0895214838631535
 26.3711504153473335 50.5314019067620848  6.9745066808342324
 61.0314454885854332 16.8755335995700335 10.3003416862230619
 60.9014387011213287 17.0375691566573160  7.1847385012880602
 25.7315003018642088 63.2898736981537340  6.5109651139109879
 61.0227102996732000 13.8552162780985437  6.9978850476805361
 61.1879302503941886 13.6762836076962220 10.1124261598398260
 61.5614509228299838  1.0859234312654824  6.3255376274467832
 61.4161001500566570  4.2886357799500869  6.4415932069771831
 61.6571811278697979  4.1612723714662820  9.5562487940431140
 61.8127592848968490  1.0155803753750114  9.4410433951751571
 61.5009046371412040  7.3188581040415110  9.7203497143854953
 61.1473198068469443 10.6720850034665311  6.7992711859290562
 61.3445632997728367 10.4901157395419684  9.9128940750504526
 61.2783140210948361  7.4839483831828622  6.6066155801893034
 28.6678329640175775 65.0212037649196759  9.3925049545851405
 38.0675604125599918 14.1379677994573516 17.7087504855069895
 37.7553952516923204 24.0553595130857012 14.3826287861189019
 37.9416139663796272 17.4858557321065469 14.3903039450574646
 37.9724168218869735 17.4555202343454425 17.7547302044344839
 37.8490507327638852 20.7717029772418762 14.4046713751485562
 37.8747234158135555 20.7761792822119737 17.7695212582481439
 37.5684607353914188 30.6218897943801238 14.2252812919038139
 37.6615929567991117 27.3385109823610719 14.3224602887199683
 37.6773107594078738 27.4198683495150455 17.6862936190586737
 38.0316066747030987 14.1951134596188755 14.3451446391100284
 37.5795544276202733 30.7399888449613563 17.5875343143117249
 37.4764937396993147 33.9064545097780154 14.0937443922945480
 37.4837329498598848 34.0578549639793877 17.4538309516420433
 37.3863309740920400 37.1930547909084623 13.9314225765386492
 37.7759409131064530 24.0982282726711965 17.7472909203474245
 38.1582635031644912 10.8251611103655137 17.6424097565876572
 38.3928896998776850  0.9087163112813071 17.4659865480403909
 38.2428314492760464  7.5171744793050088 17.5705370623502795
 37.3903065730199629 37.3731570691737858 17.2889309342560473
  5.4047353728634224 51.4664588499536535 14.2594432469251515
  5.4637019965541054 51.5312378106854396 17.6218471637655476
  5.3209933665734566 54.7745124948929742 14.1957983508775278
  5.3824866466907260 54.8401441429933456 17.5574668059826742
  5.2447140967713901 58.0933567302398686 14.1395795080675786
  5.3062109167484364 58.1452373985743876 17.5003073520772467
  5.1743873402514682 61.4200749919099067 14.1018292615652179
  5.2342802329809563 61.4487708669746624 17.4621514187565339
  5.1073216216207511 64.7508300050132846 14.0893442515408172
  5.1645386009853462 64.7514161027255568 17.4499344013455477
 38.3389602235605764  0.9367655601809631 14.1053026212112425
 38.2702965917993012  4.2646466084977677 14.1474009617669179
 38.3203142932203065  4.2122575264507960 17.5082696012348826
 38.1969323987026286  7.5855486478223897 14.2088578112737576
 38.1173041987802392 10.8959296552644140 14.2796494531204043
 37.2979751881146271 40.4825575074800241 13.7429666119943779
  3.3683479187025416 23.4330410112597463 13.7665846413947666
 37.2124111052920554 43.7773860749264827 13.5346557840054356
  3.4650092200688669 20.1340185120635802 13.5707356419325240
  3.4180427931859794 19.9218403605475842 16.9227491363855833
  5.5496085056865745 48.2165817607389116 17.6780436457815355
  3.3358060407970651 23.2366912979117579 17.1218428291242191
  3.2703310689367848 26.7264314249098369 13.9436396832928988
  3.2509012779431061 26.5538449055346142 17.3015150827398294
  3.1716754954849078 30.0165606882432883 14.0956036664565936
  3.1636173921837751 29.8726681643421728 17.4558193442875300
  3.0731072998611757 33.3041744908522190 14.2183150392889939
  3.0739254068968318 33.1928985241628425 17.5805381450125466
  2.9751441252329252 36.5897486543734729 14.3079501313315252
  2.9824454113763950 36.5148883078336439 17.6716925001856495
  2.8784692749363225 39.8746817198606252 14.3621156370981140
  2.8899272060154146 39.8377891165098177 17.7266034660201370
  2.7835633941794500 43.1601509966439210 14.3798085312698358
  3.4978615052969899 16.6099276552383124 16.7133251973498353
 37.3002131816805758 40.6862288798809217 17.0975206144932272
  3.5589788802115168 16.8272778323062226 13.3643157300391184
  3.6488385473724501 13.5100932783563987 13.1587790420710782
 37.2145089510154534 43.9970565951046169 16.8859508457306724
 37.1293667929309805 47.0811243816078360 13.3157735865736040
 37.1337571551586265 47.3051136644620271 16.6640939711801899
 37.0493507722054787 50.3971086901301248 13.0993813934772572
 37.0581331155296283 50.6107937842075088 16.4450852839068631
 36.9727196790587129 53.7269556863904825 12.8998919751526877
 36.9865640817488313 53.9144634685489379 16.2442897129344708
 36.8996989811683491 57.0712554286706819 12.7333060254353096
 36.9186650505281833 57.2171021746071702 16.0775552581958081
 36.8302371742063954 60.4288176062204556 12.6156000832967710
 36.8533765211517093 60.5191234985505488 15.9598050793538881
 36.7630600190256231 63.7946776119602532 12.5573934191194745
 36.7895759531456079 63.8216455420987856 15.9014921885749239
  3.7338366399196268 10.1804382247311604 12.9675933667208962
  3.6494167452181245  9.9945330746049645 16.3123874623733229
  3.5750339771635589 13.3009606993104246 16.5051401916819245
  5.4941424268760324 48.1686591151163057 14.3149093711138402
 39.8545833022180034 55.4521048883926611 12.8182024093620459
  5.5873558713095512 44.8774518924995434 14.3481265712173283
 41.1501697441572247  2.6798967320052363 14.0688914720572225
 41.2465079114144686  2.6368077822961835 17.4281663006911813
 41.0802429336999353  6.0050272253294459 14.1244284794813044
 41.1717146440629449  5.9412784312858049 17.4843499899198278
 41.0052839128668154  9.3214706991053156 14.1949304397576501
 41.0905552123880398  9.2478784686251867 17.5561071607342711
 40.9242219236617402 12.6262411443082847 14.2682244720044338
 41.0022404422187705 12.5582458353055681 17.6305555577437651
 40.8379745241824494 15.9207681744219371 14.3288389499924218
 40.9081131200300021 15.8732560164510481 17.6921802570253917
 40.7486975457351548 19.2084967003232236 14.3636823650876977
 40.8100973223940713 19.1920720799815783 17.7278059467676030
 40.6580840052797114 22.4925987552786744 14.3650913216214757
 40.7096929801087271 22.5124613005587122 17.7295177432814519
 40.5678275266809791 25.7747940269219313 14.3295789087639331
  8.0191593952935083 66.4788132831635181 17.3954444559579180
 40.6083375059458618 25.8331340277630837 17.6935671308415543
  7.9187096686774234 66.4948378836983380 14.0362965755604563
  7.9851639260578837 63.1627887333047084 14.0316408115186650
  8.7357234666973280 36.6635912436811893 17.6236349904310643
  8.5892082887379200 40.0113860574881670 14.2956444805116991
  8.6512457989082172 39.9885282029835025 17.6590339458031238
  8.4882841531182827 43.3022430427887173 14.3001830182266296
  8.5653887673331983 43.3120406847271084 17.6633156810192347
  8.3908864825893446 46.5942470404026849 14.2753571493879647
  8.4789305428958528 46.6334700023791910 17.6378147180397242
  8.2975259697778547 49.8903332372495001 14.2261165458505214
  8.3932357639700275 49.9509216409070902 17.5876307361218522
  8.2090739634489225 53.1943146985692152 14.1628963907445140
  8.3104543627910736 53.2625775711509633 17.5236370744788452
  8.1277720516136540 56.5088453093835170 14.1010933046922897
  8.2322006286223264 56.5689742016898691 17.4611389375063162
  8.0538515204943106 59.8328353319890240 14.0546249340568465
  8.1586297259604681 59.8727921707934101 17.4139770372436189
  8.0884037683841292 63.1759595656513682 17.3906508080376341
 40.4789789186679130 29.0565199667305372 14.2566124099312930
 40.5073573357298073 29.1526761476581910 17.6194872137553098
 40.3920428420219224 32.3387186264712909 14.1479696774498382
  6.3176125378378991 18.3251088843200414 16.8777657404051027
  6.2990007268447865 21.8333584593608805 13.7129157040768686
  6.2386937839919323 21.6417690667032687 17.0667978812670746
  6.1949776161211894 25.1336052351359029 13.8839563277403197
  6.1578241735830810 24.9610771413827699 17.2408467622309267
  6.0904910859994565 28.4299972953668139 14.0342129018423645
  6.0752951027626869 28.2820880716118879 17.3938883564246751
  5.9865713849704720 31.7232871747194451 14.1594346185706588
  5.9910120550753714 31.6043294012375782 17.5210949614349900
  5.8838065010048428 35.0136847013527444 14.2557432585683870
  5.9048597873060844 34.9274934990688379 17.6187044529548089
  5.7824841070095019 38.3019198852164493 14.3203234490736850
  5.8169434963886699 38.2510318328838608 17.6841457246142859
  5.6834733065144230 41.5892761870212837 14.3510877339162182
  5.7276389193280028 41.5745829759364511 17.7152327887537844
  6.4012554749232615 18.5276291816880985 13.5268903437899901
  6.3949734639599587 15.0115407732369466 16.6826127468391867
  6.5002052821123462 15.2142715730302349 13.3343826071992311
 39.7446832296148429 58.9218581461730295 16.0178432634858758
 40.4075212418946066 32.4698210220989907 17.5090448862697485
 40.3077696414608653 35.6223089794491727 14.0068323520750333
 40.3099991776794297 35.7843860197907020 17.3653955623264942
 40.2259497812767322 38.9073996266218884 13.8370261178282092
 40.2152461170820459 39.0965947359697594 17.1923058205598132
 40.1465789267789219 42.1961198581288528 13.6427583446175120
 40.1244233252435336 42.4064007232539169 16.9947447623038137
  5.6382144472335840 44.8969951714890882 17.7120556249767880
 40.0698289496822113 45.4915473322519333 13.4312530771777805
 39.9954687013380266 48.7973020781681797 13.2128853447897558
 39.9584862427966243 49.0183847180880576 16.5595711766926534
 39.9236943842693819 52.1171160392947073 13.0030842116486163
 39.8835137155381005 52.3205243187731170 16.3478649818645714
  2.7975173975991856 43.1604468216982227 17.7444236199483285
 39.8124134259541194 55.6215054033719127 16.1621680597675415
 39.7873356145055510 58.8018612543678714 12.6738546555031437
 40.0385111003616174 45.7137854366573535 16.7802630554793524
  2.6907181213381661 46.4476390959256378 14.3629604980315406
 35.0441587541681869 19.0514424133548950 14.4097646913216000
  2.6007399960245885 49.7405363056810401 14.3177639938171470
 32.2891626671149510 13.9814001576467799 17.6954380217791893
 32.2408054242933133 17.3311839996734598 14.3753918583733462
 32.1960664267639061 17.2988218915323912 17.7395343081342567
 32.1450380950154937 20.6199566526353486 14.3896783909240327
 32.1024847209958111 20.6197036809888914 17.7541476503264199
 32.0464494239464628 23.9074063703591584 14.3702405665922921
 32.0092454628456480 23.9420078747039540 17.7344906447803012
 31.9459092004997487 27.1949286207079410 14.3156864129680166
 31.9172434355905068 27.2648326475095146 17.6793529017457303
 31.8440855235759201 30.4837826247207282 14.2270635325466799
 31.8272176907174753 30.5872577266286640 17.5895535083710683
 31.7414741651229839 33.7749520805311079 14.1070060703485893
 31.7396428687408587 33.9088700133817866 17.4679344055912331
 31.6387862983368429 37.0692555971929281 13.9591083757961254
 31.6544756537868928 37.2294857544445819 17.3178809630869353
 32.3333709276409209 14.0386340647681944 14.3320002182188340
 31.5363186264787103 40.3673508176562592 13.7880426892535706
 32.3793766637319465 10.6690933455058552 17.6317072052368893
 32.4640970226821892  7.3618937769889667 17.5629959353578222
 -0.2903058133626753 51.3125123101707388 14.2807722211005874
 -0.3157263419444983 51.3785038691680285 17.6437374699873750
 -0.3713611524414121 54.6201522505237520 14.2150391873660542
 -0.3975454429978925 54.6871026104686777 17.5771163575813922
 -0.4459431968428186 57.9382744176420204 14.1556098127780459
 -0.4734450891289452 57.9924145765414423 17.5169505710706481
 -0.5157083626451880 61.2641319983707788 14.1135265222088755
 -0.5448249907217745 61.2958647445928761 17.4744011250171098
 -0.5829273348851510 64.5944347422326501 14.0960804406182660
 -0.6140596851236051 64.5982557316308998 17.4569561131271200
 32.6482217766762020  0.7799586572363294 14.1067379484989281
 32.6146316464908494  0.7553038443155443 17.4676579936094143
 32.5784000108506433  4.1078010421183970 14.1435737345074823
 32.5419768609297435  4.0579435654751652 17.5047998992167351
 32.5033305314007848  7.4288475231764615 14.2010102132174012
 32.4214326514192805 10.7390474839869370 14.2690054757294078
 -0.2281097575850327 48.0648085172518620 17.7016633831903256
 31.5716936453427657 40.5487687436336657 17.1440850697955653
 31.4916090393549553 43.8661509490973742 16.9523740001284509
 -2.3077837904104270 19.8025871750012605 16.8965603255511816
 -2.4012308976018493 23.3044503429784413 13.7457470664693986
 -2.3968394547911598 23.1122494620932386 17.0999947536540589
 -2.4839648351545685 26.5909504492605251 13.9241947069152356
 -2.4894579108148558 26.4240745086344440 17.2815574260781020
 -2.5688374836562953 29.8751540126981325 14.0755215962297537
 -2.5846384361393961 29.7379886475311288 17.4356089646322907
 -2.6553435895773645 33.1580413611969291 14.1961855907683763
 -2.6818033188414416 33.0539859016674953 17.5580264673979265
 -2.7433404238707904 36.4404031918551468 14.2825722717402854
 -2.7796734631036690 36.3723419504622498 17.6458894427769728
 -2.8326198116836760 39.7225820063389747 14.3325321573836781
 -2.8778163163741710 39.6922936910164310 17.6964945852769659
 -2.9218995326230059 43.0059596240779101 14.3450286023898546
 -2.9750668523477919 43.0127088122550703 17.7091462157462054
 -2.3207998779927723 20.0133804052896771 13.5453979305001901
 31.4351474499869070 43.6701859818521356 13.5994138990061160
 -2.2233837460649650 16.4954828222885084 16.6804225378372095
 -2.1432400281196955 13.1911249857577850 16.4645034971492237
 31.3366138693583238 46.9799087246793263 13.4007704686919045
 31.4144139405572140 47.1811317887329267 16.7508916218273676
 31.2425870642696033 50.2994374027575546 13.2034780013405264
 31.3402565578189751 50.4928154819741479 16.5510510041103167
 31.1538867098920171 53.6313412075148079 13.0218009484326895
 31.2694742176891296 53.8010682003543579 16.3672942204303808
 31.0710356722606491 56.9760949936678003 12.8715562813245761
 31.2023228254231881 57.1068331285017265 16.2156006730776703
 69.9274579565276184  3.3807409746439725 12.6289489744799130
 69.9581759933165870  3.2833110538678820 15.9732735930720722
 -2.0244248818973887  6.7352284877445001 12.7519424343903616
 -1.9943277800925938  6.5860998371034816 16.0962637285300723
 -2.0946847760643847 10.0759937281150194 12.9199065195501355
 -2.0669754737068375  9.8884078840300784 16.2647966180172254
 -2.1676702274634456 13.4024375175181021 13.1182583431625321
 -2.2431223337894033 16.7141673238897432 13.3318188048935564
  2.7059879394385069 46.4813118682378317 17.7271135387190775
 -0.2036660417973707 48.0158540247733825 14.3378282491018734
 -0.1139368467764124 44.7269131637751229 14.3715684918343012
 35.1370732359341673 15.7628772787178359 14.3808232859456258
 35.1315854081358978 15.7181688378022724 17.7450029975713122
  8.6928769592271546 36.7196332871623738 14.2605695894420492
 35.0363167318685953 19.0377036544153562 17.7745382144755553
 34.9489770144485092 22.3371610707180466 14.4051207440675881
 34.9402438401580113 22.3596689000081739 17.7700814333459505
 34.8522107394263827 25.6220241439233618 14.3636557287894568
 34.8443535158301572 25.6822496256920907 17.7280180669087422
 34.7544194325850242 28.9071494901394956 14.2851727493187663
 34.7494928365360636 29.0041658244892275 17.6483312244689934
 34.6566696354201582 32.1935525060767134 14.1716329652356539
 34.6563551964251388 32.3247520927233225 17.5330592589887253
 34.5593697936431070 35.4820604477174513 14.0263420802137624
 34.5654673224619131 35.6434887336468691 17.3855716246231395
 34.4630782994502312 38.7735681400337242 13.8535193910230472
 35.2242303354717308 12.4029580543053068 17.6890436568368941
 34.4773084610276044 38.9603785621927656 17.2102538600157402
 35.2264181373262772 12.4680128864439865 14.3256201515592299
 35.3106606732178037  9.1634580117316684 14.2570951882500232
  2.6171182205507746 49.7980896190437363 17.6813420847163449
  2.5153024413718787 53.0423889895328742 14.2562311681304799
  2.5326451913087440 53.1096325768838540 17.6189452632033898
  2.4362999534796153 56.3556618932615763 14.1937834531804725
  2.4539497637562113 56.4165298230572674 17.5554369316859962
  2.3637986171719354 59.6783227057022359 14.1437574757048647
  2.3803971825670502 59.7209379329882495 17.5048720479369848
  2.2955192019334438 63.0071016556222858 14.1153369968262812
  2.3100722383935244 63.0239217753534717 17.4764805815778885
  2.2289089900202721 66.3383114108383154 14.1142660922990490
  2.2406489025752534 66.3260978335048179 17.4754175535290734
 35.4595229669176462  2.5228064929950373 14.1412080794984831
 35.4680214782523393  2.4834401440619485 17.5022463808293232
 35.3881222222435952  5.8474911969434036 14.1914479624194776
 35.3929172455533561  5.7871246660098068 17.5531263051890321
 35.3118014018732040  9.0928810869516958 17.6198803128257389
 -0.1359867311969424 44.7462187423861550 17.7360876770892055
 34.3680930762773045 42.0694514871827394 13.6585854917833149
 34.2753023243669546 45.3720622663326125 13.4493360142999681
  0.6177651152928305 18.4277740328654716 13.4382268341902922
  0.5978634281781429 18.2066536671147006 16.7882412177760258
  0.5306657058303692 21.7263272884519836 13.6482968030912080
  0.5142441298094239 21.5171871807515060 17.0014486155883802
  0.4408958995922841 25.0179801093858778 13.8423038045767335
  0.4269122665299402 24.8302999370303574 17.1983296439979902
  0.3495701287536720 28.3055584833054219 14.0125757945758860
  0.3367142024595939 28.1454228238199633 17.3713551092593264
  0.2438701541592665 31.4624784147857604 17.5153643396760508
  0.1638432387033487 34.8752097780220680 14.2633344496866901
  0.1494072235554217 34.7816585794193358 17.6262122257693044
  0.0707201422901836 38.1587053330115822 14.3367791298685017
  0.0539216243519607 38.1029239493673160 17.7007808688661150
 -0.0221378459275685 41.4420519945684873 14.3726001328209048
 -0.0415288854613485 41.4249808685702092 17.7372109054074869
  0.6779154245188870 14.8990035055006427 16.5699925337920853
 34.3925954069176925 42.2753564389671510 17.0125227907647769
  0.7019664919941370 15.1189693741461060 13.2228145860662547
  0.7825458354280500 11.7972391880745668 13.0155006714260129
 34.3117910781597075 45.5880017415566101 16.8001235299158580
 34.1861638348187995 48.6846231437394721 13.2364492792694453
 34.2350360054624545 48.8978298149329191 16.5841324264424017
 34.1010441489578469 52.0092870370876170 13.0329441185834458
 34.1621903643141849 52.2051091870625612 16.3783515558113599
 34.0206551290846164 55.3475687995275578 12.8538003890413073
 34.0932299272071972 55.5102230915120529 16.1981898398881015
 33.9448200835382892 58.6993590408582193 12.7152017584048682
 34.0275971215002357 58.8140283315409818 16.0591168281867169
 33.8737957341276754 62.0611399252608109 12.6299770601657340
 33.9637610076719980 62.1174280426990606 15.9738236318149553
  0.9324394927720204  5.1122813624429764 12.6847032567722344
  0.8975307640826090  4.9868092179780152 16.0289202474537156
  0.8594160763794524  8.4618465398746974 12.8309451007624737
  0.8278552957723933  8.2897973883874947 16.1753800244963628
  0.7546328069360302 11.5937821205888074 16.3607324268082728
  8.8185825379200597 33.3383878303487649 17.5580457154003433
 43.3355185120862600 30.8784910587480397 17.5421451716175270
  8.9002813646709669 30.0133675759984371 17.4644085372377802
 54.9582210537138138 27.7994500530118138 17.4324963960756456
 20.0438669372811979 40.2049877031179435 14.0178428085202498
 20.1255199430891771 40.2755774077893349 17.3771019280219043
 19.9337692145182857 43.5120609804363738 13.9339364606210054
 20.0493559837115605 43.6014087873093743 17.2911376536494679
 19.8264032196676681 46.8213762719319249 13.8350001989332263
 19.9733982653423467 46.9240882162950328 17.1899079517854716
 19.7227280038076636 50.1345667483645698 13.7276794288389006
 19.8979890929077712 50.2422282416271315 17.0805779195697660
 19.6240842593671267 53.4535631580747150 13.6218438673792992
 19.8239031758028084 53.5545519493827484 16.9733352844208092
 19.5334344128288429 56.7804081038506965 13.5311493519214157
 19.7523452950911214 56.8610099207563380 16.8815335559839070
 19.4527970764999196 60.1156588165230161 13.4695080319162273
 19.6844189993852865 60.1640856581005679 16.8184072920714343
 54.9178434939327857 27.8290105624801640 14.0715357226254199
 19.3807058283102975 63.4562979921597830 13.4441519316706426
 55.0608478206366669 24.4890282061707119 17.3794608434803557
 55.1624196363948940 21.1792576929921523 17.2978966492346409
 22.2126383133194771 65.1945845884983441 13.2444038922480090
 22.4555774263465580 65.1850223552783916 16.5899048756930014
 55.4465274193928508  1.3952450324745593 13.2803448044470329
 55.6869228705948558  1.3431535656945504 16.6259557205552397
 55.3843807623532314  4.7345340415171666 13.3561052119798820
 55.6150091927515078  4.6474468790310164 16.7025492142185072
 55.3211317209912679  8.0639098994527032 13.4611237520541422
 55.5368448745061727  7.9522037869870514 16.8096611043164401
 55.2556091928271229 11.3806283214951218 13.5846005972164772
 55.4514097732712656 11.2571598430206468 16.9359393855959297
 55.1884357240686754 14.6842520463495809 13.7140284381963156
 55.3590410962124437 14.5631409746406408 17.0677359037080940
 55.1209656767062128 17.9780019529272366 13.8358749816483169
 55.2621321470539968 17.8705304057729357 17.1918011536212241
 55.0534299784082890 21.2651485579889794 13.9397757685320620
 54.9855952195965614 24.5481283252790412 14.0196371557100949
 22.5204502984241941 61.8821408157214563 16.5992712074317197
 19.6186024226630700 63.4666456807467014 16.7921276543985094
 19.5522629463871880 66.7696853726729955 16.8058216383210279
 51.9223187031436595 32.7123167561036396 17.4518166160107953
 51.8584693010885474 35.9443212933826288 14.0363479919188219
 51.8199497338953421 36.0229034871058360 17.3962291415875505
 17.3435520714887943 35.2086057485472423 14.1365753517028665
 17.3769016439337065 35.2141627412336931 17.4981928626157810
 17.2318214975308841 38.5127230823128812 14.1121188755065141
 17.2998478146657568 38.5425794225275453 17.4730344706319691
 17.1217411538017501 41.8168286988166997 14.0658656189279903
 17.2224753046015060 41.8695742484796298 17.4254294559086098
 17.0141170601059493 45.1219006846811510 13.9999825487883776
 17.1449619121519312 45.1940080702977625 17.3578673492435875
 16.9099656424501710 48.4291176306165099 13.9190617569199944
 17.0675782862489704 48.5144178854906514 17.2752284108673138
 16.8104261145990534 51.7401776583561244 13.8305515636587408
 16.9909567774402923 51.8295112712194452 17.1851648929176228
 51.9259320680576337 32.6646096904648857 14.0909795518466332
 19.3145074122183935 66.7980618800287971 13.4579262731829985
 52.0259394296974165 29.4005760827381941 17.4754704262350451
 52.1298858659174584 26.0885995442554197 17.4668694763938888
 52.5496537989628791  2.9911846515194553 13.5095901464419068
 52.7803962065051024  2.9285431303620446 16.8578125004483752
 52.4861683872491724  6.3222849224556565 13.5914486037315587
 52.7045493944141370  6.2335186662894868 16.9410693972925444
 52.4197899622538017  9.6433773755056844 13.6936902587237608
 52.6218653125489908  9.5392421695439982 17.0457209988447040
 52.3496688694769574 12.9517711911122184 13.8047882860438929
 52.5317873903525197 12.8462695949319023 17.1593446687826230
 52.2774428151270953 16.2488869216687917 13.9108140772876361
 52.4356914158031131 16.1553722163095941 17.2678223321602928
 52.2054856800665164 19.5380631478395976 14.0006102701937767
 52.3356555438189659 19.4658639762872347 17.3595189941852297
 52.1342264254211898 22.8225505053348883 14.0670338196067117
 52.2332150149596615 22.7769785193305943 17.4272873105183095
 52.0640231921920389 26.1044494853315712 14.1056834271678877
 51.9944110669626696 29.3848448010240482 14.1141632279018303
 16.7172865672495981 55.0578686714560561 13.7457919089159475
 22.2823597090843357 61.8475090947055293 13.2533000235985163
 22.3596828388580313 58.5040485187130912 13.3057114151375835
 28.3777690157806219 55.3970144892967795 16.4142908746192653
 28.1292992335303431 58.6051434053032736 12.9515810668319329
 28.3109951390143770 58.7023584226980972 16.2954947923222804
 28.0536865852406123 61.9596290233339460 12.8808328651757567
 28.2462816846490874 62.0064263449354627 16.2239245512339281
 27.9842430605777786 65.3179191340493333 12.8635456740879643
 28.1822801198638224 65.3098704135213097 16.2064007699724186
 61.2175035931277591  1.5293227196097274 12.9018008231414072
 61.4151245121157388  1.4673820710543879 16.2448764227715827
 61.1543025657182184  4.8776586499693328 12.9909474414019961
 61.3454243314698928  4.7701361084946337 16.3346904564977606
 61.0915353193625990  8.2140039548075219 13.1194883471815551
 61.2704715330056615  8.0729716549788453 16.4648419908771189
 61.0286866525268010 11.5368008892367211 13.2756301757502335
 61.1895125913484605 11.3749420732147737 16.6232853232764377
 28.2121257215139245 55.2585032100918667 13.0687811349114948
 60.9653755770128640 14.8452096749498352 13.4462451941719188
 64.0951750679537895  9.7798290707475157 16.4096448465734142
 64.1710165701443316  6.4780797726371686 16.2529776667494623
 33.8064220128254576 65.4270209434750711 12.6058217435903419
 33.9003053747432901 65.4208323572864714 15.9496511997389714
 67.0385652476668383  1.6463169560748054 12.6434780239565274
 67.1342449695004291  1.5789944780977596 15.9874692050915588
 66.9725962461997284  5.0031840707854123 12.7390078548298753
 67.0666886201642996  4.8816517988166357 16.0832157814885264
 30.9943177153784859 60.3311382597537715 12.7663500823896303
 31.1376821271526438 60.4113830562133245 16.1098588307403929
 30.9233109113969320 63.6923963815677325 12.7158551712085419
 31.0740257914501790 63.7151518839132791 16.0591097331920203
 30.8568100404053176 67.0551785618405773 12.7247574941341099
 31.0100166227493652 67.0182545146510478 16.0679754336070530
 64.0904845944099009  3.2676486111353755 12.7915936229845144
 64.2419101836254356  3.1756144974786764 16.1352381785697467
 64.0261605798253726  6.6142469346567330 12.9087953470338910
 63.9620914957943612  9.9480777905251596 13.0641574921553065
 22.5860890742736586 58.5791973693280070 16.6528087069157458
 61.1025425539419018 14.6775349889452951 16.7961240111809040
 61.0107579299588352 17.9819213370952902 16.9683515004583931
 58.2772876993081539 12.9694051193911530 16.8483622987161894
 58.0403792542936685 16.4145630114251340 13.6477834250359873
 58.1847751830972513 16.2740643008142634 17.0007072193400575
 57.9753838939434303 19.7052506241537060 13.7869787222373059
 58.0885013648613722 19.5807125170954315 17.1425677615666352
 57.9094850942175086 22.9902443180463791 13.9065056941511891
 57.9897831907037116 22.8888480921067341 17.2645283568254797
 22.7494156960776230 45.2068097941036910 13.7730456671705994
 22.8744479225328199 45.3305565094023635 17.1278386609965025
 22.6434199565919840 48.5204391481776796 13.6438389840880525
 22.7996910222757272 48.6507423582277525 16.9959285088643384
 22.5416061491878708 51.8398800040403742 13.5139016542539157
 22.7260339297824352 51.9658211498608367 16.8639067454805094
 22.4460817558982058 55.1674329835174859 13.3961758137501370
 22.6544691951203454 55.2747909851595054 16.7446793148733519
 58.1048970119958739 13.1148076789864678 13.4978652752293282
 60.9013827930767562 18.1415382807761283 13.6157645945042756
 58.3641713823787214  9.6661504655945691 16.6988743353402107
 58.4442847679977220  6.3625712654456255 16.5665115153787710
 25.4673308132055958 50.2199661288918264 13.4351787576360362
 25.6242791094794384 50.3725720291759558 16.7848550705994164
 25.3696779454166048 53.5469669733584439 13.2890009878110966
 25.5527467228664591 53.6837975609253633 16.6365647862824879
 25.2801054005869581 56.8840220926363358 13.1675383461722415
 25.4835638833971139 56.9903081412656718 16.5133047248897000
 25.1990721603409504 60.2297573057735676 13.0834752550919404
 25.4171883625729365 60.2944675540872552 16.4279533555542088
 25.1258227248950732 63.5814451284132147 13.0454278006564390
 25.3526705058841841 63.5976659360479530 16.3892085421897811
 25.0587122893816243 66.9346643593604540 13.0577026526951503
 25.2876545177344347 66.9004436204070032 16.4014794732057041
 58.2937384193940957  3.1377017052672915 13.1191006115499285
 58.5178527815213059  3.0585419537015932 16.4633918507961852
 58.2315524208115747  6.4760415016641755 13.2206772127020464
 58.1685829135796340  9.8023380120893950 13.3508400637929725
 16.9162542028663232 55.1384269716645719 17.0991752141768458
 16.6336747696140108 58.3843481816803518 13.6787250354036587
 16.8447851653579583 58.4427435154758825 17.0310226925695858
 11.1954854620460758 48.3105790265234560 14.1620696296078457
 11.3181456618761160 48.3682526359101388 17.5224956940338998
 11.1019253953630859 51.6125710982998669 14.0988097378076862
 11.2356342058239527 51.6827160666623584 17.4582467475875553
 11.0145713349057495 54.9232784442009390 14.0314719253910365
 11.1563684325468842 54.9914744350917601 17.3901302797868809
 10.9353984786130702 58.2445182660318608 13.9752515046644845
 11.0819817453651552 58.2960959243012482 17.3328413708209794
 10.8635167037348399 61.5733879888239173 13.9408749606433346
 11.0113568938553410 61.5993035651046199 17.2977851344170155
 10.7962303153339505 64.9058726590134825 13.9337040882483265
 10.9423694079326168 64.9023554889441101 17.2906487645920386
 44.0289056427175325  1.0931929250575623 13.9558479317906610
 44.1709033869742029  1.0604616088569851 17.3127935449544452
 43.9618864247828398  4.4218917217015896 14.0045039748149094
 11.4014900076070411 45.0487286543545906 17.5706489219519320
 44.0979172268206128  4.3647718603873802 17.3618798032987556
 11.2938644079121939 45.0135057387739437 14.2091689888877397
 11.3963921138288669 41.7179005627885999 14.2330830530190777
 45.9636712275752330 39.2195312252255874 17.2234871042372895
 45.9374671786206150 42.3464762620654369 13.7056602657890778
 45.8690404311479085 42.5275844294955121 17.0586889359905705
 45.8715723633053116 45.6368826854256753 13.5239674607147187
 45.7787324184282340 45.8331136592367443 16.8739302448332644
 11.9408608623041506 25.2182203079165532 13.9638595260790837
 11.8829870934839708 25.0934970708221563 17.3220092999218558
 11.8297489943978906 28.5220542784863156 14.0660094691712754
 11.8045168916413683 28.4194378865646371 17.4257657566033757
 11.7192281957207456 31.8240301715561174 14.1459582126571899
 11.7256896248416993 31.7462175949745493 17.5071092133020620
 11.6097741299410000 35.1237797363179922 14.2014374416565943
 11.6461891008734657 35.0733199737641570 17.5635724028841196
 11.5020133565438893 38.4215841485806848 14.2307859573468143
 11.5658579090262279 38.4002314092971559 17.5932604068289820
 11.4842814533914321 41.7256674569722605 17.5953267821786206
 46.0059676168094356 39.0611333714964601 13.8676613181606090
 43.8911899764940969  7.7436959420857905 14.0728364253189433
 43.8149229303823162 11.0552372179010909 14.1511179246760843
 43.0058282110351726 43.9146243539953787 13.5664824924400946
 42.9506338341627156 44.1217600354173527 16.9170301305014696
 42.9365498853816376 47.2112130241234809 13.3603775300325971
 42.8651527778577517 47.4266488363624816 16.7082122946126290
 42.8696808605759401 50.5201304048434707 13.1524166042295061
 42.7853497494772625 50.7281219824902720 16.4982708406275620
 42.8045570911824100 53.8445823624539130 12.9598437378672191
 42.7102150510198086 54.0275345862847161 16.3042797061157998
  9.2308945761783914 20.2218350164513012 13.6913361249527981
  9.1385681812275763 20.0449167088629068 17.0446624175354700
  9.1229951280586974 23.5273332007053106 13.8477783686358720
  9.0602639191663030 23.3660350932516963 17.2038112522322422
  9.0141349295824735 26.8293637567622589 13.9866569316067064
  8.9808208947127106 26.6891461678311188 17.3451484404496341
  8.9058143506253238 30.1286684380886385 14.1037310917677559
 43.0412541026499298 40.8141858446544035 17.1116656201139214
 44.0195781296005535  7.6703142802505804 17.4314494394191257
 43.0776489269059439 40.6253294057174656 13.7579364619579199
 43.1520358533023440 37.3403440087185459 13.9271185731362515
 43.9344118612650263 10.9783985808157301 17.5113389715140890
 43.7333241546038920 14.3550865463828590 14.2257017549481830
 43.8421470163935325 14.2905232932818098 17.5871919077776830
 43.6480936082962359 17.6459793443790716 14.2816014281453683
 43.7445262588586630 17.6068673310718999 17.6442940045246459
 43.5613031283645356 20.9315380376162850 14.3086145618285538
 43.6438041506958854 20.9254226448954981 17.6721544320371002
 43.4747637504173952 24.2142348390025539 14.3014431873687791
 43.5410462241085270 24.2441926793097089 17.6651842345102530
 43.3900073596986218 27.4954703614344318 14.2585101842894471
 43.4380359978078658 27.5620927666203386 17.6216945156626110
 43.3081406578495915 30.7762988885549831 14.1805161212169129
 -3.0104905809573599 46.2922939922100767 14.3223499508997385
 43.2287198873369931 34.0575732906573521 14.0692229661319459
 43.2346087916806070 34.1924810333342606 17.4286623922877197
 43.1362751361595969 37.5042960269228587 17.2840472112536396
 46.0617768400204284 35.9093014945335369 17.3623633284940553
 46.0769450079913199 35.7786692100193662 14.0039767472400616
 46.1629509018132396 32.5973980909248624 17.4713134126908685
 49.3022834659080260 24.3738559297148143 17.5259677211419316
 49.1441941224031495 27.6602635814424858 14.1614784902002810
 49.1978144506459643 27.6871569744484560 17.5232288349300269
 49.0720284122155590 30.9405477585150805 14.1268481814712423
 49.0937025820280226 31.0000000927144903 17.4878555171343564
 49.0015759636317370 34.2207949014441581 14.0600159289259352
 48.9908468113188675 34.3119320858609527 17.4200384342654289
 48.9327220347125333 37.5015297519673325 13.9625982291436017
 48.8901331219011794 37.6223213913761256 17.3207618289452370
 48.8659710815694197 40.7839870508928399 13.8372033111151929
 48.7923635216987464 40.9309644819740726 17.1927692486110040
 14.6438007789243567 30.2135162768287131 14.1174331064688712
 14.6288584553818630 30.1516277455315915 17.4784497336917681
 14.5317831838316405 33.5171326341120022 14.1575967409404502
 14.5513446637108412 33.4800664722515720 17.5191624005910427
 49.2177428247152378 24.3794453534483111 14.1640097527865958
 14.4207069506322210 36.8194348710717989 14.1737423512991931
 49.4059348192754939 21.0601681946308190 17.4969707564143739
 49.5079289889444496 17.7464694116757400 17.4388082739070498
 16.5593994509572511 61.7184365661013317 13.6402837886421704
 16.7766158708730266 61.7456997851474938 16.9915391479052396
 16.4914766124163030 65.0560754359053988 13.6352846420916638
 16.7097005112232502 65.0485787118019658 16.9862808282044035
 49.7253903832670261  1.2474591186565001 13.6649618744365533
 49.9390269083341138  1.2065930611197950 17.0161009808768249
 49.6610710698829934  4.5794269529800955 13.7253791001702385
 49.8658068646975607  4.5111069815070772 17.0770846976007178
 49.5943678253950253  7.9038438132937250 13.8083716101916423
 49.7866776599481469  7.8168098874418348 17.1618303529118634
 49.5231706075511227 11.2172492422637244 13.9039209159009491
 49.7000204417640745 11.1240352017278266 17.2595633798579406
 49.4475947583117801 14.5186852784116400 13.9988103853319164
 49.6065785665298762 14.4338880782372136 17.3564752272049283
 49.3701482175797963 17.8107801713194505 14.0791094067875200
 49.2929318305200113 21.0966995950480829 14.1356544748093267
 14.4735069589355412 36.8083922175938056 17.5355023298194439
 14.3113761989180386 40.1205739084678541 14.1655737324422564
 14.3947935885262588 40.1358411058598818 17.5268402572850199
 46.7046642108687706  9.4812913217925807 13.9967671709401476
 46.8627874052024467  9.3981718877718183 17.3538544697161790
 46.6280254292367857 12.7875249783425726 14.0829225039168335
 46.7731135929926651 12.7076294992976990 17.4418110471587369
 46.5474474262642559 16.0831451032976531 14.1591637029228536
 46.6771726754923861 16.0208074197656565 17.5197452812776326
 46.4650301403088761 19.3713478298594097 14.2128831123967299
 46.5768750417032678 19.3365214961588876 17.5748111784902150
 46.3831147043260259 22.6552634532943529 14.2367836046631382
 46.4741166947835467 22.6532277869766681 17.5996199054953237
 46.3029628683509031 25.9366645834830578 14.2279701805929690
 46.3700092079474118 25.9691508542900955 17.5907860079046294
 46.2254915523660799 29.2171747206541532 14.1857891913356298
 46.2659532030861413 29.2839784747328693 17.5478289471009283
 46.1502763919664787 32.4976010720202169 14.1107626084383355
 46.9450604237869129  6.0917382239934721 17.2706705915268870
 46.7759955638436438  6.1631874906116222 13.9153380988662541
 47.0206935693449424  2.7866643554115953 17.2045781112866329
 46.8428819964638450  2.8363125777456548 13.8500638956019184
 14.2045402378222647 43.4211951505981375 14.1336671727674954
 14.3154015363821703 43.4611817107630074 17.4940767948559746
 14.1009970152251345 46.7222625699069027 14.0807359962360383
 14.2353533051787782 46.7831454783507539 17.4399968510594512
 14.0017249361142859 50.0259642380859475 14.0123632117811852
 14.1552619963070576 50.1004862270479663 17.3702483159173262
 13.9079625719696356 53.3352284327401733 13.9373141353920111
  8.7984600513115616 33.4253884574315450 14.1959348820707323
 14.0767873737573908 53.4121018065332365 17.2940318761027250
 14.0017764696673659 56.7182634699534844 17.2244662572502030
 13.7450512471947182 59.9812713434980651 13.8202717148122929
 13.9309422112921837 60.0217798691179780 17.1747595576901304
 13.6753802969492533 63.3144717631878891 13.7994648500774399
 13.8623652519832152 63.3247883455691394 17.1534784127709585
 13.6094723032728950 66.6490865885933204 13.8095393674882523
 13.7936333952004713 66.6279365233194625 17.1638191709196626
 13.8218843800407036 56.6535285389240926 13.8687407543066197
 -3.0701605708090045 46.3317305996353852 17.6858404220831069
  0.2570306835688891 31.5909935073131507 14.1542066416996093
 -3.0970328974997132 49.5843145515243933 14.2710905957827521
 -14.3022389670174217 36.1299674205253680 17.4688683699789280
 -14.2456293201709041 36.1113786340420475 14.1077389489908125
 -14.1993677717278608 32.8182485467620992 17.4646049714681304
 -14.1767310789598504 32.8317079462546104 14.1033850374344176
 -14.0964224830904730 29.5075576362527663 17.4280450031253551
 -14.1084183858396397 29.5522662612458831 14.0673355225125043
 57.8891730630281103 26.1977664229785923 17.3607405519066091
 57.8427753361167518 26.2720064705028236 14.0010146718986910
 20.2018197351204662 36.9479135752363774 17.4437392295785152
 20.1556478889872714 36.8992183241734892 14.0827747278332485
 20.2784768453451569 33.6193294710705075 17.4884339941277069
 20.2683772457503508 33.5941514478924219 14.1266406068288450
 20.3558603669584777 30.2906205385438660 17.5101127662730818
 20.3815258799271959 30.2896115785481932 14.1483388481252756
 20.4341003481473393 26.9624845183548842 17.5080663087893953
 20.4942240132745184 26.9853834864012683 14.1468933334454530
 20.5132814439447699 23.6355066405536434 17.4828676047126415
 21.2631549889680507  0.4787616138465465 13.6654110447425250
 21.0643259837057357  0.4546338435715600 17.0179354986135429
 21.1909507510040029  3.8126317718841358 13.7015578992256088
 20.9942218846403676  3.7546731076230144 17.0549500437387564
 21.1102860555783458  7.1390657861886391 13.7658249878739269
 21.0205906143998220 10.4558105657438674 13.8478817109248240
 -14.3150028882561937 39.3924268036846144 14.0807045599899450
 20.8397750616601840 10.3614313036751380 17.2030825826148970
 20.7576262276008769 13.6725840524235362 17.2899459281333314
 20.8212767975943009 17.0721570821472781 14.0126146972547510
 20.6751162234329939 16.9893239785512549 17.3699731519629985
 20.7148669215605210 20.3769294570623245 14.0771386718631444
 20.5935625212177165 20.3107276486208583 17.4358201421033776
 20.6055423081544902 23.6812207489317039 14.1226866551518793
 20.9237102292729027 13.7657592477131434 13.9337150813825179
 -12.1654255852316027 64.2996390087771488 17.0147931806446522
 -14.4043629775280095 39.4416546822140148 17.4408918184483142
 -14.5049242907059543 42.7526241402964402 17.3829563716115594
 17.5696215469269355 28.5990084113496614 14.1174137627652545
 17.6084588577823062 25.2288691328537134 17.4345711560416241
 17.6823920521618021 25.2934018458695462 14.0748395949371332
 17.6868833163053978 21.9027342230628435 17.3700121713580771
 17.7937304330733639 21.9871953538387963 14.0120371439217593
 17.7660306906677050 18.5791623552552174 17.2874578885631394
 17.9029710474923327 18.6798483017939922 13.9312708693530087
 17.8458500566810656 15.2595197547650390 17.1909911844537007
 18.0092794001785705 15.3704746380062449 13.8367510220197367
 17.9257420838890447 11.9450577294914186 17.0877001499599857
 18.1113723642438025 12.0578446096442740 13.7348158229879953
 18.0045084326054230  8.6366997279603890 16.9867943165522419
 18.2072490975925838  8.7399987492539086 13.6348778270142557
 18.0800526860038566  5.3339901575829689 16.9011848039240924
 18.2947397682941286  5.4143101465652093 13.5501587602852194
 18.1511145661202455  2.0339798460962064 16.8435658762558056
 18.3722387206434554  2.0796907058864242 13.4937611686274437
 -14.4554622127947621 45.9633536707491430 13.9419231411054465
 -14.6023984329641365 46.0620069098679181 17.2990889250137840
 -14.5269511373236710 49.2576462312909484 13.8411123228967590
 -14.6958403491879412 49.3693209718979418 17.1963252256388337
 -14.5975376727357755 52.5620392732359107 13.7322063957111720
 -14.7834877383821759 52.6742302320729152 17.0853185421941021
 -14.3848664135732047 42.6758133934791459 14.0241048803116612
 -14.6645318538779641 55.8791380082206146 13.6294984109415935
 -14.7285327072769263 59.2074580717003016 13.5456525566499728
 -14.9402950006630366 59.2786640066944486 16.8953062346662541
 -14.7915599376241005 62.5441048093941347 13.4910160830513206
 -15.0110489836183021 62.5793993102971911 16.8402960972098583
 -14.8563658567521966 65.8848309506769283 13.4731870557116729
 -15.0791409207374620 65.8794612314147656 16.8223819594036712
 -14.8647703341183846 55.9770486705567620 16.9804081303297281
 17.5306966667077404 28.5565326094683023 17.4784099000442552
 -11.9685135893524794 64.2874012965771442 13.6623323441346418
 -11.9040920638800571 60.9521556348023879 13.6938365910312854
 23.4155310965917707 25.3768628089621942 14.2005071227630939
 23.4226828389199255 22.0457357661048938 17.5517064411277524
 23.5241577343952102 22.0764266049938378 14.1905573854823395
 23.5065503532684232 18.7235378827492589 17.5173997731265629
 23.6299334228152524 18.7765918346243552 14.1569571839922439
 23.5916796691739172 15.4052385371101863 17.4621341579327201
 23.7318515468198434 15.4761792589555984 14.1028162021733756
 23.6771945530502421 12.0914660102601879 17.3916866941185120
 23.8287983733908071 12.1729722491953698 14.0335617979408571
 23.7606621089489956  8.7828666760633531 17.3153037685329174
 23.9196844869219554  8.8637817260910889 13.9579300065850003
 23.8395204878689455  5.4789375029160787 17.2463212819053737
 24.0027339160110600  5.5451007330416040 13.8896018924459419
 23.9127990943298805  2.1776309581448046 17.1974809279519789
 24.0775879242500572  2.2171424865014333 13.8415926974831009
 -9.3157215174342110 66.0221779962963922 17.1768301015594567
 -9.1518730166928250 66.0295232325404839 13.8212286994985121
 -8.6407128319945432 42.8438133418157747 14.2110223436979997
 -8.7435522695128132 42.8754196507963528 17.5730324127560564
 -8.7221619486885746 46.1302916079732555 14.1681694792199799
 -8.8410703718295025 46.1903627684030695 17.5289816245972219
 -8.8025729618624027 49.4233397082414854 14.1000215498973596
 -8.9339007254410969 49.5031531471736912 17.4594313750606425
 23.3405859926053516 25.3708099606258948 17.5622452047715107
 -8.8801828834980885 52.7262331323832782 14.0184131577611275
 -8.9525982867769507 56.0407809836118815 13.9385098490401678
 -9.1013413389272309 56.1167465536051395 17.2950743136138705
 -9.0205784550140518 59.3650217090773609 13.8732091955246215
 -9.1759559315447969 59.4198664422590710 17.2288451583419437
 -9.0861438510476198 62.6958013316723068 13.8320128303222809
 -9.2466617454872395 62.7214950463508245 17.1875243175793919
 -9.0208016690820703 52.8116928795819831 17.3762776880785985
 -12.0960768954118638 60.9988849306587255 17.0463228036405674
 23.3050203740706330 28.6783495005599498 14.1857439776510859
 23.1932813742586141 31.9808168765015530 14.1462417144172612
 -12.0232264986635027 57.6971019557898117 17.1084778782040061
 -11.8391752922021691 57.6222034662961988 13.7553880074211801
 -11.9452452544572516 54.3939797229568356 17.1930294790928677
 -11.7714729585622511 54.3007735471150568 13.8383716160635171
 -11.8610130162743772 51.0885175497195902 17.2882741848613790
 -11.6992013213509090 50.9913010999931657 13.9318193472660994
 -11.7702651713987585 47.7798354793285682 17.3795724080350062
 -11.6234162887562036 47.6932132123318056 14.0213996339581541
 -11.6745728870504291 44.4686021344875400 17.4534991907847079
 -11.5468634561918115 44.4031320107899887 14.0936728906490121
 -11.5749214310337933 41.1558943182106418 17.5013489673394353
 -11.4714553316633978 41.1183304159785266 14.1401927234980942
 -11.4731489000996127 37.8425106950413905 17.5184123586825358
 -11.3975576646265324 37.8362619118127483 14.1567464579989259
 -11.3703168041857747 34.5292332793755605 17.5028448161880021
 -11.3249477686343774 34.5554858848827777 14.1413159625361295
 -11.2676211547380145 31.2169755749380968 17.4545039954933401
 23.1809589933262572 32.0255825662915470 17.5078840795362360
 23.0810406411351359 35.2846480624091043 14.0829921414510064
 23.1030745197607708 35.3533441334351437 17.4437007740690895
 22.9692500799115713 38.5899260364180421 13.9977779557703244
 23.0261532512418050 38.6807319643903753 17.3570179371256081
 22.8583694480689026 41.8970748030572366 13.8931517052099469
 23.2600537402305996 28.6977059837790485 17.5477507705267648
 22.9500549385628432 42.0068912095722240 17.2503559248691580
 60.9153167330814043 21.2882425905192179 17.1272546674798463
 -11.1145140640060536 24.7133520362703010 13.9064021871449750
 -11.0663080845535973 24.5964562508608644 17.2641923448158252
 -11.1832142831387618 27.9947228926530123 14.0145620824303254
 -11.1661701182093545 27.9059933462914813 17.3743984874188229
 -11.2533708608806595 31.2752631853213821 14.0936054413676306
 60.8359802672062315 21.4298295533187186 13.7718732594465969
 17.4565012206688905 31.9041927729439330 14.1382702890684904
 17.4536828402957909 31.8851249211667280 17.5000256824023381
 54.8503421920988572 31.1085910642344068 14.0934140853724692
 -26.2004507177116679 55.5784062279200555 12.9759338891763978
 45.6132302562947629 52.4352086318843220 16.4891164260265342
 45.7451648892935196 52.2496311844431034 13.1434355428932061
 45.6932781553757650 49.1355995130802299 16.6791858769098802
 45.8076515589469508 48.9362399592495123 13.3317159559394334
  9.2156239723098938 16.7268684406576504 16.8737607275005601
  9.3363784036889079 16.9110268151594632 13.5232184788622174
  9.2914657549594271 13.4125071170025194 16.7001281613998245
  9.4379749653003504 13.5930424952985476 13.3521420890903375
  9.3663125012587543 10.1026711172391757 16.5360828000361586
  9.5337214142001141 10.2655619468249437 13.1900055834602767
  9.4393550675628646  6.7969780466400804 16.3961293867977709
  9.6220285106564916  6.9271346570398418 13.0516996784780357
  9.5095067470639414  3.4938470356167937 16.2936985436742852
  9.7024152058778874  3.5793337632024018 12.9503888138494876
  9.5771982215834335  0.1923631436134429 16.2386275523596844
  9.7759150650696327  0.2254885559685997 12.8955613272068064
 48.8012409697291858 44.0702364359087326 13.6881495296769717
 48.6979226930734725 44.2373278651035378 17.0408118320362938
 -23.1455713455233862 47.3629937242434877 13.5222101119321572
 -23.2759529070858875 47.5414146661357648 16.8719993409094862
 -23.2077261817806750 50.6662157121913097 13.3497402594918846
 -23.3615098127826215 50.8425614298218420 16.6976065475720894
 -26.3458919382866199 55.7337617659833029 16.3201884752979645
 -23.2690109298981831 53.9839048446442717 13.1866260022462196
 -23.3298712884132655 57.3158925538102224 13.0478661121914445
 -23.5168130469711514 57.4406865318831237 16.3923301982449594
 -23.3914130431493028 60.6603452929086302 12.9461735437053633
 -23.5871903410766031 60.7391363794314856 16.2900349411537775
 -23.4548483553165816 64.0140392541162129 12.8935995423335328
 -23.6545342420841003 64.0377619433861440 16.2369146929895294
 -23.4416955782758514 54.1417637023430984 16.5326394633926199
 11.9608400468376068 21.7692011057596631 17.1986327609371585
 -26.2629327854044057 58.9209727265526055 12.8433282922606971
 -26.3262873439095557 62.2752092322666115 12.7587971172850718
 36.7255999945475153 67.1251545090165820 15.9065674868009932
 36.6964386219136287 67.1620521429047983 12.5622933360740863
  0.9642405917693836  1.6840534706770742 15.9345620101099197
  1.0020365076271549  1.7514558683022508 12.5903302259886374
 -32.2688725607474183 65.5258352362740482 15.8998599397517903
 -32.2290811789716400 65.5303045684309211 12.5558033859873035
 39.6792622569670641 62.2230667409693154 15.9281284131839005
 39.7209509820701285 62.1632282905736702 12.5839992031081263
  3.7204257616882837  6.6901662322173152 16.1501877092244719
  3.8135757096739376  6.8373152791341223 12.8060952049894716
  3.7884601552216166  3.3869250167694069 16.0327110858042019
  3.8882798188868528  3.4822919480419818 12.6888077129345174
  3.8546714663931327  0.0840645960625407 15.9698454541566139
  3.9583351119788133  0.1197971434011490 12.6259834356548293
 -29.3784191112843907 63.9272478963243671 15.9675593776207982
 -29.2734401916196809 63.8995707320010666 12.6236403126382832
 -29.3126320369440592 60.6263875676642527 16.0264839503293182
 -26.4847444817601776 62.3316436753450205 16.1022213193381774
 -26.3914412282933490 65.6360670831344351 12.7312693511322781
 -26.5508801651122397 65.6316341832279022 16.0746607325214548
  6.8379329524347163  1.8515838393458639 12.7623742201494021
  6.6811069198618309  1.7878678967193768 16.1057896833655150
  6.7630525267423449  5.2073222401711066 12.8481902020364096
 -26.4169183352890506 59.0324789246527075 16.1869904048396371
  6.6133913014149126  5.0905842749236134 16.1916275900391859
  6.5431843101391447  8.3947003899339148 16.3247470250578175
  6.5940501968628435 11.8906514811408641 13.1473634180021222
  6.4701825267732733 11.7014417065562810 16.4933434491567752
 42.7402107122913151 57.1839776082173614 12.7986025919888000
 42.6389117691112460 57.3267461329692978 16.1422606667215014
 -29.2081634867421975 60.5371656871312709 12.6828125252002639
  6.6818378877872151  8.5548201452514192 12.9804155694209360
 12.0517592129526818 21.9122279906497468 13.8427042523941566
 12.0381924678235830 18.4473963675648562 17.0597935603379014
 12.1611387572061425 18.6031507211196185 13.7065342896389630
 15.0180646204635906 13.5348572201177113 16.9861615912314825
 15.1929054520735871 13.6705014737161044 13.6350154465512112
 15.0953388304322598 10.2234128811081870 16.8626768358559396
 15.2930068874379259 10.3512594149575659 13.5133682152845314
 15.1707207915421716  6.9176754028464336 16.7528616963084644
 15.3855654018126540  7.0241515343194632 13.4044653749910765
 15.2430682492235618  3.6163227158058691 16.6701016568116636
 15.4689410134296779  3.6880199160626734 13.3227279481964676
 15.3116578138663790  0.3164552215942361 16.6253492610964955
 15.5433732404018077  0.3446366078974855 13.2786960338731141
 -17.9195225126792153 64.1621083152280534 16.6242001973862621
 -17.6876157063373363 64.1435814736029641 13.2776257796145121
 -17.8509235895473886 60.8623230310587715 16.6670109370937141
 -17.6246163658106703 60.7995472298601882 13.3202799965836949
 -17.7785986927817952 57.5617816041140387 16.7486380374450867
 -17.5627104436673172 57.4633450746199443 13.4008757021068412
 -17.7007239807024632 54.2611497066600279 16.8590426940354057
 54.8549314400172463 31.1101624777669343 17.4548351955279557
 54.7831387650617359 34.3878588488705716 14.0843746749532777
 54.7518996097916428 34.4209328293675654 17.4452058412015774
 -17.1676524452492387 37.6677624872767396 14.0440903804027801
 -17.2339799883756442 37.7314081520473650 17.4036304605014074
 -17.2346530959265003 40.9495201605201586 13.9741683269301262
 15.0877370388102818 16.9843449174919492 13.7573397567659761
 -17.3343989940629086 41.0408847600137392 17.3322420317318269
 -17.4321396127288892 44.3492427146853530 17.2342768378310573
 -17.3678735131724906 47.5256500356180993 13.7616365726825354
 -17.5265515271135861 47.6555762804020375 17.1157577343903320
 -17.4342137249265967 50.8256442675828382 13.6342940957360597
 -17.6166226067199041 50.9596104277387170 16.9862922044209625
 -17.4996132627639192 54.1379902160358242 13.5093301758827078
 -17.3012806590774488 44.2346806281890679 13.8780445014338571
 14.9400969655889391 16.8516744544550860 17.1108532577032584
 14.9791302972925564 20.2945963177525002 13.8717077327674314
 14.8619977441078568 20.1728947960416853 17.2275533160494945
 -20.5323063930933962 62.4013249405046082 13.0959721131210731
 -20.7550923387851647 62.4483129617308563 16.4407381979865477
 -20.5975812541660943 65.7525690633596156 13.0726746786661359
 -20.8220008816086981 65.7474257771201849 16.4169719948443245
 12.6297746641639090  1.9580149663208444 13.0988698863126576
 12.4090757887679768  1.9023190317636318 16.4432028917003414
 -20.6857788393813813 59.1493253745107594 16.5123432942982014
 12.5514408730181373  5.3039042620970367 13.1704930522302206
 12.4646527866926107  8.6419692748530785 13.2799956630328975
 12.2664219482522547  8.5076053052708129 16.6266523156067230
 12.3693726232709444 11.9701685856487945 13.4150135477908918
 12.1911492196089792 11.8157223582947086 16.7632726812277077
 12.2674863184404384 15.2897579076286938 13.5611095390762308
 12.1148924868585528 15.1291332454576857 16.9116390228239233
 12.3392509777394377  5.2037488607707330 16.5158111201439652
 -8.6432889331512488 39.5596760533653651 17.5851163688529084
 -20.4703384273990565 59.0563439648679775 13.1669185522103529
 -20.4093706578007676 55.7218357658189802 13.2759007835814860
 14.8682388195616451 23.6022913960143867 13.9721889401074684
 14.7840305557652787 23.4974007594717023 17.3301985315945295
 14.7561373715153614 26.9085465795535548 14.0549224739939316
 14.7062601305719820 26.8238795837207071 17.4146969141040948
 51.7920875034057744 39.2251059878824719 13.9521387283420069
 51.7194343367144214 39.3318990826302581 17.3101225507081722
 -20.6117783102219079 55.8499435657669210 16.6227164121534869
 -20.1569532353163687 42.5084423468487671 13.8412297605273853
 -20.2211946706046035 45.7966203090763244 13.7081085623815664
 -20.3561448863991714 45.9456814396525246 17.0610537579940420
 -20.2846872270239018 49.0926360022209778 13.5607674003385910
 -20.4464934042956337 49.2494003091459192 16.9113851075561676
 -20.3476399181684009 52.4001880405965323 13.4115701706341106
 -20.5319027756705097 52.5504383777441646 16.7602955502170730
 -20.2618488454134429 42.6397284397950784 17.1967538972930356
 -8.5603244293245346 39.5608151663595251 14.2225931143303743
 20.9195351431010295  7.0560163943973295 17.1203387601629551
 29.0341850809321613 28.7777859139163006 14.2520851248708880
 26.4364555648466251 20.4840341381420430 14.2664247588863109
 29.0845900460918827 25.5241236930313455 17.6744699428523937
 26.4276199254995454 17.1412961354802853 17.5989724368638250
 28.9974712471882619 28.8478821485652119 17.6150985550596282
 26.5373582335014149 17.1890817289127540 14.2373670053394132
 26.5162231134520212 13.8250945961598823 17.5461775417032371
 28.9279962523100984 32.0724771020227806 14.1634920062687915
 26.6338519036709620 13.8916604144416453 14.1854383162684670
 28.9130062646389270 32.1720054087689107 17.5253576322855764
 26.6033909114725269 10.5133714989880094 17.4785280655757731
 26.7253342141212791 10.5887512596852833 14.1184790878655413
 28.8209616286267654 35.3699191224012921 14.0479243763599282
 28.8306997478674205 35.4957187683165287 17.4080502114227542
 26.6864702160426930  7.2069100441362748 17.4088135277002820
 26.8104548751325957  7.2769000544121232 14.0492401033578478
 28.7135441687012865 38.6701985466384173 13.9084677729563424
 26.7633797104057614  3.9038100478777880 17.3510768999493479
 28.7500575379304948 38.8188518626564942 17.2661875048690092
 26.8876818921446237  3.9549024607214429 13.9926071455798162
 26.3394729204650382 20.4611778564931264 17.6289402438475342
 26.8352599024573628  0.6019442271025131 17.3160583858909227
 29.1389141790688946 25.4853589092038533 14.3108466370045537
 29.1737145199809511 22.2011494036716073 17.7018196645371084
 25.8492750313301087 40.4118704504821906 17.2419535643249020
 29.5334818000473227  8.9370801740019861 17.5377295811220257
 25.7857819593406710 40.2812434978944509 13.8846212385550789
 29.5295322782593708 12.3139140334717787 14.2439253713476983
 25.9271433118516548 37.0867687463459461 17.3681868800300236
 29.4463835659644140 12.2463242804682189 17.6060085366253638
 25.8957994169204113 36.9765269657272810 14.0089370505702995
 26.0060800982565787 33.7608354394058381 17.4728210044870380
 26.0060951989931972 33.6742005071678037 14.1118769456362649
 29.4376817637844646 15.6110722463248415 14.3001787809129794
 29.3559385051175319 15.5608911002289876 17.6629734239578227
 26.0863520069944705 30.4345606349421267 17.5529924931949459
 26.1159449367357652 30.3737460059950060 14.1908431778079009
 29.3414916733558897 18.9036524011020433 14.3336936129609054
 29.2645701239816916 18.8796877268485801 17.6970889596398422
 26.1684511872317280 27.1085334362246257 17.6064985037228716
 26.2249420852942521 27.0753823964321434 14.2436489957539063
 29.2417256754828294 22.1943876136156391 14.3380868363153340
 26.2528856482551518 23.7838237217799886 17.6319072778292139
 26.3320208814968595 23.7789870920392872 14.2688975141154373
 29.6161397682832330  9.0085344587214973 14.1762389559647826
 28.6066225311950966 41.9740503914008798 13.7489817703770854
 26.9587444440830240  0.6259930406726785 13.9581228099704511
 -5.8216558104889344 44.5684036365255238 14.2769342930693526
 -5.1129068711260404 14.9937942574335938 13.2645073411728749
 -5.0462130262341471 14.7874928330108855 16.6123741502985816
 -5.8108537912194427 41.2831175320690917 17.6542834152427517
 -5.7360929287631626 41.2839683508495199 14.2909824395559877
 -5.1832283769610852 18.2952978980586778 13.4716127896678994
 -5.7111460960793270 37.9650191313152590 17.6331035359384245
 -8.5415266362178741 36.2445700739499586 17.5629827304830961
 -5.1315303528323248 18.0916403499947620 16.8216327991499313
 -5.6512014994787867 38.0016872557365275 14.2697643187062084
 -5.6106180410740167 34.6480816235389995 17.5755701034825940
 -5.2556677525149738 21.5867919544188318 13.6689178700393139
 -5.5678760853286882 34.7203253664461542 14.2129632779908022
 -5.2213135318253574 21.3986026296100000 17.0220528047108068
 -5.5107036342738267 31.3329975820658468 17.4830042961003649
 -5.3304660968351367 24.8728873925122684 13.8466741647216445
 -5.4866461822461892 31.4388308708852513 14.1221189369489526
 -5.3150729152979812 24.7082111830194364 17.2028387166414660
 -5.4117912570329851 28.0197523333997935 17.3577489602018247
 -5.9087935612992295 44.6012117105190242 17.6396558599052788
 28.6710669947701682 42.1404930657678420 17.1041242003253018
 -4.9654763602458640 11.4853767369116913 16.4088752433562632
 -6.0033417712079187 47.9173892626701203 17.5931712198448729
 -6.3938033167518364 64.4458461327727150 17.3090940978330927
 28.5014514434303479 45.2826035648664771 13.5753811988766824
 -6.2722919044753569 64.4391866565046740 13.9509613318471040
 28.5941267256228286 45.4601283835417078 16.9277645303029516
 -6.3244158522904286 61.1444237725594064 17.3315460165414663
 -6.2060259130453437 61.1078623256301086 13.9733695106713292
 28.3995755397362721 48.5978401595645764 13.3956626555781302
 28.5195287352137612 48.7766627478181576 16.7455235897682435
 -6.2524452167720481 57.8418044382531917 17.3804313948339342
 -6.1381214866768303 57.7811711649699404 14.0219329422711816
 28.3024828253442031 51.9223580106994262 13.2216424558268688
 -6.1755869039775222 54.5374360593914247 17.4484539284860354
 28.4473143305017402 52.0890351174615134 16.5692878188875810
 -6.0663655927125966 54.4623105729717594 14.0890775054129715
 -6.0925603701533362 51.2297378576853077 17.5244987601107667
 66.9063242928436068  8.3476016304980476 12.8832451106320462
 66.9945354825180033  8.1837717073947847 16.2277341811511420
 -5.9890426847373730 51.1542255701254263 14.1637291489739106
 -5.0444395833264268 11.6783696964117176 13.0631244670122904
 -5.9068063127394703 47.8572146686015216 14.2313248975315911
 25.6769063144006608 43.5891992973539573 13.7431508599138521
 -5.4074390164117965 28.1565772685872915 13.9990471101749279
 -8.4052580996633726 32.9984462408045971 14.1452488590291487
 -8.4393701711451605 32.9304074296160678 17.5068042085646454
 -3.1792278843070507 52.8861538971351663 14.2038308264765298
 -8.3382905455824954 29.6174768217860915 17.4176002387712501
 -3.4697231422011789 62.8705083727801366 17.4091072423006246
 64.0139628613455614 13.0812055336667932 16.5927083497733356
 -8.2386233505152422 26.3061489067398924 17.2971404906494151
 25.6976748974444895 47.0559516832674163 16.9426946717906652
 -8.1177716310042545 19.8656989778487620 13.6231224056889957
 -3.3263752538776954 59.5222950326792599 14.0819824370292768
 -8.2574529679757802 26.4356104882932321 13.9393161020148071
 -3.3259877125497934 56.2643669058223423 17.4971654147556883
 -3.4609951910168983 66.1821178126584186 14.0436671070975532
 -3.2469273564215824 52.9581136548802718 17.5655946463989672
 29.6890756640221340  2.3294295105421758 17.4260030752854504
 29.7687618375868972  2.3669145939798693 14.0661007502123905
 25.5702023569156758 46.9015972091299318 13.5904364116634007
 -7.9562079335153166 16.3839436501677547 16.7865540709662397
 63.8977829024714055 13.2674581123014832 13.2451106625063737
 -3.3941462537956970 62.8509490061970197 14.0491213598095808
 -3.2555100255344231 56.1996388612740958 14.1365401806215978
 -3.5386981161337872 66.1724209356458601 17.4036158903745992
 -3.3997197954997569 59.5681205435452625 17.4419513131665234
 -8.3304608055843890 29.7173532602284709 14.0574750200475957
 29.6145994229102669  5.6322399857686651 17.4732248525527183
 -8.1864837406387512 23.1522824671463106 13.7930915830759560
 25.7726202893106588 43.7353915453357445 17.0980193353080310
 -8.4818432123353826 36.2793433718904268 14.2007031616239239
 -8.1414610260857341 22.9965976563327636 17.1486086538892764
 -8.0511001716217603 16.5721531915506937 13.4366732099674753
 -8.0471848779361821 19.6890886469373392 16.9758821804533930
 29.6957189267911161  5.6922670363029431 14.1127070091945583
 -3.1614536941921250 49.6474528210377315 17.6337618046348119
 18.9907725645916798 45.1931098255647115 15.6027796680731647
 18.7275963311279980 55.1407759974565082 15.3067452388984098
 34.5434511030591622  0.8216916173108118 15.8041736467512965
 66.0212326954722926  6.5850224152302790 14.4993189678075840
 -1.4507396249631752 59.5989055982188205 15.8011785780069847
 -18.2085132609361651 39.3234856338281844 15.6710502455856506
  5.6898439375496608  6.7951149898746230 14.5339359415837315
 -18.2905687437656930 42.6195965564592711 15.5770538721406702
 18.8999063876105033 48.5089771534586447 15.5052732483877431
 -3.0091924850856584  8.3029319234151604 14.5070061467123033
 -0.8488252538931305 36.4540402541073050 15.9844523337848514
 -18.3704458548452578 45.9171708176024538 15.4596343917646504
 18.8116650379683250 51.8246256320106724 15.4026657747596136
 65.9504396360983094  9.9041377976806970 14.6623488757315172
  1.3136837591771593 64.6506222063902669 15.7917694992911954
 31.4861704955365873  9.0249075008461741 15.9027677187078567
  5.7626003054275143  3.4671981933190872 14.4201125599620088
 54.1865418587265637 19.5490489239437117 15.6061392268012646
 30.4621199100793909 45.4033851044788079 15.1969554614818989
 -1.5197450581155945 62.9148243883232965 15.7696148812325134
 -18.7276042356138568 62.4703838139881285 14.8958154241144793
 54.1010874547319247 22.8462541619351427 15.6908673536781258
 30.0706301302939067 62.0187798712019642 14.4418878423769694
 34.3120908096637649 10.7564003462113771 15.9729681497285405
 54.0152197879015787 26.1423637575811618 15.7484764494649756
 -18.6619719759193039 59.1491367219440463 14.9622585812793112
 53.9293890685660529 29.4379344632830602 15.7762165362132922
 30.3751516148370442 48.7180630763508233 15.0005233880624189
 -18.5944259074665510 55.8324042022673837 15.0638027595001240
  5.8315552397418839  0.1362838308671229 14.3590215966110488
 53.8437799344568901 32.7332051784608993 15.7725636911404425
 30.1400816903735524 58.6873301989952125 14.5189508865549524
 34.3953870922847997  7.4483818862746407 15.9028706216731166
 -0.7551363143221533 33.1524271617012971 15.8922457825559960
 53.7588462028788641 36.0282086364742185 15.7371445708656275
 -18.5232834318162425 52.5217975387726383 15.1896356313369978
 19.2719162982108365 35.2434564985168777 15.7980816707186769
 34.4720417649547315  4.1365648843319383 15.8431705295735039
 -18.4483883843009018 49.2172568237504464 15.3265275955993783
 19.1774079327917057 38.5603118155576610 15.7530751531242892
 30.2919608527692397 52.0364215811667137 14.8115605663001073
 30.2135900140027580 55.3594744439801758 14.6459429757331829
 19.0835022331202957 41.8769195473767937 15.6870858479317175
 16.6432981181049584 26.8979539683895155 15.7639801349352346
 18.5112549592046420 65.1010711786808116 15.1837799069538608
  1.3820044003587626 61.3341389375077455 15.8079390125493120
 51.1765996523931648 24.4236550725469534 15.7964152062416545
  2.9095975789283943  1.7510131694737003 14.2859320705056803
 17.2691759032728207  3.6950547414008996 15.1257983453929707
 -3.3197649933644566 21.5356999429326272 15.3273615983904978
 51.0888458945420325 27.7202989314269530 15.8112122752727320
  1.7869255342909074 44.7865435495159829 16.0643439430660564
 17.3409039940261920  0.3760478424209626 15.0845014225587590
 51.0016186078863498 31.0163588858418500 15.7940965027793236
 68.9445127177859547  4.9783462372380001 14.3590164845061494
 -1.3008914118825647 52.9745163627539597 15.9209864448981460
 50.9156170859347696 34.3120830393016263 15.7448241142842313
 -15.8899821416755831 64.2002868086922263 15.0832389955486601
 32.9894342444748361 60.4044829443092084 14.3561314496627901
  1.8800176685870649 41.4824375708570798 16.0642590284285340
 -3.4052178485204285 24.8345622458215445 15.5171381057986046
  0.0525329590676118  0.0325612721560209 14.2192791378323911
 -15.8239963212121566 60.8797619428551826 15.1223871039280340
 50.7489659760216796 40.9024318294258507 15.5553896758052179
 69.0121443308943867  1.6475032486811227 14.2621431193418235
  1.9742450774166751 38.1785556433862112 16.0271969544143040
 -1.1282357095324238 46.3625664654773217 16.0359516861999261
 16.5482337688454528 30.2145600025332115 15.8068041900710430
 -15.7566957666852812 57.5619347876159750 15.1970525807392285
 16.4534394203045338 33.5312323421314247 15.8272499597898229
 -3.4931601081947434 28.1329877047602679 15.6815648996509189
 -15.6859693510414768 54.2485912739766647 15.2977507021456063
 50.8311274726045568 37.6071590369645605 15.6643600950033584
 18.6499330725203336 58.4587054434648010 15.2318782413147105
  1.6961378281306854 48.0912848749401078 16.0312992952254270
 51.2646612481620707 21.1261013121488261 15.7516334089236540
 -3.0821704014467532 11.6203242383166341 14.6929324132634687
 18.5786464385777066 61.7791881493239714 15.1892318098098613
 16.7381961609910377 23.5816685566052726 15.7002463289339804
 66.0894396871675411  3.2590473152298189 14.3778280415187165
  1.4525610417454016 58.0188903493348818 15.8493867906677455
 16.8326812028789874 20.2658726145447865 15.6176510458744229
 51.7430668570135950  1.2771267150585421 15.2164776833658699
 -30.2567123766441881 62.2285127007819483 14.2809422715178904
 -3.1581714031342862 14.9306486563751868 14.9022989998919826
 51.6745294779267894  4.5961411078076662 15.2826652147994810
 16.9260643904869177 16.9511010779312841 15.5195724749144830
  1.5278251413878794 54.7063461134456048 15.9086664700339320
 -1.0363742755679330 43.0590750361624828 16.0556648838715397
 51.6017629751495477  7.9111143267442321 15.3739822957508476
 32.8572136118452605 67.0728268100768048 14.3095126820902578
 17.0178893445100776 13.6371335724861815 15.4115882018182155
 51.5232524036561585 11.2207543601096216 15.4798120271327964
 -1.3784608737569859 56.2851250149452866 15.8546518722893257
  1.6091758706267105 51.3973795253639665 15.9745185891968973
 -30.3220006652960450 65.5622455625304639 14.2520290091051507
 51.4396621137068593 14.5256324469245666 15.5863235939861742
 17.1067612699540348 10.3239352373008355 15.3018766408561540
 32.9226983799023714 63.7384791526307311 14.3017626176057551
 -3.2371820389311434 18.2350151049741207 15.1187861889605735
 51.3528889606228063 17.8270762265963150 15.6800072464893461
 17.1909703665553337  7.0105296669166233 15.2019803434957090
 -0.9428920554461976 39.7563187171918031 16.0392114600453830
 34.2229610566748761 14.0618848371301386 16.0376474385914243
 54.4332026860049396  9.6401741628494211 15.2534303716996416
 54.2711240700707833 16.2497356819021554 15.4991474146613459
 24.5468087529947816 51.9357381810706400 15.0817099195512032
 11.3662553211939290 10.2153687999613929 14.9611026698967287
 33.1323598269629045 53.7482763282428877 14.6278767369461136
  8.6814163081209443  1.8548185620424678 14.5256158771597921
 24.4638449816383243 55.2562122986298334 14.9499103476009303
 31.2142802354455142 18.9412946998511629 16.0584236465973476
 11.4482737005865669  6.8959584651944406 14.8303389390295965
 24.3868005988475929 58.5796928714387377 14.8487113867357827
 27.3765434860490160 53.6471623384556224 14.8568518500192894
 33.2101123331740027 50.4286635074148464 14.8204254165334532
 24.3154420139564600 61.9058850276198598 14.7889614844496950
 11.5246424098171349  3.5733441390370961 14.7339062889904575
 27.2980837623425394 56.9712577612190145 14.7230525959846226
 24.2480250991730344 65.2333657069520427 14.7770406133333552
 31.1189235725824567 22.2461526832422969 16.0577451208802522
 11.5958387441627764  0.2480422718909218 14.6818271557561761
 57.4805397678175680  1.4144280571018235 14.8147615170488258
 33.2923567704002110 47.1142521190832824 15.0298592828077648
 27.4601358328636138 50.3267409264255363 15.0187009978719352
 57.4135119825046161  4.7373094761305472 14.8967369228711490
 -21.6352995846596698 64.0670675931806954 14.6800134412301020
 -0.3960047368676112 19.9482110240956203 15.2152038821752580
 57.3430069080170881  8.0547230942426893 15.0118429540648943
 33.3783426815438204 43.8039924225257096 15.2418201134042413
 31.6408242472829890  2.4018506658943477 15.7892209160038384
 -21.5699549432281579 60.7424656962910419 14.7302478472961980
  8.6091872801185829  5.1820735383209069 14.6078412585886124
 57.2681049402415852 11.3654698320623311 15.1486812484432640
 -0.3131814858657340 16.6431766619065122 14.9969949768889190
 11.2796464624214856 13.5324236082191423 15.1122742604796834
 60.3225932933033775  3.1410455031077635 14.6630417917152016
 27.0903974381323280 66.9591018215193543 14.5982925926638085
 -24.4177186148078569 59.0176196669782058 14.6035422004169018
 -0.1570716379176095 10.0175158691815547 14.5789180580439179
 60.2543999425799086  6.4629976923465104 14.7723455809166371
 -24.3514352835654044 55.6981063569204906 14.7308599552886363
 60.1830892085687807  9.7783194101713580 14.9139493475619727
 -24.4828283796379154 62.3425273917748086 14.5220196584829413
 -0.2334588148071576 13.3334345873423032 14.7798755786218781
 27.1564691148363977 63.6289966403658553 14.5870013439662163
 -0.0841576804266706  6.6951308034355588 14.4090570145315926
 60.1083546805716793 13.0864330058341345 15.0757111665430461
 24.6341401748746129 48.6173039210910289 15.2288746310488943
 -24.2832849767575247 52.3854540559026631 14.8908494910806510
 60.0306083794598706 16.3887922830559418 15.2428874988074714
 -24.5485862916486646 65.6710397787726805 14.4954913631842786
 -24.2122515801121629 49.0798129081727339 15.0694943715785783
 59.9506887204180430 19.6873660152412597 15.4010658421180313
 -0.0145510459732077  3.3661936628861193 14.2853934713250439
 27.2250742895336870 60.2989129481123669 14.6301325390864729
 59.8688215771746357 22.9837684511100697 15.5404041862072866
 11.1899950610791414 16.8481233863043265 15.2697456629985187
 31.3081117699169020 15.6364649945211784 16.0273875237234442
 24.7242207222980852 45.2999606872314118 15.3775478657839990
 33.0591051644449436 57.0737473116384137 14.4682282584028634
 31.5667636296486798  5.7152352680313125 15.8374276660125073
 31.3993187074867350 12.3314143387805313 15.9714389577920617
 31.0229701085971890 25.5514914105233046 16.0227482844310245
 62.8756151477854957 18.1053218465431769 15.2309091723892891
 57.1894728739178646 14.6699236260195960 15.2941416764085609
 33.8430294766026947 27.2778870160682700 16.0123676860424489
 -27.2698177665276056 57.2948515332458470 14.5287131919210513
 21.5547811678151859 56.8607218456147336 15.0793889457531112
 -0.5712545849425184 26.5511761401024771 15.6069540573679575
 14.1044374165903790 15.2403897950860756 15.3252971766179513
 21.4804744450934457 60.1826678295918853 15.0096707523739674
 33.9393506462610688 23.9739952381651982 16.0722135901126713
 21.4113864934343709 63.5066572809762988 14.9802013588248837
 63.1699058574142356  4.8644825301265753 14.5541718551129815
 14.1940518195613041 11.9253265837423719 15.1926569833747251
 30.6442816824898188 38.7808782050211533 15.5647684684799010
 21.3449933242990184 66.8309939603424823 14.9942661793075178
 14.0123332742113913 18.5555518859366906 15.4549504681780263
 -27.3353270842951055 60.6197089058344858 14.4152752591440159
 54.5768125353849456  3.0082622088723476 15.0503111828068850
 34.0353006659344572 20.6701025712738051 16.0948778869671827
 63.2368160294495993  1.5377903395559624 14.4606857779154598
 54.5074031669387296  6.3270012443136752 15.1401878883686720
 14.3607918071877929  5.2918786794626085 14.9653859249164025
 30.5521727977337321 42.0911649011699467 15.3880351344401678
 34.1300663050262045 17.3661298894656646 16.0817164831492256
 14.4354772128903157  1.9713924076959504 14.8978832007310462
 54.3539925444782028 12.9472386921770273 15.3777266322439861
 -0.6624324338343720 29.8516324931781583 15.7651939925328417
 30.0041253753754482 65.3516185141310046 14.4217057246065536
 -27.4005737732791843 63.9496273267740705 14.3568991976808036
 14.2801026060621759  8.6094919972907693 15.0679806622640928
 21.6357526261088573 53.5412513983506813 15.1815089225431521
 63.1004753442454245  8.1849572087358773 14.6908532898091249
 30.7377080381537944 35.4719995871799014 15.7209729583705613
  8.5319873840034752  8.5057708501343470 14.7344450408470475
 -21.5041730531995796 57.4218885985192031 14.8264276876782564
 33.4674856603104516 40.4966016937360251 15.4440897368237469
 57.1084864584776355 17.9700764458134046 15.4340131893022772
 62.9534890982434447 14.8043408766567719 15.0441941512029391
 -21.4363948591265050 54.1072194039534224 14.9571838366269745
 57.0259297427781462 21.2675801247952876 15.5572224301920414
 30.9271777512700901 28.8574441419945842 15.9534876050972709
 -0.4822230204471363 23.2502956758260595 15.4216299401492680
 33.5590432346336769 37.1909165454747637 15.6278390148368462
 56.9421322507386449 24.5635619582653639 15.6568244346416687
 -21.3654512407446617 50.7994560478255934 15.1099972866825620
 16.3586302296659660 36.8476248829927329 15.8241348902494643
 56.8574428830656728 27.8587870430915032 15.7287823637475626
 -21.2913497265973533 47.4971866960849809 15.2698085081317192
 21.9965118310110697 40.2723663999593811 15.6499162123493321
 33.6523999172306461 33.8861752161879934 15.7868346625270171
 30.8320108619474063 32.1642290707408876 15.8518096841639053
 21.9033347236357301 43.5892996241710904 15.5451951557999042
 -21.2142914408667167 44.1986994221053777 15.4217590902365504
  8.4499511565801129 11.8256035229800727 14.8939105546324289
 63.0283478583651018 11.4982164550411010 14.8588043165883192
 21.8115710699502721 46.9061852751906585 15.4268958251119663
 33.7472484265344903 30.5819298827878399 15.9163048511859753
 13.9187022272606669 21.8710893433681548 15.5739541923425460
 21.7220680612930757 50.2233855902848632 15.3021264815458142
 -1.5877917000701061 66.2313667421182970 15.7654814782637978
 -18.7936451491206320 65.7936422549981046 14.8736010692462362
 39.0518195137222008 47.2326665595554118 14.9864221254586507
 48.6948656738896730  9.4911372426019351 15.5838759413383929
 16.2643940198242305 40.1632852041903803 15.7977507576290659
 -9.6082895050330936 41.1846810540661394 15.8781651468484544
 42.5964104372993546 22.5527009134431466 16.0159503491035267
  4.4360691433465904 53.1282472817575027 15.9251512817783247
 42.5012643704479842 25.8532149243221490 15.9862944946414700
 -9.5192182419567679 37.8861821193284456 15.8794129582897714
 42.4072518178428908 29.1527333949623042 15.9196593042118053
  4.5208594627380405 49.8204310042350542 15.9878176042633502
 -9.4303986829427533 34.5886313639267797 15.8472589928936198
 42.3148944539748939 32.4512633135507684 15.8175319121959710
 27.8236046630630760 37.0661428244727702 15.6695169405474939
 42.2250643549356681 35.7492419871452469 15.6828187532771040
 -9.3423491444668869 31.2917890106694863 15.7820753540553831
  4.6101972995206886 46.5143504567121013 16.0340271218422217
 42.1381391415150830 39.0468632750231137 15.5189319159981860
 -9.2558111372591156 27.9954640905120620 15.6851699968311671
 42.0545525229534363 42.3452045847620084 15.3298413369671493
 27.7299811275702375 40.3792250981236975 15.5256644479108328
  8.3637141468984151 15.1423658432338168 15.0713651045445900
 24.9097182769807404 38.6675403988276400 15.6440048621897692
  4.8904354948819790 36.5983236424728062 15.9845081448941908
 41.6924005105868289 58.8982481741494368 14.3708561110755202
 24.8163386383305351 41.9832976006472194 15.5182775111482858
 41.7588899693038869 55.5742699217297300 14.5143130465401278
 27.9179027772322144 33.7543356002023174 15.7912670473541539
 27.6375787430156414 43.6934010070470720 15.3644331417206192
 41.8275363465055889 52.2579120621685078 14.6978276812244495
 -9.0884924995179261 21.4029823615590296 15.4054007524762593
 41.8991564752870573 48.9488131606591566 14.9063219459679210
 -9.1710284178345898 24.6992710526552379 15.5585562752379367
 41.9748217390663640 45.6453438152082143 15.1223168130097232
  4.7022038858596940 43.2089924290587959 16.0520695927250223
  4.7957983517780516 39.9036616316224837 16.0361417191724946
 27.5473887188301632 47.0091009709585776 15.1922538575002299
 42.6914500821110039 19.2512029888241258 16.0091045744905962
 42.7847970201990293 15.9484102005841315 15.9690108274488818
 10.5316183209025827 40.0424011313315802 15.9405364100358646
 28.2988966162430131 20.5191307992985870 16.0027396825287411
 10.4381148783819917 43.3520927027966394 15.9356204589025996
 23.0035068011813273  3.8324150849381335 15.4897312223667800
 37.3023593050958979  5.8709019771493081 15.8678623947991078
 10.3460902930342762 46.6607247637810829 15.9036482309120952
 23.0751574341791574  0.5167467129192199 15.4540670267760110
 10.2565541012572101 49.9690488577068805 15.8493324584330395
 37.3757723904699048  2.5571202481231419 15.8150722408328477
 10.1710230257722785 53.2783764693099684 15.7827450283404449
 -10.1552201343267292 64.3446995139808138 15.4496298624491004
 28.2034776827844844 23.8259459956743065 15.9951252668620967
 10.0913292556997654 56.5901833411609019 15.7189411048965813
 -10.0879632148311700 61.0274003714265447 15.4778709372192864
 10.0177047665442984 59.9051596174482697 15.6720411499745431
  4.1468114981786552 66.3863297901503842 15.7860650350327703
  9.9483493527997382 63.2223711463116729 15.6500969152101170
  4.3573317148447277 56.4390395156556934 15.8618912976526456
 42.8747499777947496 12.6440929028319502 15.9033465510117473
 -9.7839278691658738 47.7863154305937599 15.7822185212110728
 28.0126237584079973 30.4436061478753857 15.8878646133383654
 42.9593239169995087  9.3371454984976516 15.8253477545773968
  4.2842578583849305 59.7532655551570713 15.8122124727549735
 -9.6969669403699346 44.4844589578056357 15.8444544504545863
 -9.8675834266151181 51.0907883963168246 15.7002466077291629
 43.1099196578480033  2.7117197415731149 15.6918976869058930
 -9.9460051232642801 54.3991149864037027 15.6128084475488489
  4.2148746464969324 63.0696016921996829 15.7852504933190083
  9.8805301024587244 66.5400826567574342 15.6567421027330997
 28.1079596077364435 27.1340971955636867 15.9565452235001821
 -10.0188985548412770 57.7116148543429190 15.5349528018191272
 43.0374473835732303  6.0262575366205731 15.7507044005717187
  8.2743163723260995 18.4567612392226721 15.2525511565286447
 25.0039690687293508 35.3523701189076220 15.7500403980014028
  4.9853376906241591 33.2925866489502837 15.8984756399819656
  5.6125970674953347 10.1183944505132253 14.6908893904940427
 -7.3222157693942931 66.0780094284677375 15.5907651808402559
 40.1315424805051464  7.6045260964168930 15.8619228536254564
 -6.3298130074623487 26.4156898708461192 15.6082834938341986
 40.0494431421693093 10.9130646500953485 15.9360917101044794
 -7.2544769508828724 62.7612519705454872 15.5993751665467268
 38.7034667981327232 63.8422519035716931 14.2153999562613347
 39.9613455873575845 14.2184817618723702 16.0048854894666945
 -7.1861117971759381 59.4451821099616993 15.6374023446234069
 39.8688833802257392 17.5221959430076737 16.0532514093732530
 -6.4170962108584968 29.7128835629392931 15.7423015809543632
 38.7687055828219798 60.5083580545944315 14.2751423688445893
 39.7738307357854737 20.8249315363025467 16.0704644340447267
 -7.1147462022673755 56.1312988206391736 15.6991219476470913
 39.6777744183870524 24.1269998718350251 16.0511032068780466
 -7.0382583105558165 52.8207980254040166 15.7751761957941099
 39.5819040042496439 27.4284460025862984 15.9931911412292784
 -6.6876159415836458 39.6080864130629919 15.9499398955406306
 39.1317898926358794 43.9286956470517396 15.2077995572871334
 38.9762669702915190 50.5414048359664818 14.7664286193676233
 -6.7789283734919499 42.9085593237675837 15.9490450195307414
 39.2156880936896570 40.6276773290844417 15.4172682314689418
 -6.5963402473775092 36.3087285708047176 15.9151734622883296
 40.2070895165024638  4.2920761120470523 15.7975819893965141
 39.3034864152287327 37.3281028385849467 15.6058021034579948
 38.9041831971515748 53.8568532536312503 14.5638134846507494
 39.3941750318903132 34.0288084985654464 15.7672972457414211
 -6.9560053562160835 49.5141317006358932 15.8523092134841725
 39.4870849660445131 30.7289754161263673 15.8976910440885231
 -6.5060589787624155 33.0105233151119606 15.8453659530010462
 38.8352035164004050 57.1793183346581486 14.3948082105666320
 -6.8690341172967013 46.2103271209981088 15.9144228077980383
 25.9063746979143126  2.2488808675859309 15.6120605802413728
 40.2777649942384244  0.9766937220770329 15.7531159877639571
  5.5310591051605913 13.4365726773155938 14.8768677707381478
 -6.0831708300522598 16.5204514478494815 15.0590272967840590
 25.3845480416379345 22.1025944985700384 15.9290282746108343
  7.7112306589380184 38.3210966196027414 15.9812007042607487
  5.1734462324729398 26.6790251307708708 15.6346840342709577
  7.8058333205756245 35.0126959128762465 15.9243784762127092
 25.2893665281689515 25.4127978129449765 15.9239069708446834
  7.6170617401323071 41.6284634551962469 16.0060205352820120
  7.9003832108798946 31.7030964700390747 15.8376757332541160
 25.1940098213082777 28.7247018466324349 15.8918840519626610
  7.9949304059321813 28.3927018729639222 15.7234897407920222
  5.0798696009022342 29.9861527163674211 15.7806369303776020
  8.0891567472172401 25.0815126243973907 15.5851244747269799
 25.0987578774088043 32.0380697007492472 15.8333825721287216
  8.1825651488518467 21.7696187175181279 15.4264125050964971
 -6.0068055335942878 13.2157804749508596 14.8541450649710907
 22.9255549291758811  7.1447423496007296 15.5515990956754422
  5.2659719029096808 23.3709285707907526 15.4646512370415419
  7.5242786309039387 44.9353013822496123 15.9987408776903273
  7.0478031043621083 64.8050453474924666 15.7349548942463677
 25.8319750783484601  5.5625086008118556 15.6597466817460536
 -6.2447846295354603 23.1185784397899496 15.4463716640539523
  7.1162815944409026 61.4878404156596758 15.7454176948616951
 25.7509213647414015  8.8724261338050869 15.7263055521619997
  7.1873708158325833 58.1721394086093611 15.7821583283372213
 25.4790971294561182 18.7941305668385894 15.9077175565091942
  5.4455704430267744 16.7505574257333230 15.0764824262174439
 25.6637622931819784 12.1800944937546980 15.7986433140789480
 -6.1625942707755019 19.8207376434378943 15.2607572764683077
  7.3459069078950394 51.5497415141608641 15.9042190070964242
  5.3569568709436393 20.0616902169119946 15.2760039596000219
 25.5725226062035667 15.4869325017129515 15.8623835824218293
  7.4334889295902329 48.2421195351845213 15.9621815705877346
  7.2635184016967447 54.8594005058614798 15.8388681970720206
  2.0688016067750339 34.8751110152234034 15.9526241381224683
 37.2229301303448210  9.1810293126995983 15.9362515485828897
 -1.2171142996272382 49.6673230026265102 15.9868080293714847
 19.6520560991943114 21.9790220523508282 15.7525589514722135
 -3.9528414932569751 44.6347436757109151 16.0060143479075947
 48.2523905895074705 26.0003459582649370 15.8703541488081452
 19.7461979431853329 18.6650135335413765 15.6881748815925981
 48.1627585197109056 29.2974457669117960 15.8427230533228975
  2.7674265483177325  8.4084924613186498 14.5237442655949955
 48.0746468759225181 32.5940896278793915 15.7824632999262686
 19.8391544287467525 15.3525035690581415 15.6078959539417479
 -4.0428998019242757 47.9381635615475901 15.9650434602176947
 47.9883900542558237 35.8899852217010391 15.6902127702023080
  2.8402842803314536  5.0822356754466327 14.3791047891867620
 19.9299561860184866 12.0414488463226164 15.5179097245793098
 47.9044609472297935 39.1856681109064908 15.5679526363606158
 47.8234914343942350 42.4817755224233693 15.4193993163196605
 20.0171580871397055  8.7308558975674959 15.4271099889081764
 35.8448563623724539 62.1227460007945282 14.2511868396689341
 47.7457111056354719 45.7792884300078811 15.2502808797131646
 13.3514856967275257 41.7616077035529685 15.8626920042803743
 -12.9889038114905606 62.6119787082130372 15.2899559325903986
 13.4452975995780530 38.4482932337144163 15.8749260367960368
 35.9807994373948290 55.4627059598153309 14.4843549907895195
 13.5396174978090915 35.1339177288279743 15.8616398589661145
 -13.0556613742813195 65.9308986927019873 15.2742927710822443
 48.3431858405987995 22.7024189810676198 15.8654155697972374
 -4.2087222393136345 54.5523003772327684 15.8285669313783668
 20.1734159697217024  2.1038241869859222 15.2946121557138230
 13.7293254119661743 28.5028757784970175 15.7609771876724896
 35.9115751109674193 58.7900971428644183 14.3401110882835408
 13.8241009721681802 25.1868818903483316 15.6770132732933956
 20.0987353191869218  5.4190238337037178 15.3482895386986371
 -4.1286936464127209 51.2436642337570731 15.9008017138699866
 13.6344290151936072 31.8186972134243220 15.8232021141056780
 36.0537041541694663 52.1415856796828407 14.6700746386805374
  2.6905558818332485 11.7287883700717792 14.7067325045410779
 19.5573085532564370 25.2940758206391294 15.7974237472062153
 -15.6108475987617386 50.9408183368768306 15.4126676641647968
 16.1710276092388590 43.4782770477833935 15.7492472926649665
  2.1631290173914097 31.5718714413420898 15.8424119393448244
 -15.5315849066422658 47.6381008493304989 15.5271866906915452
 16.0790798285467709 46.7924433974980687 15.6818166471646840
 -3.5832994917596217 31.4315406036186147 15.8164297423936748
 15.9892220345405178 50.1056935004262343 15.6013596203771367
 -15.4499214481805414 44.3388053389438284 15.6286950227573751
  2.2565720632335289 28.2685497592842516 15.7000485533788243
 15.9029182471946910 53.4187645463227909 15.5168924953098966
 -15.3665430922482145 41.0413594572855231 15.7083281815067330
 15.8222777967851460 56.7333096801564878 15.4415618837143462
 -3.6749525336714646 34.7310527363313852 15.9184577728514256
  2.3484547795332831 24.9646916129130325 15.5295737270151513
 15.7485158157915777 60.0505395668218043 15.3889121460345510
 -15.2818170938509628 37.7448574988827517 15.7604008950585648
 15.6795120271359369 63.3701157644492881 15.3671569129275962
 48.5245227411043700 16.1019763598633823 15.7645839181032485
  2.6098424026692739 15.0432998310064416 14.9126951835456687
 19.4620281632462948 28.6101080581398044 15.8205100927930200
 48.6120470394638389 12.7983032511012702 15.6786920628053323
 -3.8607082100672518 41.3326107988754785 16.0140112141322319
 19.3668149457331857 31.9266672175978492 15.8208015465314755
 48.4342604125360481 19.4030915972751536 15.8291287026542591
  2.5255991174709989 18.3531343643153200 15.1268273366416430
 -15.1115031645286582 31.1537001801347948 15.7709639113388285
 48.8427159173056538  2.8632462123774243 15.4238104503242432
 -3.7677715359556978 38.0313158630051404 15.9849453679463416
  2.4383899821928581 21.6599275755812926 15.3359950172260859
 15.6122964319224184 66.6899352434584074 15.3792524963940131
 -15.1967613533898369 34.4489740106326323 15.7817190181927405
 48.7715792513885091  6.1793467454328228 15.4948869919893912
 -12.9217423975297425 59.2940996978803057 15.3400370024056194
 13.2587128010782589 45.0735705043210046 15.8264011405840836
 -4.2830626524744373 57.8645509475113400 15.7638139784977618
 45.2380546536464436 30.8743274924398179 15.8440454769671035
 22.0904195412505580 36.9555582853796452 15.7362865428636329
 28.6594977688933170  7.2934962480498360 15.7980557386804925
 45.1488738923779422 34.1712800773737371 15.7439183676487602
 36.7600125461322023 25.7018019040650429 16.0482895303812541
 22.1850982109414154 33.6391558583201657 15.8014559758125213
 45.0623935426398532 37.4679456454066866 15.6128082251035565
 44.9789111734350513 40.7647614404512026 15.4537371315097065
 22.2803618427650783 30.3232682788956467 15.8437895822928034
 36.8563136131044189 22.3988941977309182 16.0908157267963077
 44.8987796057106792 44.0622394272017743 15.2714969120528430
 28.5753751794237125 10.6015258600878379 15.8669989810585719
 22.3756804777527059 27.0083000202634622 15.8618044174569022
 44.8224603177159437 47.3621076339021414 15.0736641495244417
 36.9520570096705185 19.0957460258598672 16.0950228399290154
 44.7499963685445223 50.6662485649001511 14.8727093784975324
 22.4708747595485150 23.6944818431224924 15.8555901211975439
 22.8409188356414390 10.4542170288488983 15.6287344006966684
 10.7201504144472750 33.4190590297990155 15.8655398783449293
 28.3934317886297549 17.2132222353514486 15.9804539915361730
 10.8148930442955375 30.1058315510532992 15.7877551775484282
 22.7515814599110513 13.7626815274641547 15.7068887461703728
 37.1371290151780755 12.4876973294742708 16.0070904850940074
 36.6638779935834691 29.0042130396949993 15.9674696912108143
 10.9097980359719156 26.7918518752118970 15.6859686465949206
 11.0043398123729492 23.4775459185419741 15.5630379894549158
 37.0461838002512991 15.7922503933753280 16.0644881603124468
 11.0979295699486489 20.1630149404612169 15.4225432989025730
 22.5655756522650037 20.3821867456427661 15.8259064270246252
 28.4860121427167954 13.9076489904383251 15.9323545665200488
 44.6809276296714870 53.9768146572038532 14.6857646740637495
 22.6593949116924982 17.0717027683408347 15.7749478971703567
 45.3290433535910040 27.5766118420596307 15.9110985105777338
 -12.0982467403836687 26.2792203966042202 15.6547930147275167
 45.4217957795299085 24.2779881374988342 15.9439039803191172
 36.2959170096208297 42.2125600121246478 15.3199759636564021
 12.7804030543245588 64.9565113320374650 15.5266499748273752
 -12.6145372683807686 46.0609069599472321 15.7021964995642893
 12.8484556744885090 61.6379770680488193 15.5326004395367221
 -12.6978766003401624 49.3628796396677174 15.6130358711183099
 12.9195946992448736 58.3207046474150701 15.5679407281493400
 -4.4210822695846206 64.4958589051403379 15.6971072861220229
 36.2111078100934947 45.5176509331651715 15.1026095680278178
 12.9962578258906074 55.0063489376390891 15.6273831682907236
 -12.7774314104447448 52.6686123729743656 15.5133012348110775
 13.0795344541319949 51.6947399491353039 15.6995234247574889
 36.1303841105117769 48.8268568396074443 14.8813336542696995
 -12.8517635197176343 55.9791044540701819 15.4177566417817982
 13.1676827806195167 48.3842919185828109 15.7696685468285818
 -4.3531091896192979 61.1795429678313880 15.7175551870656012
 10.6257448944872888 36.7313579636749523 15.9170619525178854
 46.0111199142330278  1.1294470643812624 15.5513928252412299
 45.9411728251628659  4.4460356539696022 15.6039066377364239
 28.7369943116170781  3.9818741503662101 15.7406740889774817
 -12.1830465054913972 29.5744950488510305 15.7408155239780942
 45.5154491736103850 20.9782720806147616 15.9419378650838244
 36.5688484138239360 32.3061831679993219 15.8504307068809940
 45.6084009357021003 17.6769801535610647 15.9066866247642196
 -12.2690482126057567 32.8702553652707863 15.7962459141450342
 -12.5290678443886954 42.7614579301277900 15.7700950710057981
 45.6993009051112509 14.3740507127754178 15.8432333907386838
 -12.3558593476535936 36.1666446003854674 15.8194339737108471
 45.7858929622926709 11.0685587692407221 15.7618771408930893
 28.8087916708763245  0.6669644855901212 15.7053673907049305
 45.8665981741628670  7.7594352282597656 15.6773780563809844
 -12.4426297134940977 39.4636250500628449 15.8102558106423174
 36.3843461235207783 38.9096965459531532 15.5218487782297867
 36.4755287823124306 35.6078501613972662 15.7004320510616520
 35.7795252998233480 65.4580767195945867 14.2251006196035359
