Se W 
 1.0000000000000000
    23.2330463712755595    0.0000000000000000    0.0000000000000000
   -11.6165231856377744   20.1204083648265062    0.0000000000000000
     0.0000000000000000    0.0000000000000000   24.7171056087856371
 Se  W  
 196  98
Cartesian
  6.7515546362868859 19.0940214732440587 17.4206692478693554
 -1.0634041504569540 14.8485104129402643  7.2981029588719153
 -1.0638801172544059 14.8506045606029566 10.6608363760334299
 -3.6739462849618052 12.8065880491673632  7.2926121325789710
 -3.6847043256736014 12.7987636385738277 10.6480787996159822
  7.2287961315665896 17.7209697927404441  7.2943217974056793
  7.2363683523021347 17.7203614131816174 10.6566331452010470
  4.6224666068857223 15.6725929755074986  7.2953028669947608
  4.6191207266974841 15.6738940121807389 10.6606663776700117
  2.0114380173230200 13.6170881670243116  7.2981029588719153
  2.0134895857378647 13.6164532927972086 10.6608363760052960
 -0.5924260143145647 11.5699078603302752  7.2981029588053028
 -0.5940016158668125 11.5684485867891649 10.6608363752440205
 -3.1930884416300676  9.5169988001082562  7.2891785154728783
 -3.2009435458063193  9.5237592214731244 10.6409342931393489
 10.3161223637384580 16.4858546125612229  7.2936442561194541
 10.3208735287021334 16.4916960133895643 10.6504946169052079
  7.7041830428116826 14.4448782920936711  7.2951825223332962
  7.6972199240758989 14.4376681087964247 10.6557093362115314
  5.0896406285817557 12.3913029685418632  7.2891785154728783
  5.0877134849330616 12.3811200380367588 10.6409342930186401
  2.4812016926855476 10.3300732358557852  7.2926121324938773
  2.4933568511131163 10.3246687048086674 10.6480787993138222
 -0.1178209274049680  8.2809383674003794  7.2953028669947608
 -0.1150212566124637  8.2831854663003153 10.6606663772073400
 -2.7219112496866562  6.2259509882055228  7.2951825223332962
  1.5469553268802325 16.9120740966676060 10.6480787993100652
  1.5483524451729129 16.8988451551483081  7.2926121324938773
 -6.7657872899415405 14.0264195555753091 10.6518367810011707
 -6.7611486227546589 14.0329255525935821  7.2931309408580871
 10.0853610994485781  1.8529076576625605 14.0761713151894394
 10.0755788511137592  1.8563301670608308 17.4279270933127677
  6.9995850062662619  0.6212828245565709 14.0613962728193762
  6.9898592449986907  0.6188576787808299 17.4219230864523524
 -7.7076053269376947 19.4965544697584541 14.0666109919084281
 -7.7001709431237781 19.4977483989140055 17.4234613526692534
 18.8528915379971451  2.2631734254163667 14.0604724636031300
 18.8453193172812483  2.2625650458399380 17.4227838113799969
 15.7672012058182851  1.0169925821413797 14.0652688278781532
 15.7705162310825351  1.0242627838527205 17.4239746678563066
  1.0648646154219488 19.9107630057078921 14.0860644243869189
  1.0693852291913877 19.9118810130595705 17.4325887246909126
 -2.7246738922789184  6.2355863173857804 10.6557093360600863
 -2.0170852932073173 18.6927246187078744 14.0755326303835897
 21.4599590331493459  0.2136496439215552 14.0810700953382693
 21.4497889342662056  0.2103979314766013 17.4304202715468612
  6.7585042417648387 19.0986358964529543 14.0588985442517416
  9.8332657486695787 19.7731369070186176  7.2866853372387670
 -10.3056126115343201 18.5443875623116448  7.2866853372535241
 -10.3078815954142922 18.5548209825153485 10.6360355133985109
 -7.2261489493638411 17.3149342677737970  7.2943217974056793
 -7.2294081876357046 17.3217961933999192 10.6566331449070528
 -1.5409443346924128 18.1272046714444457  7.2891785154728783
 -1.5311620859043176 18.1306271810052841 10.6409342930107371
 -4.1490378268718624 16.0819750973283107  7.2953028668123263
 -4.1484916176023656 16.0784269616036362 10.6606663781263613
 -2.0241724828309740 18.6842684676775832 17.4272860711026034
 13.1648756308638291  3.0846896834793314 17.4244934760561883
 13.3972022397444341 15.2571550406333731  7.2964363610145488
 10.7881282107677627 13.2104624951197920  7.2993047589754037
  6.5192742470906078  2.5300652451876240 10.6640801794653157
  3.9163522429498991  0.4857864400251635  7.2936442561194541
  3.9089178587365225  0.4869803690607435 10.6504946168936367
 17.4302092874133869  7.4522759156558323  7.2898195376830204
 17.4339889333403342  7.4626416774903914 10.6415729778085559
 14.8184916594476821  5.4052911795226413  7.2967601070365715
 14.8189020814336612  5.4026098090355061 10.6590948154800476
 12.2050815740939189  3.3608694675381461  7.2923268253659570
 12.1975801233185592  3.3499071597320351 10.6481163782310144
  9.5923507028446604  1.2992663708700660  7.2898195376830204
  9.5994378926064670  1.2908102195671718 10.6415729784956028
 -4.6266639406061989 19.3646771598807703  7.2951825223405757
 -4.6169381793616520 19.3622520141630652 10.6557093361549402
 17.9001270985298397  4.1723840274811490  7.2993047590537232
 17.9008444231120585  4.1755142002386485 10.6640801787430402
 15.2939391830761746  2.1295276796177394  7.2956432692966446
 15.2851332937514339  2.1253616920203635 10.6538854116133379
 12.6859084147220624  0.0716538255559063  7.2845168839825849
 12.6813878010247070  0.0727718324733111 10.6310411797049014
 20.9727028032343910  2.9434570231362600  7.2936442561194541
 20.9753860221841606  2.9364216933869849 10.6504946169476149
 18.3680778220856276  0.8895133653072049  7.2964363610145488
 18.3750274274020029  0.8848989420446867 10.6582070644217524
  4.1539930453965415 18.9592720546443658  7.2931309408580871
  4.1506780202012337 18.9665422566666599 10.6518367809074874
  6.5169221003519509  2.5322515528071317  7.2993047590537232
  9.1229413881914088  4.5855578016261989 10.6590948150640319
  9.1254687338586677  4.5845725521917986  7.2967601070365715
 11.7350591365116550  6.6383660251298382 10.6634270013518364
 10.7850587393594495 13.2095186300081835 10.6640801787317940
  8.1826174194839325 11.1635557887281767  7.2898195376830204
  8.1717505832081638 11.1616461782315213 10.6415729777655770
  5.5726949130729784  9.0982624948579449  7.2845168841050842
  5.5759234428499580  9.1016184575150092 10.6310411827458857
  2.9627634301697823  7.0433088332196663  7.2931309409288945
  2.9707171220455568  7.0425446281837045 10.6518367809074874
  0.3529606704910432  4.9996023798938323  7.2943217974056793
  0.3486476877893204  4.9933488339624699 10.6566331452024095
 13.8603876615885611 11.9748657269674279  7.2956432692966446
 13.8683984573881833 11.9693225971343349 10.6538854118033743
 11.2612170161445313  9.9252343436929458  7.2967601069139087
 13.3977236447907888 15.2654807870522351 10.6582070642363860
 11.2633339399727728  9.9269304647297449 10.6590948154578857
  8.6559097264449836  7.8820405333395076 10.6481163778810757
  6.0508505648300597  5.8107046684241297  7.2956432692886324
  6.0516456576615720  5.8204137861251528 10.6538854116145458
  3.4398973476805477  3.7684296695087141  7.2964363610145488
  3.4324263369809089  3.7647183464444396 10.6582070648544249
  0.8279547157645130  1.7179819710352824  7.2866853372535241
  0.8200536004190845  1.7108002630271422 10.6360355134473714
 16.9465740814579320 10.7451817551844098  7.2845168840947050
 16.9478661655609315 10.7407077851564647 10.6310411841133501
 14.3384431975134650  8.6841656753038485  7.2923268253813065
 14.3516875596739730  8.6831503818810756 10.6481163778200987
 11.7350591365116603  6.6383660251298329  7.2967104510250875
  8.6616526376134644  7.8700629329467535  7.2923268253659570
 13.1634785125352547  3.0714607417517898 14.0690268094858979
  9.8434358475314330 19.7698851940019864 10.6360355134805200
 16.2389897924918465  4.3109418630379270 17.4218027417908914
  8.8918492931329070 13.7479485211101196 14.0613962725447124
  8.8946119359725309 13.7575838503514216 17.4219230863861299
  5.8174657483483321 12.5208931612512995 14.0755326307519031
  5.8136861018803030 12.5312589230256517 17.4272860711026034
  2.7351643742578631 11.3003844564622398 14.0689892302408026
  2.7219200121296603 11.2993691631998914 17.4247787834043564
 -0.3531892456543502 10.0566043739772439 14.0580107937114924
 -0.3553061695301543 10.0583004947970949 17.4203455017476578
 -3.4447726026094165  8.8218886605339879 14.0755326309250126
 -3.4339057661264110  8.8199790493938135 17.4272860711012711
 14.5792866158618466 12.9402260055232112 17.4239746679271441
 11.5015019291831564 11.7003493722623055 14.0564392307702803
 11.4987022582586054 11.7025964711309154 17.4218027419732948
  8.4155796399189509 10.4597756171319531 14.0761713150856398
  8.4234347439204864 10.4665360384636639 17.4279270933127677
  5.3313429800839947  9.2428270534440440 14.0860644284531187
  5.3300508958568731  9.2383530833140988 17.4325887246909126
  2.2518752719232746  8.0142122412857333 14.0632201970807724
  2.2438644762317081  8.0086691115243234 17.4214623394890182
 -0.8314644462976919  6.7740162085381668 14.0530254303285158
 -0.8283949748961350  6.7730723434095674 17.4178008499428572
 14.1098800367628190  9.6588661335465975 14.0690268095958100
 14.0977248782378588  9.6534616026519409 17.4244934760561883
 11.9694838561380728 14.9839324588884377 17.4227838113799969
 11.9651708733553424 14.9901860046663220 14.0604724635466969
 -6.0438282725379580 10.8852723437232282 17.4325887246805422
 -6.0405997428958322 10.8819163810036805 14.0860644255014531
 12.4365767864381684 18.2727345753622927 14.0810700953051207
 12.4444779013873177 18.2655528675220253 17.4304202715468612
 -5.0972489384926778 17.4534695933145088 14.0530254302754649
 -5.0996010853771656 17.4512832857717548 17.4178008498102486
 -8.1840968485410830 16.2188164921758080 14.0588985442633128
 -8.1766258379372321 16.2151051690266357 17.4206692479583296
  3.6686101080564626 17.8581731465263616 14.0632201972696045
  3.6774159973850584 17.8540071589127365 17.4214623394886878
  0.5810569377646919 16.6336276788448494 14.0689892304533206
  0.5885583884440723 16.6226653708926229 17.4247787834043564
 -2.4935817975727903 15.3979770370120956 14.0580107933916505
 11.0225215697165329  8.4150862516287308 14.0562692324301093
 -2.4910544517562814 15.3989622863381648 17.4203455018717186
 -5.5656726207999920 14.1728301701110357 17.4214623394970296
  9.3588628367094611 17.0471131453879998 14.0666109918440156
  9.3561796173857044 17.0400778155871926 17.4234613526692534
  6.2843212373433337 15.8080206382918735 14.0530254309112621
  6.2836039129253995 15.8111508110268950 17.4178008498613401
  3.2023788958937254 14.5809250295069397 14.0580107934463729
  3.2019684738672223 14.5782436590355466 17.4203455017476578
  0.1185359508738618 13.3451688134053530 14.0536786062629382
  0.1185359508738606 13.3451688134053388 17.4203951577614156
 -2.9606134591421989 12.1014943050443353 14.0689892305902546
 -2.9548705477262520 12.1134719057591322 17.4247787834162615
 -5.5648775276722295 14.1631210522749331 14.0632201970103203
 11.0240971713676164  8.4136269783490807 17.4190026498353632
 14.5872403079493917 12.9409902108110177 14.0652688278019458
 10.5526430683697310  5.1329302779332737 14.0562692329356551
 -1.2956496570478138  3.4918388250315480 14.0666109922891174
  4.3903742361726854  2.6686005707676275 17.4227838113799969
  4.3871149978742787  2.6617386451695149 14.0604724635832330
 16.7042366703990020  7.6024148004316237 14.0761713155523722
  1.7806790541827233  4.7263797981328057 17.4206692479583296
  1.3086415901362578  1.4287138558190522 14.0810700951820920
  1.3109105739416491  1.4391472762830613 17.4304202715468612
  7.4674853587683474  3.9015597412090242 17.4218027419732948
  1.7812004592154347  4.7180540514577993 14.0588985441720258
 16.7061638141454019  7.5922318700446620 17.4279270933127677
  4.8553745627966540  5.9506092861139086 17.4239746679275598
 19.3137431100687103  5.5458667297154998 14.0613962727906472
  4.8507358952682580  5.9571152829599416 14.0652688279230400
  7.4680315680502014  3.9051078766698009 14.0564392306592794
 10.5531190353136477  5.1350244255174777 17.4190026498353632
 16.2356439123300440  4.3096408263797246 14.0564392306592794
  7.9318188598115036  7.1847711999973498 14.0690268094467559
 13.6279612028731467  6.3664466714872683 17.4190026498353632
  7.9425769006931901  7.1769467896409855 17.4244934760168135
 19.3207062284836937  5.5386565463008139 17.4219230864523524
 -1.3004008218469796  3.4976802259215800 17.4234613526692534
 13.6300127714594979  6.3670815458683840 14.0562692327522107
  5.3343325163563158  4.0368559168960969  8.9824484349545859
 20.7445963495970460  1.9924445525202730 15.7480459438739384
  8.8897655093819168  0.3495715123480039 15.7494679169873297
 16.2407641875319442  8.9600141326650515  8.9613431932779495
  3.6746721756577148  4.4443980668965706 15.7399357775583724
  5.5718731028674924 17.5876056151059643 15.7346571740709429
  2.4847007515157133 16.3540645192116543 15.7410630819225936
 -3.6703265678171113 13.8898797874994795 15.7410630819226522
 11.9765797245406400  1.5748638333161680 15.7558338690378008
 13.1577568547479054 10.1919727049725122  8.9760425268618818
 -0.5974156525385662 15.1207976551482375 15.7388682627790466
  7.9461966177769554  6.0936550510013667  8.9760425268618818
  8.6499411857097357 18.8244033610633288 15.7464759343086609
  6.7506490444864689  5.6772329544864242 15.7421550276536184
  2.7242002077488228  1.9895696356108532  8.9706296745657799
 10.5552952535020683  8.1462127223671725  8.9782373461618139
  7.2291773123883125  8.9609541563831492 15.7558338694198614
 15.0596298380052538  2.8023067977616614 15.7421550283035803
 20.2664643713902137  1.1591314774407731  8.9706296742122209
  9.3642283318398736  3.6330552830323164 15.7411210761485698
 14.5825857023538870  0.3470870157162286  8.9672809989654549
 -5.8057894890098369 19.2309576912146269 15.7372701801041632
 15.5231499875527952  6.0878216911442466 15.7411210760390112
 17.1883962885017318  2.3959292234456928  8.9824484347147049
 -8.8923229782550361 17.9939652029650361 15.7464759345734269
 19.7944645459131578  4.4506441327315107  8.9798354287034297
  6.2844040927785549  2.3979560923447640 15.7383854478906020
 11.4928128507817391  1.5754869350979919  8.9613431932779495
  2.9660625168903247 19.6364478227515171 15.7498246100789316
 18.6039617574815139  7.3186667188760559 15.7494679167269318
 14.1012239372505999  3.6294703192695357  8.9760425269032709
  3.2068045109873555  1.1588386584190804 15.7480459440255078
 -0.1237103348145803 18.4080479032633342 15.7557624162382055
 16.7155408369035356  5.6771622225665084  8.9776664613385222
  5.8107336965376541  0.7525771473323297  8.9798354286815059
 -3.2041318100912908 17.1777905879698096 15.7394391480814271
 18.1326893829387501  4.0381652563503909 15.7383854478298506
  8.4123913753327226  2.8057442505321086  8.9776664612305073
 15.7597032977573424 12.2500358738770494  8.9672809987067161
 -6.2821906692876048 15.9466789215423539 15.7346571740709429
 11.0191075331795467  4.8627371832495614  8.9782373461618139
 13.6307746228382136  6.9061481696258067  8.9782373461618139
  0.5979896449707649  3.2171378765186947 15.7464759345734269
 11.2537765493929882 16.7638148640257612 15.7480459438739384
 -0.3627466367859087  3.2197199744890757  8.9690596649712155
 10.7880839339976546 13.4789767266952243 15.7383854478427807
 -3.9050730428264746  7.7366749944611088  8.9676376920067593
 -7.9418510099648012 15.5391367715650262  8.9771698311588519
 -1.2987240955375685  9.7893137374403931  8.9759845327466365
  7.7114501428639013 12.2468598441273731 15.7494679167269318
  1.3027664344639440 11.8377995564210021  8.9798165470229971
  1.0659254191071315  6.5012219036265249 15.7346571742952523
  4.6242410019328704 11.0235207057235574 15.7557624162382055
  3.9066268016256842 13.8957131475310369  8.9759845327466365
  0.3600565387482917 18.4086710052603344  8.9612717381704954
  6.5161661969669353 15.9453695821792678  8.9787201609126353
  1.5412336691469659  9.7915621334900997 15.7410630819237660
  9.1280731639493293 17.9910902855700812  8.9690596651625416
 -2.2522948537902745 16.3504795552277038  8.9759845327466365
 -1.5392779883531551  8.5513432368379227 15.7394391476177944
 -4.3873458733340964 11.0225806822957502  8.9612717388511225
  4.1431801126487038  7.7334989647360457 15.7498246100789316
 -1.7789993603495071 13.0732797591961596  8.9798165471910583
 13.3948985270460206 11.4355583227736481 15.7421550280985763
 -4.8658741411150297 14.3063018838380369  8.9749505806870715
  0.8318407785060477 15.1244271245177053  8.9798165471910583
 10.3177990904357433 10.1942211009069990 15.7411210760390112
  3.4431066523456488 17.1812280407823046  8.9749505807704058
 -2.0165440186994634  5.2716580430708078 15.7372701800593831
 12.2145128306125503 16.7663969621576605  8.9706296740347895
 12.4483639641438124  4.8591077138397836 15.7372890617626506
 13.8652206299153260 14.7158498766482371 15.7399357773702260
  9.8375238252909085  6.9102550791621749 15.7372890617626506
 17.6652846039747082  0.7548501317461273 15.7399357776334146
  2.2486974444882635  5.2676849617864860  8.9771698311588519
  6.0487614183245260 19.2286847067173738  8.9771698311522332
  4.8628884091676818  7.3179751862675380  8.9672809987069240
  8.1779413604535218 15.5328907057085512 15.7372701801041632
  7.4716003710423085  9.3795970075341124  8.9613431932779495
 -11.4979872347639152 20.0519716016808296  8.9570291601947787
 12.9192896199939184  8.1457352821420681 15.7372890615945895
 10.0772451972493773 11.4321916016660801  8.9776664613158097
  5.0990176511940133 14.3063726153920712 15.7394391476187323
 -6.7536347765479023 12.6655596525817540 15.7498246098201928
 12.6824486046614844 13.4823129349055435  8.9824484347147049
  2.0142514372544236 13.0773866688852021 15.7388682628225425
 -0.8284392515289261  6.5045581116995823  8.9787201607734790
 15.9994203730791202  9.3792800858019323 15.7558338704414904
  1.7783753413434948  8.5479765157610377  8.9749505808582821
 -1.0612279323234903 11.8373221161738904 15.7388682628230168
 -2.7267576762342678 19.6339633263481659  8.9676376921435708
  4.3828971872953888 10.6042547527872522  8.9612717378335471
 -4.1449228146978827 10.6039378309920878 15.7557624162382055
  6.9874385719238452 12.6648681187753560  8.9676376922671519
 -5.3321190928204771 17.5855787462901141  8.9787201610212595
  9.5999791669889358 14.7118767953824889  8.9798354287262860
 -8.4097186743761316 18.8246961799997514  8.9690596651625416
 -11.4979872347639045 20.0519716016808616 15.7600764479718638
