Mo S  Se W 
 1.0000000000000000
    71.8273773725588001    0.0000000000000000    0.0000000000000000
   -33.1576666684028680   63.9135918051412304    0.0000000000000000
     0.0000000000000000    0.0000000000000000   24.4856654507443388
 Mo  S   Se  W  
 522 1044 964 482
Cartesian
 36.7434562786853220 46.3027916943068618  8.3725144974114087
 14.8029604642111661 42.0719429389024171  9.3668921232308442
 32.1339016297329110 23.7496717203322874  9.6016416682910268
 17.6289059344250703 40.6077555578662057  9.2627887926397356
 20.4555440506688200 39.1490926642487054  9.1863076304323208
 29.3081694958339938 25.2254955888813619  9.5281760342553401
  5.3439146957240338  3.4239973547986615  7.7079776618575711
 26.4816896307421885 26.6932817488654877  9.4410818138923513
 34.9606665106523522 22.2683770879563241  9.6446828380281637
  8.1695702033236746  1.9714496215421022  7.8453728436637444
 23.6543677102642675 28.1547772256459439  9.3646272967264839
 -19.3377446024208695 62.9707637877800011  8.2869815823584201
 20.8257339227730398 29.6119216680904387  9.3193835047949509
 -16.5088676356640249 61.5069331678107574  8.5350463771946945
 -13.6757263739446788 60.0391622262958791  8.7683166323501904
 68.9971755506207813  1.4294945171499267  7.4938205324277023
 -10.8397461636416299 58.5667367465307507  8.9765239704123196
 10.9940966755645260  0.5166883641938752  8.0478440511038816
 66.1715215796075853  2.8796225395772490  7.6470827833371775
 11.9776208587777955 43.5436044553078574  9.4758024987916407
 37.7882317307537576 20.7839680317584978  9.6502224858084027
 -19.1862986757968770 59.7982805616815583  8.3379624571751325
 54.7436667179173213 11.8967971454272590  8.8496211201791013
 -16.3579659220784670 58.3343976368528345  8.6069362314718312
 -13.5263243234361727 56.8644959648073112  8.8536875344744264
 51.9217366217887246 13.3710118027919531  9.0765041170391090
 -10.6924889511126491 55.3900781331486129  9.0711294320937430
 49.0974795372616342 14.8494561494259099  9.2696736786708520
  9.1506465247814308 45.0209993699374351  9.5647328175866484
 -7.8566901008455847 53.9128640365099159  9.2568509168787010
 46.2714007827699305 16.3310544588726927  9.4250912058670728
 -2.1828880199090843 50.9517153793613389  9.5244298421714504
 43.4444933260243999 17.8148611030419879  9.5409508920359851
  0.6536438487267694 49.4697349786319904  9.5992733141682631
  3.4882702351886130 47.9864135457158980  9.6305229331277147
 40.6164551809796350 19.2991114465937450  9.6159729112213501
  6.3209892888278567 46.5028853213669962  9.6182092915153916
 -5.0199142105756325 52.4332485296559341  9.4088441198487835
 -8.0017209212819385 57.0910331460453122  9.1570176685696030
 -5.1618202214864484 55.6133320544278291  9.3069461830841078
 63.3497337990494529  4.3319634255457569  7.8746462143471057
 37.9156868622882186 17.5909733493726215  9.6429342593134209
 13.6682969675320845  2.2289014809599021  8.2987650745309267
 16.4968096863148688  0.7656392474370013  8.5175727164618635
 35.0854460289804422 19.0751980431354866  9.6577273837497568
 -13.8279534336553844 63.2126371748049394  8.7300833275408198
 32.2569394227236472 20.5583345847232870  9.6311866406372335
 -10.9906571241162236 61.7419740912462487  8.9214649685326037
 10.8418903575437433  3.6877818216297618  8.0985633141798150
 -8.1508306248760771 60.2675655948913516  9.0880331181109870
 -5.3095725452413332 58.7909787569476805  9.2267013208318041
 26.6035106382642361 23.5082851395153369  9.4811495705964273
 -2.4670869525433257 57.3133678863063878  9.3353010516904558
  0.3751936294278351 55.8339232907253873  9.4130075289634760
 23.7766751130018541 24.9730253923961421  9.3928785878920813
  3.2172974124421345 54.3543462036304703  9.4571403830594498
 20.9488879994468142 26.4322927185928940  9.3267178048079149
 29.4294830784244823 22.0364896642550647  9.5680520989191642
 40.7468397737970562 16.1068219337643868  9.5851455448739795
  8.0159898046913280  5.1421363657640287  7.9433056251837248
  5.1898730953119223  6.5941399560059830  7.8587385160900354
 -2.3220841246018398 54.1337904412431214  9.4242953541668477
 60.5302937284038478  5.7879280133751561  8.1438606921379435
  0.5177885500126101 52.6534273879364676  9.5063492139714416
  3.3565137942736882 51.1723125297066233  9.5494230117699814
 57.7107613792046976  7.2483411409082894  8.4260028710834316
  6.1922053592075832 49.6904865425882960  9.5512904086255190
 54.8886296904200464  8.7140490894340772  8.6995815463199708
  9.0247740032190080 48.2094507915108963  9.5120447825770356
 11.8539243471140381 46.7303708816066248  9.4340505310778191
 52.0640646069053545 10.1860415381420015  8.9484112431478042
 14.6802255931137875 45.2559789239630206  9.3264882603809625
 49.2369229070984034 11.6621582703042712  9.1644407329429942
 17.5055229608400005 43.7887485874942683  9.2103322774654810
 20.3314579245510423 42.3281419308795606  9.1106026397393478
 46.4079504800882816 13.1414254197595497  9.3439855426913123
 23.1580119655850503 40.8716235666140051  9.0470839788566213
 43.5778262418973199 14.6236090609234548  9.4848731383063765
 57.5637095044842724 10.4284791800604904  8.5955688799513243
 -22.0106314363484472 61.2577524004639216  8.0673437797130365
 -24.8340116865546250 62.7126603535592153  7.8231711807439757
 60.3825787505143694  8.9664623514191728  8.3260118747095113
 -16.0670897492089964 51.9812188270535316  8.8616045826099867
 29.0631712783720140 31.5981324929892615  9.3518022099922700
 -13.2406067233819016 50.5069731486120332  9.1030832156883452
 26.2362698487084529 33.0589596786184998  9.2816989097523397
 -10.4119405600400778 49.0276374794993259  9.3068677501935646
 -7.5819455213126687 47.5455524575165569  9.4704255343943320
 23.4078710618461940 34.5151989119222335  9.2428390082616243
 -18.8905518876830385 53.4488221846316875  8.5886438681942892
 -4.7516055780417039 46.0609936556429886  9.5927812626610436
 -1.9205032005618985 44.5761178220571423  9.6726245695928998
  0.9101578461416229 43.0901517256210269  9.7096837055439753
 63.0539256430708903 10.6861836094115610  8.2769565738437461
  3.7395279794201102 41.6043154577285819  9.7046484596989053
 60.2372140847436413 12.1479521567872073  8.5256143794021622
  6.5674015448022951 40.1207206529114515  9.6588548049641343
  9.3936433406951636 38.6416052890217117  9.5783507940626702
 65.8711819420391862  9.2291574118720661  8.0402287792219056
 31.8882525388504554 30.1305842686414351  9.4325031366314125
 -21.7121609275457637 54.9096971595620005  8.2973859174315834
 34.7121445207853228 28.6554734905947761  9.5015201411769450
 -1.7936142703305633 41.3824403841670545  9.6966438213917119
  1.0345852191799312 39.8959905606966529  9.7115823390368554
 51.6427163616641778 19.7582736228554978  9.2586544586860686
  3.8620768900677551 38.4105378389222167  9.6870564310224889
 48.8233407589828161 21.2393923300716949  9.3851539887751354
  6.6884450570272103 36.9287148575206103  9.6259335072108456
  9.5138789082842159 35.4527139749436415  9.5370569435995165
 46.0023369103875694 22.7228590675153157  9.4782673301961289
 12.3402824916414460 33.9848807713439172  9.4401504471068414
 43.1804917668436516 24.2070479008523485  9.5356821143085195
 15.1681547116828597 32.5237465647514412  9.3605745512845626
 17.9970490605779609 31.0673397110808445  9.3174111477851049
 40.3581425662241173 25.6910619995309055  9.5571183551495089
 -30.1771124525221843 59.2683464560530098  7.5537217455490611
 37.5353956102402648 27.1746600302382504  9.5448734951169154
 -27.3532357605774834 57.8186799735156924  7.7507803166458071
 -24.5322487103066500 56.3665745520944341  8.0093064317804323
 57.4194210389633710 13.6140041698560808  8.7668450746098117
  6.0571629403888450 52.8745972518330447  9.4648177236741109
 12.2195197406568994 37.1697822439104257  9.4783491352974121
 15.0460080299566599 35.7054305574225666  9.3835629328678642
 29.1860958869351492 28.4127038774546641  9.4557468503141404
  0.7837120043193694 46.2817511785746163  9.6708305114554811
 26.3596626834178842 29.8770579489273587  9.3742984494229820
  3.6154983164576904 44.7967438656650643  9.6846831344171704
  6.4452211525517571 43.3124374786072934  9.6555596852306582
 23.5314874837480268 31.3353247379725026  9.3142955046407376
  9.2730711982995437 41.8313619958590266  9.5873860785355429
 -2.0495868546942222 47.7660677301195591  9.6127947600278230
 20.7026295049515277 32.7910789190252316  9.2927808739466542
 68.8434553906943876  4.6035568860245411  7.6310867558586191
 17.7512771884808700 37.4269053364812336  9.2985782715760603
 66.0200993576553543  6.0540483438878905  7.8168655895242685
 20.5793076130907053 35.9700758470246953  9.2478318401094999
  2.6713108591223627  1.7034703769582757  7.5315451847151138
 63.2004744795016435  7.5076992542398076  8.0586035797422575
  5.4986777813874044  0.2517211901939648  7.6349933125370013
 14.9247322066536974 38.8883696883929559  9.3857941743899271
 -4.8835654957066170 49.2494529142213509  9.5112590693889523
 32.0114069996197159 26.9408910475206298  9.5352351633831063
 -7.7169319555656921 50.7315072323493155  9.3689536524410126
 17.8737470803451970 34.2468091273101649  9.3170981359450717
 51.7817766350088675 16.5622006145621299  9.1826888641729063
 -0.0019604915339622 -0.0206782559856692  7.4399599760390993
 48.9599169495718485 18.0422929431904286  9.3448407434767322
 -30.3314498897279492 62.4427846816152652  7.4949316872010057
 -27.5048747386433021 60.9921265921780531  7.6501700973193962
 46.1367196236912207 19.5254441170242465  9.4711514629315037
 -24.6816174693237400 59.5397619888655072  7.8809819845176436
 43.3124409783622397 21.0096955901019165  9.5588384058735105
 -21.8597729057046379 58.0843170909123714  8.1555352060900201
 -19.0366628130180509 56.6248106554256907  8.4444458000331881
 40.4874579007096642 22.4942637113410875  9.6070422753313753
 -16.2104604453247738 55.1597806913251034  8.7221841566652216
 37.6619494954059775 23.9790462738597299  9.6176185688404221
 -13.3811165197408748 53.6876368928042993  8.9722431575481689
 -10.5496773735763085 52.2109478059713581  9.1887710770964190
 34.8365105059464142 25.4621090060540922  9.5925883868537394
 54.6012321471042625 15.0856990355066038  8.9882036444780535
 54.4610097554645094 18.2805072749907218  9.1028941888796950
  8.8934480607363113 51.3947116728222824  9.4347777186464246
 11.7257717229701051 49.9156381725589213  9.3669146625079449
 27.8288780445199606 60.1754157556676290  7.9212062141644459
 28.2754959259670926 50.6603959616694510  8.2991844212701338
 25.0060033141283320 61.6350809208070771  8.1459084170812197
 10.2680462684348921 16.3671550559107430  8.7283141539966689
 13.0958019637227707 14.9130809796215900  8.7671278861507140
 22.1814776589480651 63.0989906886830525  8.3919547532988368
 15.9236810104080444 13.4572126815684392  8.8547899683497828
 25.4519742143417673 52.1153551298096858  8.4026805328444496
 52.5107903675603325  0.6532736695433311  8.6328207920599631
 21.5790263201435266 10.5306332493644028  9.1009161334156747
 49.6771659238299748  2.1247148412676484  8.8515770220446939
 24.4106745206900726  9.0605049024266933  9.2130712714971228
 46.8399598966033039  3.5989965785902185  9.0433691361886055
 27.2468643850722607  7.5863667079943982  9.2956457711876581
 30.0865650919409120  6.1097158252278287  9.3453397935995888
 44.0012222376537281  5.0756082754834617  9.2057848640673594
 18.7510216034403392 11.9966883466778462  8.9737429760505236
 32.9287935776036562  4.6317334187225780  9.3619221391870138
 22.6279981687394454 53.5747559379680354  8.5506396217575151
 19.8023722326712992 55.0395227330365273  8.7181420839748149
 29.6774348023070225 15.6590462069700536  9.5516077475568348
 27.3931193179731594  4.4080246127802347  9.2250667517088250
 26.8483118005153401 17.1356727877673869  9.4799995661731558
 30.2352338101596771  2.9313020504422647  9.2847487914679743
 33.0796138130320685  1.4540493478270071  9.3144012873354551
 24.0219281809149372 18.6072185964816157  9.3834449894803331
  2.7676588568221501 63.8894765827940461  9.3139458676177806
 30.6520690451344215 58.7210641789476284  7.7459283325178081
 21.1951546889244078 20.0715100585146331  9.2850227920331374
  8.4574021945066882 60.9336880777166812  9.2248858499891373
 18.3673526833191474 21.5301756118813969  9.2084657265246204
 11.2996788675211288 59.4570303227777757  9.1369303827615962
 15.5388573420268052 22.9855742785089205  9.1707644873689720
 14.1384817084243970 57.9819917191221421  9.0219028224174203
 16.9730027918272874 56.5092326281013655  8.8807591821920635
 33.4768453042462824 57.2695061539942074  7.6476692075938217
  5.6130899778854841 62.4112173034614841  9.2840836372035547
 41.1611045993237497  6.5534249746602065  9.3364612380300542
 35.7726793389063857  3.1531328849470168  9.3457860000977941
 38.6176856725487028  1.6750677688958946  9.2985563583936983
 21.4469751538372151 13.7103411313376977  9.1762870622420785
 12.8361244131142271 21.2629158140851366  9.0529296153372254
 24.2755039657007181 12.2409262180422296  9.2875931009291435
 27.1074271374520208 10.7669411118117555  9.3737742291215316
 30.8051870463503832 55.5488461075674422  7.8648153255338800
 29.9433561494192801  9.2898662573925979  9.4238796537513476
 27.9811665044400577 57.0027928057178244  7.9929719176569529
 15.6645737415325819 19.8083570742460111  9.0745048661942249
 32.7825604382065308  7.8109033175263525  9.4363113100203719
 25.1576602979870252 58.4611406186026343  8.1777899847435069
 38.4666256059503411  4.8531224802345729  9.3526746516663390
 22.3335469052784283 59.9243281878097420  8.3927637364061738
 41.3098373014351310  3.3752186342939692  9.2617766867438718
 44.1514564168367016  1.8978519444386499  9.1407582171246595
 19.5056594310517006 61.3915229394972357  8.6115238133346725
 46.9919150429930070  0.4225380837042301  8.9906127736290902
 35.6242076856718981  6.3318541170428038  9.4118607647402577
 18.6203030521001622 15.1739966996319477  9.0618382493801199
 15.7927091372466712 16.6323219243796068  8.9678610145971351
 18.4926075454196663 18.3519101150374695  9.1409504741124668
 38.3208411271277356  8.0330299298772676  9.4341547303561910
 41.4618102230799508  0.1975300777435021  9.2218195609687115
 35.4807111040224399  9.5126659870378685  9.4958283750922359
 11.1470645983562413 62.6344003161545047  9.1162497200991925
 13.9875749458391709 61.1594673514825473  8.9834395290240128
 32.6426231558284030 10.9927224160017332  9.5177465157066568
 16.8243877513382571 59.6863757897839307  8.8247611701607216
 29.8071007913264658 12.4728152800403098  9.4983954513515094
 19.6562032265733677 58.2158682881206957  8.6430635876991477
 22.4829317184883877 56.7495149424579992  8.4501308659819454
 26.9753861673102477 13.9504428499564259  9.4388152631258055
 25.3069321088561523 55.2880218143228035  8.2689463392428397
 24.1465710460619007 15.4235122675413887  9.3459324371653114
 28.1305598416151064 53.8314798508802141  8.1252547780600626
 30.9546543635531890 52.3781705531024500  8.0430400557276052
 21.3199730173054114 16.8910271085440087  9.2385421416718323
 12.9642470847442848 18.0871118554008703  8.9138715377328115
 24.5535889098471429  5.8824627342743430  9.1366492902898422
 21.7179782668899257  7.3531933846136841  9.0201438026770546
 32.5091785644210418 14.1781475815126363  9.5850607375279147
 18.8868775955050126  8.8204034841585610  8.8819265198442476
 -2.6173653013534484 60.4908547167733559  9.2765795942839127
  0.2273863531873294 59.0127011898011631  9.3413253165837755
 43.7140658841058283 11.4369330754705931  9.3985355029190512
  3.0714222591500171 57.5338697666050933  9.3759610091572565
 40.8799848195482056 12.9183727704271352  9.5191356929082609
  5.9142670370414248 56.0552211293562337  9.3779192605673209
  8.7544605204486174 54.5765153117149708  9.3466786247342704
 46.5478356121860202  9.9572232555425675  9.2394689680156912
 38.0458775676393515 14.4009509214469897  9.5981676960262092
 35.2127680512001220 15.8843473414420142  9.6332948131053495
 14.4232266353267846 51.6227549645099302  9.1838231637192838
 17.2510627320502472 50.1508173809995981  9.0581029821205679
 32.3812044967876957 17.3673076198739800  9.6248431835685917
 20.0763075881620736 48.6847875277129631  8.9231034452292377
 29.5520708050789445 18.8471741190909619  9.5756827627156902
 22.9011060827684041 47.2246881937301097  8.8035483568431836
 11.5913886035191123 53.0984140288293460  9.2819543740576052
 -5.4609841868533069 61.9677669258385677  9.1830891991216603
 49.3797797964192284  8.4799416610039966  9.0448172041711903
 -8.3030654722202790 63.4433494191904188  9.0614715585317960
 35.9943600871865641 62.1678392963845567  7.4486672866827952
 14.5543191509033942 48.4398785826605334  9.2644743326753733
 17.3803286987529724 46.9699470864842041  9.1415634701806248
 33.1672353939901043 63.6184635238519505  7.5555939578336435
 20.2054504891116125 45.5065863799074961  9.0221232616023741
 63.5011860216981106  1.1566913287955629  7.7500641776722938
 23.0306859756987770 44.0484807045062752  8.9295128725042190
  7.8651184658061020  8.3112407332675104  8.1022574426757128
 60.6807409692853668  2.6114842157241132  8.0021161210055158
 10.6919889190717328  6.8571543545504365  8.2093641540591555
 57.8601896553528618  4.0715178433258412  8.2808402338549261
 13.5186911408907005  5.3996341309915152  8.3681717805064153
 16.3463985897997937  3.9378990198759469  8.5542309887964301
 55.0366133311426537  5.5358886830295129  8.5591517489531430
 19.1778438016674677  2.4722458632465671  8.7424823824738294
 52.2095191445536955  7.0058959955614233  8.8170836173822327
 22.0144500297945029  1.0029736752959557  8.9138348338191538
 25.7262576937046994 45.7688925694571296  8.7220642910072641
 18.1199797177369497 27.8876778667253937  9.2989318567499843
 26.7251035209651029 20.3221032765604797  9.4941861467669106
 23.8989702477259343 21.7904429456256494  9.3991302209048140
 14.2849785679650765 54.8036032878413195  9.0956592128427509
 49.5264863931861328  5.3011949056751266  8.9335422792210615
 17.1157418531495580 53.3305595425601666  8.9658370690317550
 46.6918175426435411  6.7768748757646620  9.1318983547580839
 19.9423458220558842 51.8625272383503599  8.8182152577576520
 22.7672814239944579 50.4000386577234281  8.6742149914468207
 43.8551813188822166  8.2547046942970272  9.2981671194488591
 11.4483695475707101 56.2785117375190680  9.1975348665517966
 25.5917576030074834 48.9425625201594201  8.5592497189255088
 28.4159020037697339 47.4888896958863000  8.4943156189967528
 10.4043147003020184 13.1956021693269232  8.5419799098044944
 38.1804373661753331 11.2150420454046795  9.5233203837584064
 13.2314944504638188 11.7410778469964150  8.6193717195638033
 39.5604468107071554 44.8456877779760816  8.5023258743405581
 16.0588069089694052 10.2832258396611671  8.7402513095370988
 35.3439288146599822 12.6967281663703826  9.5758842669558586
 41.0176857558062053  9.7341397566720911  9.4295548354732635
 52.3586835031424940  3.8288415792513733  8.7052994454924004
  8.6083909689144527 57.7558215699735200  9.2700016718754128
 55.1871625873389888  2.3602939150044078  8.4505575216654982
 10.5456319456877985 10.0258218483543899  8.3633613775496691
 13.3724710721055970  8.5700892613470501  8.4811141397651042
 21.0718357855659164 23.2520549244907642  9.3148745560415733
 16.1997361200133909  7.1102832799431663  8.6343840915178589
 18.2434541187829637 24.7089034741034581  9.2619953963293735
 19.0295332513800943  5.6457656754304839  8.7985005327737635
 21.8639869193319782  4.1776268702058612  8.9510822875131577
 33.3221088824201814 60.4434603534415302  7.5559255159824232
 24.7024385218295777  2.7056818467302248  9.0801398888003177
 30.4974265198653818 61.8950422223321226  7.7048344008223459
 27.5437537054662194  1.2308067813878485  9.1833461491565735
 -2.7700122163023382 63.6677770565462922  9.2590865931510855
 27.6755276838653295 63.3497209922729425  7.9235643378149740
  0.0751769863200016 62.1902390971019230  9.3063793814501015
 58.0114705776108792  0.8961271150125560  8.1818182242400610
  2.9208622447871329 60.7122126092562695  9.3245617887121455
  5.7655085939215356 59.2336796526112010  9.3126120389209373
  7.7187205880889040 11.4796696721941753  8.3023558570892320
 -4.6219475321175869 42.8685660448804811  9.6409173661332783
 12.0988579920172015 40.3562155724130562  9.4903824930716318
 16.6723827970928298 62.8626127034595399  8.8135097093086401
 37.2792413410876620 33.5634034606457732  9.2829570066689335
 -12.8341601555014115 40.9330662035715420  9.3706175333948902
 36.3028117840101459 55.8201972447860868  7.6437988324150359
  1.9277124350653938 17.5624937434445059  8.6474268914208032
 -15.6541888663408209 42.4140872560115980  9.2175925693030845
 40.0982478579888593 32.0850252038707922  9.3388879809786829
 31.2396267205195031 46.0364021477334475  8.4892858644842306
 -18.4723851999518800 43.8906338555109414  9.0338232134961363
  4.7512049184056249 16.1043628401080845  8.5608760044043866
 42.9161220532480456 30.6040957179825241  9.3716770235517810
 -21.2880600588148958 45.3629621058735069  8.8250372152722498
 39.1279937465070446 54.3713875613094260  7.7349729634154913
 -24.1026369092796138 46.8290582576566479  8.5990472060007548
  7.5774548739049630 14.6493389582948392  8.5222132135750712
 45.7335747280590681 29.1221904587913940  9.3803942329799170
 53.9072173171103088 31.0870220509579767  9.2890651634802150
 12.7097162006157287 24.4406216286426421  9.1795488891547219
 41.9499384472133059 52.9219605321792486  7.9065236366932874
 -15.1055951047438253 29.6072960290311578  9.2917086878095336
 48.5506873158862362 27.6409475316695072  9.3635499732280518
  9.8812284791915541 25.8979488144563632  9.2316660968930417
 -12.2909212700126744 28.1279289648174604  9.2721592479347361
 44.7679317147044884 51.4694094217763407  8.1346052474494215
  7.0543928888847702 27.3611313235793361  9.3143580476789314
 51.3671422727852729 26.1599399098402898  9.3201720749086441
 51.0928709407416122 32.5662877564754112  9.2640490064825496
  4.2297059798420626 28.8317025848408335  9.4045289055048151
 -0.8917697753513261 19.0266714916298021  8.7612327498742726
 -9.4763396045710362 26.6475211824754261  9.2323312830152560
 -10.0123678852383247 39.4493974830169734  9.4900079794725549
 -3.7087077369204651 20.4971616739148494  8.8798371034977386
 -0.7525866881161031 15.8452367952209343  8.4938985301678240
 33.6297789937711116 54.0976205416051954  7.8157463310392234
 59.9521766478464144 18.5280741671892279  8.8957730073200398
 12.5852059892767478 27.6201512445650756  9.2887805872806339
  2.0681278397618708 14.3868999528951509  8.3772190480923960
 39.6981116825852212 41.6614805537391888  8.7531860097374157
 36.4537815302360784 52.6486384165991694  7.8543813775474920
  9.7574102125679794 29.0806556495535808  9.3614079918328965
 62.7669337331543176 17.0575884347680606  8.7243021621693284
  4.8922385369735100 12.9327550379963014  8.3080527590140285
  6.9310354751262979 30.5480184462773856  9.4519888299898760
 -12.1536281750500343 24.9260259420916697  9.1727221918740707
 25.9850756211105676 39.4173373505759699  9.0307474492437620
  4.1061458052721651 32.0233645589185372  9.5363185125969263
 39.2756928497696194 51.1995360091092380  7.9725567433865274
 36.8818538232837270 43.1247848249769206  8.6355810082580895
  1.2821996146463610 33.5050571575473342  9.5970445446435058
 -9.3393211555407269 23.4483387983262617  9.0896199376820110
 28.8120370544543256 37.9621723928169459  9.0613781005739735
 -1.5414509827324347 34.9898490088028851  9.6255210166388743
 42.0943474069801837 49.7469199469921648  8.1517364274720041
 31.6370666074462825 36.5026760427515526  9.1274692440824801
 -6.5245288711966802 21.9717803238895364  8.9910850466354280
 -4.3652810143487555 36.4765605859099367  9.6179935902981555
 34.0621531213424333 44.5826077579254729  8.5409764061843276
 56.8597253789062336 26.4038061991817798  9.2382612351454831
 34.4595062746443759 35.0369690074596249  9.2085160411256446
 44.9101065481567190 48.2901500722122066  8.3685808314649996
 15.4140860455315742 26.1639095988405757  9.2528161230924582
 54.1834831493105682 24.6802781986271924  9.2505388793399277
 36.1491913731883727 58.9929885405296375  7.5015113965546556
 -12.4276422927686720 31.3301728045377459  9.3433521087351199
  4.3551880111641879 25.6430561536601829  9.2369777790986447
 39.9667514335259142 35.2800059699933044  9.1749482016390491
  1.5328294101210092 27.1173547401393833  9.3235640234934980
 -9.6110926155564798 29.8481626773889843  9.3457585592535182
 37.0166666504937822 39.9421083441375870  8.8802166355652883
 -1.2881448703234117 28.5977569929541708  9.3902033617814844
 42.7833687912408678 33.8024524440853753  9.2371891233294843
 -6.7948084205795700 28.3655326054611976  9.3246017268943593
 -4.1084461205048228 30.0807338020880373  9.4309035732358506
 34.1975812310265823 41.4050792698535375  8.7869615024880883
 45.5988399658382448 32.3227105927966392  9.2816423036409770
 -6.9269608453813341 31.5651517740178598  9.4434576198161118
 -3.9775280525256065 26.8839602985732320  9.2802858430675066
 -9.7454384360305930 33.0489430634643355  9.4280279745333413
 -1.1591129293481279 25.4042449763696823  9.2142202223752800
 48.4145170847922159 30.8432297967236160  9.3053450089019893
 31.3756648934434352 42.8622018298390799  8.7180721728112598
 -12.5633284925239810 34.5327983936969574  9.3843310585073496
 51.2302333048999330 29.3631019140268918  9.3064462098893657
  1.6610696204986533 23.9278001695581395  9.1299706195755270
 -15.3804354646822610 36.0148212721577750  9.3126632096002044
 28.5515517481670891 44.3159091714761146  8.6931478358492615
 -18.1961057719336559 37.4935695790721013  9.2156520644905573
 54.0449535783177666 27.8829035548776680  9.2838421402417399
  4.4834828959369348 22.4586409053665719  9.0363181951245952
 10.1361402193939263 19.5413342029204884  8.9100642210143413
 37.1491686412112116 36.7547981209535735  9.0976162731789252
  1.4069035132910013 30.3103197378415565  9.4798276693490404
 39.8336875547547038 38.4726454590674152  8.9786349784091133
 -15.2431623671565859 32.8113119222135623  9.3167463202386340
 -6.6606690666966548 25.1676272375214438  9.1730121009108991
 -1.4154074844218976 31.7930539234430505  9.5281344717177454
 56.9980517094697561 23.2017574466970125  9.1581597031827719
 48.2780084221530217 34.0452092164412790  9.2178597882904239
 -3.8443656453673603 23.6889620093740021  9.0957441074372092
 -4.2371133571359270 33.2789055440759967  9.5443208354689926
 38.9767725063830142 57.5434622268770894  7.5512735753250482
 59.8122977813662615 21.7255747247719562  9.0467331653141336
 -7.0585619659919576 34.7646740549130442  9.5271633477310615
 -1.0271481344555835 22.2134312462289358  9.0034736730162539
 -9.8790226747902672 36.2499242313787065  9.4768942761060835
 25.8570461037403589 42.5940032241426749  8.8813658676520166
 41.8019127306300717 56.0949520509876010  7.6982747382858658
  1.7922224030903429 20.7426991905781932  8.9024234521760341
 -12.6987630231658191 37.7339169200564513  9.3938003517232769
 45.4636090170047353 35.5227906098339687  9.1526268438609737
 28.6832885506746109 41.1404124246527232  8.8844169784933182
 -15.5175327601039950 39.2157813576529435  9.2797540601676172
  4.6150950502324397 19.2792348396276729  8.8080225678154118
 38.8229343656175843 60.7175091449351783  7.4476877791428437
 -18.3342826145434685 40.6938363352110599  9.1384583646314663
 31.5081270155220849 39.6843466219427015  8.9333073994728487
  7.4408799408226125 17.8216215258110537  8.7439786720952846
 42.6490209966211822 36.9989143139032848  9.0714813649835513
 -21.1492550989746846 42.1686641413274899  8.9734178759006475
 34.3298006913674953 38.2229806708011992  9.0118028158358729
 10.0073173953311887 22.7180149187706348  9.0797291488223575
  7.1799504713603808 24.1772938106576589  9.1472061650216645
 57.1376263832572704 20.0022746089832779  9.0525111762525938
 -7.1892219825260568 37.9633750694620957  9.5730000253280156
 33.7787979638526821 50.9274794911840516  8.0367015740783572
 -0.4618619428750427  9.4971916955702511  7.9447056040787825
 31.7637390860574271 33.3181291249780571  9.2953847058507311
 12.4620228269945965 30.8016437368059144  9.3765571482767740
 53.7694777073292443 34.2910338972808049  9.2660731275542716
  9.6349449487319294 32.2656652297853412  9.4641415231804356
  2.3632995287353382  8.0454571464730300  7.8602066308855507
 -24.2434418556327920 50.0128040173924120  8.3917432299235308
 34.5866642535974051 31.8474125777902479  9.3727799869933968
  6.8092011600460056 33.7373828516246945  9.5564920206083759
 -6.2453667660498535 15.5905906252200150  8.5446238782901354
 37.4081283120956343 30.3696503923469372  9.4328668526281181
 50.9547583695094488 35.7688494959766956  9.1935986286795330
  3.9839491959805566 35.2166713743790467  9.6308164423427431
 36.6008491553434894 49.4770007662958093  8.1056168683682763
 -3.4287925383036066 14.1275922102867835  8.3684520203790846
  1.1582857470156722 36.7005640009310952  9.6743207585623203
 40.2283485398086569 28.8882314307424259  9.4671127705640732
 -1.6673660975511821 38.1865964851723376  9.6816091053936404
 -0.6093725704209143 12.6692172533194238  8.2153406572923622
 43.0483636418686473 27.4054437822193329  9.4722414714327190
 -4.4933923825358031 39.6733329050349113  9.6501607444501047
 39.4196941149285891 48.0247982758753977  8.2362071932004923
 48.1410537756743722 37.2458308472389703  9.1021764062993800
 15.2908344140892467 29.3433191055944746  9.3168631883742208
  2.2136104607101341 11.2152700118920610  8.1080927948303501
 50.8166799585058797 38.9701164761931906  9.0965211610685159
 -27.2044910744092441 54.6450361929435360  7.9202200466723802
 57.2776720334077538 16.8057407403082841  8.9217164485353262
 -7.4502553686930302 44.3545529108586862  9.5429607839026254
 -0.1572403490633521  3.1538643480729691  7.5303721292905026
 -10.2776653390447468 45.8393664603601536  9.4032649757240776
 60.0937155891988866 15.3349328534025613  8.7205773030851219
 -3.1355051904059628  7.7765571514779204  7.8410529954128947
 42.3750724407012953 43.3831248741262954  8.6537512136285066
 -13.1041270813727806 47.3207591932202263  9.2226062248291782
 33.9228080458446541 47.7563067139375974  8.2855344468446201
 62.9094136210795369 13.8691643533768687  8.5060606140683603
 -0.3108911549014208  6.3263831060825062  7.7066454435570204
 -15.9275147745667720 48.7977567228675753  9.0025608516702498
 45.1893022483889908 41.9158806854200492  8.8096195705792919
 -18.7487037464446296 50.2686198510962896  8.7484504788017574
  2.5164419614177649  4.8756841038856944  7.6592113390515779
 23.2835470660965633 37.6939339629211645  9.1526729584122961
 -21.5681490506209919 51.7328728706854832  8.4711048969739764
 31.0995137722719974 49.2079377245005389  8.2584966265133506
 -6.1020395884928540 12.4075443064031194  8.2913045522553492
 26.1113798697663313 36.2388623158848731  9.1657460202549927
 -24.3864585180291478 53.1914811590427163  8.1873737107842501
 48.0027388258817709 40.4441139623090749  8.9595915072568371
 -3.2841440520300540 10.9504170466499193  8.0958200396543187
 28.9383861579313439 34.7813182378986809  9.2188936741083722
 -7.3196034912072268 41.1602009876673591  9.5781796263592085
  7.3086238888149904 20.9974128654752974  8.9552267733175555
 -15.7907022711628713 45.6082314542118041  9.1246886075916898
 -3.5702119844976998 17.3097517447304838  8.6352239836074265
 -9.2009640320564525 20.2511280537291398  8.9200257865597141
 48.6866998458381417 24.4392516023923285  9.3908960593593207
 45.0501898376849894 45.1056519853197955  8.5988602867651789
  5.0387643121477108  9.7632736219369463  8.0669033831912671
 -6.3861214235927539 18.7791899368761470  8.7807703710335776
 45.3268846674661532 38.7210138283349252  8.9949197270757253
 -10.1452047851185760 42.6461323815800171  9.4654762893563777
 54.3216011884312167 21.4790315074627394  9.1901715529715950
 -21.4272739961331098 48.5510201709633193  8.6536971045278168
 47.8641734126976957 43.6392536688986254  8.7912629830861366
 -18.6097627428926451 47.0828073501617652  8.9020579991871394
 42.5129697815344656 40.1930521554484201  8.8764257115031686
 51.5049565169511183 22.9580615944260131  9.3043221544449111
 45.8680146189160709 25.9220775756586512  9.4470650406801244
 -12.9689209684207167 44.1293729585849803  9.3137022842464514
 42.2357823239010486 46.5678052381001066  8.4080563567682063
 17.3458182694531509 23.0492142916060345 10.7726490687611136
 38.9931488688218906 36.9331437576712247 10.6416709982667879
 38.9791435057963298 36.7407580275072974  7.5247354016313528
 20.1588861039297278 21.6036708262768400 10.8281739750574335
 24.0351081117737486 59.9844988583095997  6.6781219910055967
 24.2970884366642963 60.0267693179364556  9.7943740550864877
 17.4164676548209947 23.1071637443636675  7.6520188738242680
 20.2601352680910587 21.6389094830640580  7.7084144769427985
 45.9203801095032631  1.9924518398912576  7.4974639117266388
 30.0566458966731176 54.0112448390732567  9.5658860796463117
 20.4003987523573258 18.4677544853360267  7.6614093713645186
 46.0647805562297705  1.9479909320597821 10.6164340826642860
 30.1896675922027882 47.4660454785278176  6.8537944221934604
 44.6265655810677586 33.9466597179723735 10.7827068081678252
 26.8658342380422113 58.5059096441413047  6.4687211655920089
 26.7102905850015730 61.7139444236834009  6.4344420360852590
 12.0156938827317017 19.7047269650633652  7.3979186435193629
 11.9376067336514673 19.5615354631764227 10.5166857544449766
 29.7699479566787346 60.2882022600338985  9.3464495491974358
 33.1130634582927641 46.2540289262269155  9.9941074803889745
 29.5504206510383476 60.2386355978431070  6.2256913196446746
 41.7957688962700757 35.2798855242397735  7.6012154697699232
 27.1131896365243783 58.5859360317752049  9.5860155202489388
 32.5633825338984266 58.8600446633889050  9.2058888170016626
 41.8102768384499726 35.4427335899438134 10.7194929754609234
 27.0239750223019293 55.3059687883915601  6.5679564480158739
 32.4054423565474536 58.7639754386126043  6.0828692819810204
 29.8714159282130538 53.8307224548801386  6.4487245633184287
 38.8499241916607261 39.9162440376327154  7.3114816913324860
 36.1593490162312605 38.2025530280861716  7.4378673884800239
 23.0960167276404356 20.1701873783744432  7.7956975394694803
 27.2557949244726032 55.4437509282136887  9.6841730539658943
 48.7399316542137484  0.5101640803333970  7.3248472067368837
 21.6165900173308252 58.3288249917904693 10.0512675868027817
 34.3437310595298229 14.2246409310504855 11.1579089614507012
 35.9125791058784642 44.8018430369709151 10.0722549457375798
 34.3637572432758418 14.2810882891708708  8.0396437138972434
 30.5515503863738473 41.3380586591884480 10.4021747264817233
 35.8831732348086661 44.5435263902680205  6.9567255302222870
 30.4943212367788945 41.1264123866418387  7.2855392713337297
 37.1980536650761948 12.7338401395276364 11.1257144961988672
 18.3993893883142476 62.9428977309817483  7.1258386149916939
 37.1787809942032226 12.8056543021456495  8.0071413142410108
 27.6491200380901994 42.5920945041816026  7.2595770427091502
 18.6203839951485755 62.9325800534148030 10.2429415779207087
 27.7446767651975001 42.7816671579728052 10.3761760345348879
 40.0532847720146989 11.2454982190189696 11.0502231684468093
 39.9952773381513538 11.3294880058476775  7.9317823892723007
 18.5488793633757965 59.7425313384775976  7.1335436461882304
 22.9782082177476141 20.1489477472062468 10.9149132904599249
 31.5508307603082230 15.7556350838314909  8.0287645318583376
 31.4923128171683011 15.7150218931134233 11.1468724427536152
 33.0391336261747810 46.0022320558649938  6.8786533874773657
 26.9643013832967853 61.7228612175946552  9.5521361687208515
 44.4780232463222589 37.1593427758371533 10.6311417012697067
 36.1758650077762454 38.4155452104062505 10.5546729699747246
 25.8065471263864765 18.6813628747852860 11.0122919857848025
 25.9214982422077682 18.7001185494541460  7.8932206405197229
 24.1892107026007182 56.7832544332951770  6.7389305978695928
 21.3657218690859843 58.2623546205309353  6.9358982551260429
 21.2149087212948793 61.4635067903540673  6.9052581403937712
 33.3322176803356882 39.6636488838854007  7.3515626996132664
 28.6449761430621272 17.2020493401645780 11.0956346762845559
 28.7376655599647641 17.2288493536027403  7.9770947048568370
 24.4430408755302118 56.8821359615144360  9.8542834190772677
 33.3614889552473528 39.8838937677628920 10.4684396511018303
 41.6663439659613886 38.6516390591955812 10.5331565763002235
 21.4658792455926317 61.4756778583006920 10.0218560859133312
 48.9233623137223788  0.4816232180129538 10.4425962143917861
 14.7463376925681704 18.1227219445296654 10.5431670246600735
 44.6109963917878360 33.8193300522984615  7.6630570459548109
 23.8832555257870958 63.1909071989776265  6.6792294104472036
 31.6223759896235919 12.5136438060310411 11.0937056272020946
 31.6798032246841359 12.5810453240309652  7.9749248668989381
 50.1033340077169740 34.1623406230682889 10.7847429391453389
 50.1207160477480187 34.0921180716307859  7.6629674316166119
 28.9981909709665509 10.8808362882686360  7.8730616681433565
 36.0451898811533624 41.6132880611742877 10.3246188170303359
 34.4783005405975231 11.0274124597789562 11.0897112005809326
 47.2902260540365518 35.6624812543627030 10.7165353720003687
 28.9023656718725199 10.8051340629372365 10.9918399979937860
 34.4959897589004072 11.1054373638424426  7.9708449658061458
 14.7153937989594450 21.4055867109514821  7.5378658050048308
 53.0539324019320517 29.4457219507233319  7.7307396485632536
 26.1828024625198879 12.3545078802325659  7.8084188078753769
 37.3362846244331976  9.5428011291356007 11.0439625956488445
 53.0748159644453494 29.4435890039318586 10.8529264360548936
 30.4349674657036182 44.5211382418718244 10.1899967869584955
 17.4511080809756756 19.8635217235730295 10.6996989149825996
 31.7588478563448469  9.3227930040819231 11.0192141165135613
 28.8659907112214391 14.0559321039394884  7.9376102598457718
 33.1880515995686025 42.8323608367684798  7.1226558610494033
 47.3053359527286332 35.5484219281438527  7.5960500669984823
 20.2673266781990549 18.4149633778124624 10.7797830881575489
 37.4808352984533713  6.3653686790936783 10.9587822065923550
 23.0917130409216433 16.9551911505968356 10.8814001867513177
 33.2385084012239744 43.0739142558107133 10.2386276813048358
 23.2308984146483155 16.9982814472224142  7.7634578280509023
 40.3424512653555354  4.8900179409275628 10.8759276926468580
 34.6349793373487387  7.9239431935543871  7.8880443293722875
 25.9256286237824511 15.4823235240574313 10.9811695100791251
 37.4561997329195506  6.4426995432914644  7.8391823826728002
 26.0510307038626330 15.5274614720139787  7.8628793496694165
 30.3441861129238042 44.2949982737524124  7.0734654177593308
 17.5609276141309003 19.9366631283242484  7.5802106204116599
 28.7709608105984245 14.0006703475766976 11.0562009922401252
 31.8155677728063786  9.4036224177158108  7.8997210301467709
 34.6188683182199739  7.8425179626276096 11.0075938465981835
 37.3138316158481373  9.6277810555732692  7.9251033450288695
 14.6401723654140969 21.3051707931490064 10.6578171729186781
 26.0518272182217849 12.2863510361116166 10.9260551896719509
 48.5917242551329949  3.7074423044401463  7.3828122696389178
 47.4252650572120444 32.3608071627377285  7.7068891499334047
 29.7102033552704796 57.0293104202090788  6.3041192832942166
 51.6207817191088978  2.1690535233917401 10.2868292688175860
 51.4086188030055098  2.2293364876812971  7.1699345689395795
 47.4426840747360998 32.4479100714354232 10.8274604142427204
 17.7063995613729155 16.7653439579185672  7.4967161274117240
 43.2045618247806189  3.4177054401242217 10.7615031313891034
 17.5598163706262049 16.6795348547730562 10.6146214951129743
 54.4678739596565862  0.7074292664151186 10.0483326447473207
 30.3150054293273712 47.6955088097940987  9.9697212586602131
 54.2232806709473252  0.7532318789377359  6.9317592005214532
 14.8631868137670367 18.2350475685344442  7.4244353549324185
 43.1003084838229071  3.4757367490037954  7.6417491657267744
 44.4892110619858911 37.0043409570732038  7.5122477743157532
 24.1446479371418263 63.1676963569138863  9.7953508716604976
 29.9167036564325848 57.1534018380961371  9.4233249789746214
 38.8550785688732176 40.1377849601686592 10.4279840809875690
 48.7675379238129452  3.6361587015859156 10.5001451333375968
 52.9359419495403714 32.6367261734556919  7.7107471042523885
 40.2779138759620778  4.9590854868685668  7.7561146021603937
 40.1952665403929359  8.0610512808435715 10.9591972252681629
 40.1338525896859366  8.1479764245837512  7.8401797481880537
 52.9175883470786559 32.6612820258538008 10.8327452156318138
 36.0233948792850143 41.3733264215593621  7.2086456754523986
 50.2395233029326818 30.9025460213585212  7.7299145938937119
 43.0537441978721063  6.5830411703337424 10.8387966388054107
 20.3804797687560573 15.2269635549289095 10.7168705456208304
 23.3649134677731780 13.8254073073417203  7.7115328129439016
 32.5672911955914444 55.5551054176623040  6.2109439191125446
 42.9539331083523379  6.6677653937113490  7.7200859428052064
 50.2587566322276231 30.9466100446382235 10.8515814081325281
 45.9117581589717147  5.1079126798228147 10.6850809605522645
 45.7734324117511520  5.1874844123335109  7.5669854383352382
 32.7093953359291589 55.7245490505785810  9.3316153465870020
 20.5406062319430625 15.2959637828291992  7.5997274479952583
 23.2101244387886396 13.7617432183569655 10.8285397109518176
 41.6712362559238159 38.4601268232827707  7.4155744500685170
 56.5188277246426765 15.0950813061978977 10.4490760186603335
 55.9867764295246673 24.7987834329634751  7.6535986107357337
 22.6813429763361398 29.6808789539970448  7.7707176899870740
 25.4723649584279350 28.2761467772802675 10.9525206283746339
 25.5229484993242401 28.2142765866175083  7.8325966309451118
 56.2273178760995407 18.4226605887704906  7.4656601415667510
 56.3621020681775278 18.3012227076668523 10.5832472308040924
 28.2952952970972476 26.8140350727418557 11.0346156329393974
 28.3541887618419146 26.7463668279217792  7.9154804997386874
 53.4134388514204446 19.8784367636599768  7.6237566905484764
 31.1278219706647867 25.3388795434486127 11.1150964815985223
 31.1747381666134018 25.2760064830711855  7.9962738845311181
 53.5422391939878892 19.7986871942929632 10.7420646120888392
 33.9668179186962291 23.8528216762486700 11.1728884324221109
 33.9876892942518936 23.8028053954514895  8.0545419325203440
 50.6009472575009696 21.3376499268707107  7.7559139348999615
 36.8094969585545968 22.3601647846003075 11.1973091047745044
 36.7985881220656381 22.3280163315089801  8.0790808698307650
 50.7181734922936229 21.2977600511754588 10.8750262421417663
 39.6528249317254833 20.8638366887533131 11.1842664492270778
 39.6095430681186187 20.8538796762804992  8.0658467227369286
 47.7895119515295974 22.8006818719069599  7.8582384393374367
 42.4960268440840281 19.3664602895977787 11.1318549336499792
 42.4209454378268873 19.3814240483329243  8.0132501120063537
 47.8902839433484075 22.7987043712442023 10.9777505547894361
 45.3383610680857174 17.8688775283256938 11.0387976805280719
 45.2320097091275102 17.9098392278383152  7.9204658453934673
 59.1776783428747777 16.8061632686905646 10.4029122533125626
 22.6564855050730856 29.7270590932494052 10.8922985730583051
 18.7748721684035793 59.7828937180148827 10.2499310322414523
 19.8346532463871696 31.1482377193347126  7.7472032003867044
 48.3210639559493842 13.1674362868930253 10.8182873234166497
 48.1737902030426852 13.2637061813573673  7.7011287169408762
 30.7788132091768496 34.7886635402241851  7.6545629709362881
 51.1628104223853839 11.6783813391228080 10.6212614731315185
 50.9860247634065971 11.7959394599016232  7.5050714394765743
 30.7810509203369236 34.9520492460602696 10.7721517650553427
 54.0005287236088591 10.1936788919277497 10.3897104735004824
 53.7980831266593924 10.3313830382675658  7.2743931395715622
 27.9423344961831894 36.2541856028500291  7.5884322125160013
 56.8317938122594626  8.7163387743601746 10.1295663376301039
 27.9644812556048485 36.4076447408757460 10.7064343387597560
 56.6118114430828854  8.8715221273213327  7.0151960212456093
 44.9789060458115912 24.2672445327979247  7.9274226145756863
 59.6538839904051130  7.2486759421506646  9.8534060511327954
 25.0982191087101079 37.7206207516167495  7.5554029542431635
 62.4646512459255376  5.7891730457948443  9.5807446097929905
 25.1529832564957943 37.8527493745467467 10.6743326476696954
 62.2573490170627935  5.9586568950499226  6.4640431228581861
 65.2645709816387836  4.3416568169766725  9.3349893119908636
 65.0974476051044633  4.4990372402751095  6.2149893588096567
 61.8624809228217316 15.5229024949460452  7.0908028991541325
 61.9891122515323616 15.3160669347100900 10.2065155856317702
 68.0542354209675580  2.9054498538568434  9.1468950312489365
 67.9539778053675860  3.0344808697639585  6.0227377043121173
 59.0434525359392310 16.9708488800698447  7.2862320005643477
 19.8452655438311538 31.1718266077253645 10.8696141624676326
 59.4306697274506845  7.4156253989990155  6.7392230149031516
 45.0593450015114172 24.3000587506339016 11.0470522575689891
 48.1782420975079333 16.3718354343942778 10.9058130304078151
 48.0428296965781101 16.4402313977225454  7.7882220159769320
 28.0834463663299374 33.0853190309168426  7.7239946795206693
 28.0742947083325234 33.2134025565130457 10.8427854918910551
 33.8457551993650654 27.0651079481245525 11.1028166433250117
 33.8622680003034162 26.9768846726194482  7.9845618666886766
 25.2423599324914392 34.5517363824527877  7.6689719476647458
 36.6839549571092860 25.5747359820686349 11.1448006062747460
 36.6739382106294585 25.5038269545608394  8.0264507716979701
 25.2587188134791703 34.6636519228068423 10.7887572947420161
 39.5230528581916261 24.0794238383979931 11.1539308573264133
 39.4846798676770590 24.0299546590470037  8.0350685096662797
 22.3962337180475046 36.0192966481451080  7.6528769100336618
 42.3617686837738745 22.5821863143129349 11.1274335059133165
 31.0460983228197804 28.4478567699200404  7.9155062390650892
 42.2951148615144703 22.5578290629452347  8.0081603767350771
 45.1996258507564121 21.0835530468753269 11.0629037540465802
 45.1048146353694790 21.0874899233092421  7.9437636230546849
 61.9891689786107918 12.3405162615269379  6.8767421032007876
 48.0354011103146163 19.5836134140658444 10.9599465971940209
 47.9148674255692271 19.6187470647428697  7.8413496719583389
 62.1487552539338566 12.1247847316369040  9.9915852422867637
 50.8678207178516857 18.0849142192268850 10.8208476749637601
 50.7259643452967595 18.1541273174591566  7.7029278836054154
 59.1671525195166765 13.7883394687112730  7.1119446570649414
 59.3362551833238854 13.6058576132149227 10.2271942090675676
 53.6960463039553275 16.5885076966554195 10.6491152163421923
 53.5378400185372598 16.6941936444471430  7.5322037261127122
 22.4478460501882431 36.1070355114273482 10.7729976999079273
 33.6045153303777582 33.4834028997990458 10.8512953897744282
 31.0113453579031884 28.5465561385843962 11.0342065350704104
 30.8961946311582771 31.7515841587901129 10.9189241081142381
 51.0157129777902441 14.8765439293529820 10.7348360142076622
 42.1691456740926895 25.7363653416126965  7.9623592039668019
 50.8540276452539004 14.9742307222807067  7.6180998252496561
 42.2264443088304446 25.7994743151001522 11.0818681521609790
 53.8482548755201833 13.3847435091042044 10.5290885022744813
 53.6655968305029774 13.5127604149529503  7.4131223010854654
 56.6750463103394395 11.8981666910282993 10.2938088491726916
 39.3591457347512872 27.2072658770961127  7.9639236230200474
 56.4788720802943658 12.0564371266010149  7.1790031786587223
 39.3926587242829456 27.2955938607674895 11.0830686738218329
 59.4951733171081543 10.4198246316978675 10.0377441968039083
 59.2961929858623051 10.6051744871373703  6.9235103406142198
 28.2207132183850007 29.9163497067298501  7.8340644134200632
 36.5483496212528749 28.6795586384163101  7.9343174075408696
 62.1202170246987677  9.1533681251204104  6.6602874541463590
 36.5585800383474293 28.7887892725952703 11.0527998954682172
 65.1088975102040735  7.4897624371856688  9.5268406813685136
 64.9541997819220995  7.7001423610061810  6.4095146515778483
 33.7349441940294099 30.1505960035493885  7.8769631460648224
 22.5519844308694211 32.9178962104585295 10.8423479615447071
 33.7252137578596916 30.2757278883411090 10.9950537992741175
 22.5396701890601250 32.8498492817025038  7.7214046392739917
 25.3652884834764833 31.4712722603057706 10.8823398982223836
 25.3842592265523450 31.3833629600736330  7.7624807274122753
 30.9145378446523189 31.6187788251842647  7.8007070379462702
 28.1844060325527330 30.0151938902325490 10.9531931622439433
 62.3070095301552840  8.9492782496371834  9.7754525983575675
 45.3610830097477091 14.7340708690560671  7.8594988171709579
 33.6048275848423614 33.3231518340134656  7.7334676012541523
 45.4770368016375244 14.6598066520559644 10.9773279516628488
 17.2415641893038973 26.2363804793120323 10.8304399073191018
 17.2721364327319762 26.2766905814929821  7.7091635941465926
 39.1065087651677672 33.5635754737086955  7.7067464931188381
 20.0533117714457383 24.7930325446674367 10.8605272060348081
 56.3511357893198124 15.2389698705106227  7.3334185929540316
 39.1281972962600122 33.7238604537410041 10.8244059259397751
 22.8689776786092196 23.3422656420421184 10.9283757119453746
 22.9597270704398113 23.3413504927609132  7.8079089279879685
 36.2919656641455077 35.0296754788260927  7.6377265802480494
 25.6921781298691307 21.8806578363180044 11.0177700159411103
 25.7910248719208859 21.8725225617048267  7.8982816528188060
 36.3051066720514086 35.2109034827862644 10.7552466204119028
 41.9515326073477510 32.2306409782294452 10.8747871336335820
 28.5247650949875471 20.4062332077704838 11.1057808100899695
 33.4707975656763423 36.4940454493467783  7.5569698734994386
 31.3669796891509485 18.9217905176545997 11.1702532204996388
 31.4251993628476143 18.9297099961334432  8.0522704123247291
 33.4830547330290500 36.6864286613215285 10.6744648171888095
 34.2144463800026770 17.4300973111897584 11.1984312774650867
 34.2366597290245238 17.4546316436193045  8.0803340795925820
 30.6392348626586397 37.9580727129944648  7.4813048005287150
 30.6665461370802852 38.1479798808191148 10.5981238018391810
 37.0650772852486838 15.9368177782433680 11.1846986430026689
 37.0493437092539040 15.9796876013860505  8.0664395165025233
 39.9165156271764090 14.4434066661954326 11.1272251991351929
 27.7975642185210639 39.4230807560041114  7.4319621650980210
 28.6115441492756268 20.4018631448806325  7.9871156340782461
 39.8630212765299632 14.5053230960494144  8.0090672855963199
 41.9195766609084259 32.0983350803985346  7.7561938120094442
 35.1993581276903171 60.5629893963916643  9.0591517148409348
 42.8129073408972047  9.8528720645026091  7.8163660024901791
 56.0475382289502733 24.7250703868674400 10.7748353155858680
 45.7626323999955176  8.2779571848705125 10.7813185856257530
 45.6309605092878670  8.3761742592056336  7.6639799817150180
 48.6149010289413397  6.7997363981183154 10.5941740397243240
 53.1720874623363713 26.2550117287371378  7.7228114964350958
 48.4481244405089981  6.8997165390703818  7.4773672788929249
 53.2313442718943861 26.2267298898078884 10.8444068182791824
 51.4646322333156689  5.3259682209954278 10.3755853899377453
 51.2633281639934353  5.4252036663646317  7.2594214547555751
 50.3586242253385592 27.7131575033580084  7.7685601460698352
 54.3104363480901569  3.8575014991313950 10.1281501385124191
 35.1111994049052711 60.5078733965526965  5.9323744245603311
 54.0771085444443997  3.9528211441885941  7.0123683041039993
 57.1465478184225333  2.3974867259610253  9.8598538977356078
 56.8930756912619060  2.4821947517192426  6.7443655873602584
 47.5455247340260314 29.1727788414667124  7.7885951305717329
 59.9682252781745291  0.9464781284245399  9.5909102678515232
 47.5935518764184735 29.2319434914209069 10.9091648761867290
 59.7167375686246729  1.0112522322331827  6.4737760132331559
 29.6179887739629031 63.4203836943876240  9.3483449602003557
 29.3943404998710776 63.4539832937502624  6.2280868106251148
 44.7323516119897917 30.6339578114139179  7.7839147002665126
 32.4132271649174228 61.9895508007723777  9.1616646232485319
 44.7729206010314726 30.7322314046514684 10.9037994298390810
 32.2455187444363176 61.9816086366578105  6.0379153829401107
 50.4131552394316884 27.7299787849623662 10.8896224059526574
 42.9081333897055899  9.7600034751583848 10.9343246205339550
 27.8548604247363336 39.5970610587723186 10.5492198077775399
 42.6779219077561649 13.0315138668605659  7.9089929588773780
 19.9769744126054540 27.9788938512031358  7.7525863497591647
 47.7428410889020256 26.0153427089646527 10.9600762142334247
 22.7621172091462221 26.5350671169456049 10.9210162726871776
 22.8216867292667445 26.5117399313724036  7.7997100367677126
 44.8548283630474529 27.4495531116348239  7.8730408680144723
 25.5809690617829837 25.0788439284307998 10.9978297978262525
 25.6582995824694180 25.0437281577496940  7.8779174853103386
 44.9169593103125777 27.5165697147121620 10.9929521525614753
 28.4088658849888773 23.6109542225899958 11.0855235201908791
 28.4845138481418765 23.5749814799779216  7.9666039541189342
 42.0436902261311474 28.9165919864779788  7.8774780244244154
 31.2455408098050320 22.1299056694017366 11.1602619917964709
 19.9488476825541063 27.9824318712093074 10.8747101858625363
 31.3003258593182068 22.1029874426596784  8.0417825416587121
 34.0896157984984569 20.6405741453198672 11.2044785914923271
 34.1123215968492062 20.6285817628378041  8.0861979602561274
 39.2333151332614420 30.3855779421180223  7.8539647446267891
 39.2616066853316426 30.5110758366275796 10.9725815574350012
 36.9357101046073026 19.1468050159708056 11.2101602435193204
 36.9230608221785417 19.1532494864074714  8.0919546266271070
 39.7835246189955498 17.6509056768493586 11.1744398979164306
 36.4212821532856097 31.8547981334856232  7.8041745431285801
 39.7351256990729951 17.6791441373850553  8.0562847921147451
 36.4323055834561771 32.0011155253979922 10.9222539262237284
 42.6311054584950355 16.1551208426387660 11.0965806903961006
 42.5479958394545079 16.2065775312564213  7.9785376837937481
 42.0898276561108844 29.0158346516931296 10.9966253183695404
 42.7678263997122841 12.9514487559211116 11.0269240531281714
 47.6666195455024564 25.9856322509840361  7.8398961001282013
 35.0483630874555843 63.6897014950183333  9.0564119586136851
 45.6176484126626534 11.4615512056451490 10.8861300919656170
 24.9513267536907399 40.8902934927475670  7.4257883670676943
 45.4934095071642091 11.5575699185604837  7.7686589990976032
 25.0464768174111185 41.0382146332951123 10.5435837722350030
 48.4661611479557024  9.9760325967710894 10.7077170858286266
 48.3087822934105731 10.0848864015676494  7.5908898480140055
 58.9222146768524482 20.1559086266678555  7.4374452930978636
 51.3120569847326209  8.4947950580969831 10.4941431300949048
 51.1225268377546485  8.6140605235703678  7.3782815919920237
 59.0189393111350853 20.0139755583732182 10.5561072295694487
 54.1542784306008684  7.0183423231307929 10.2484691849396476
 53.9351123507221502  7.1454451221271542  7.1334423646217804
 34.9521814146441372 63.7294469687471974  5.9298128917055299
 56.1062809160227687 21.6094870817560896  7.5723083054176303
 56.2048807122018061 21.5116972406340956 10.6920286741109756
 56.7500603743619507  5.6807844735426309  6.8627683812668412
 59.8117613154221175  4.0911365403947171  9.6972112106072359
 59.5707500102964289  4.2175271677300659  6.5814961849839024
 53.2918408531210943 23.0658918430722260  7.6871837227276449
 62.6209678874657669  2.6430969823845558  9.4308199498011600
 53.3874171313307855 23.0118480638974461 10.8073022996791366
 62.4013212177395218  2.7538958530225806  6.3122134612821261
 65.4182941323777811  1.2056987999548447  9.2068708068856004
 65.2472837896586952  1.2867241633747331  6.0842061972190100
 50.4787300548440356 24.5245863381030276  7.7776141958135945
 50.5665674696093248 24.5132693361693370 10.8976254925025877
 56.9891608906486695  5.5503583090349897  9.9775889126398383
 20.1191286850054851 24.8094212847232960  7.7393397133418915
 49.9468794401944933 37.3767317068314853 10.6897302953076441
 15.9220053275001288 61.2436108101730312 10.4312381447884288
 -22.3117500907159290 50.0136509848334327  6.9464493211933336
 -22.5126582933834314 50.1870131676773426 10.0613037398544396
 -25.1367458224973070 51.4620670364188726  6.6774452876753969
 -25.3211526442215131 51.6565937193709743  9.7930509108775912
 43.8543496716818453 52.9113536827172766  6.4245507690983006
 43.7079069942925713 53.1161304359386293  9.5422461764893924
 -19.6946561403854403 48.7082659528431634 10.3245555886070886
 14.4251999085818614 27.7447331010928693  7.7244979379949807
 11.5830421348212926 29.2131875136178216  7.7815649453713345
 11.6167924980821322 29.1255240661366344 10.9011091258254549
  8.7503377959223538 30.6830567292843988  7.8663343763269227
  8.7963056506189705 30.5821159325529948 10.9846828718744547
  5.9288393133487931 32.1547848599852202  7.9562380752747597
  5.9675592603466425 32.0524110835665397 11.0738817680661050
 14.4307709324662454 27.6788784613526282 10.8453139917827279
 -19.4941593089442584 48.5624575433491970  7.2099019624786402
 -16.8690723576506230 47.2215385580513853 10.5670024251059100
 -16.6814184984330858 47.1058032810598775  7.4520414856952115
  5.8501694550021393 35.2612572724354720 11.1634916076397666
  2.9917014166705331 36.8039260853964265  8.1056171002407691
  3.0108905682663623 36.7492455224834487 11.2229928364550329
  0.1812972038604497 38.2801880877170078  8.1305796160998991
  0.1693645756000621 38.2435198553810167 11.2482685198570724
 -2.6289239881985642 39.7556834342891818  8.1175250399674770
 -2.6731940611544145 39.7403046808415965 11.2352942777106772
 -5.4394459437793810 41.2305431972714445  8.0646730861931388
 -5.5165648281612123 41.2378895728180410 11.1821825373611254
 -8.2501512528079157 42.7045472838639029  7.9706996898863833
 -8.3594240188330566 42.7364789611511000 11.0876768386816753
 -11.0607026094086578 44.1764993740041092  7.8361515634067009
 -11.2000578357896412 44.2346428245202787 10.9526484134004001
 -13.8711277279475045 45.6437531278092337  7.6624138847436631
 -14.0372148187614449 45.7299974989977045 10.7783738380351686
  3.1150748041188367 33.6287970513465098  8.0296254515819143
  3.1329750667643235 33.5361707068000996 11.1469365406166716
  0.3047687306377013 35.1037191360538543  8.0736893461265709
  0.2952637476383895 35.0279858261979200 11.1914636740305333
 14.5351637081236778 24.4902844615442525 10.7599720155683318
 11.7235202973931081 26.0435101067155017  7.6722881819575628
 11.7233486331416739 25.9333540049083204 10.7918648246367201
  8.8849776492229360 27.5123749221467513  7.7426821488402791
  8.9076363111322223 27.3837434579619696 10.8606355412250899
  6.0572680245046238 28.9823550133726613  7.8315018756350607
  6.0845603129993329 28.8466612546781853 10.9488893188230705
  3.2405807937752935 30.4538235543570117  7.9152231549744085
  3.2547948791229420 30.3241049428977831 11.0323320920827008
  0.4292357118083368 31.9277060045559899  7.9767020854218966
  0.4207410357199388 31.8128722624515810 11.0938615033938461
 -2.3801825759644206 33.4021786729737684  8.0075485805261355
 -2.4144551284835374 33.3069345852157923 11.1250512122462499
 -5.1900149611132331 34.8771986236321609  8.0043767811586122
 -5.2492483326143580 34.8049051038447175 11.1224725248344729
 14.5691353364572524 24.5753384796110304  7.6392950279584797
  5.8035919186903433 35.3285843919555376  8.0459089600813520
 46.6642848862858628 48.4787720306969305 10.0093021157964550
 -22.3545889435035043 46.9982666977554047 10.2494593074913514
 -2.5044898853373065 36.5791523079957202  8.0830909792272543
 -2.5437577843322638 36.5238677971316577 11.2009278988471070
 -5.3143925848498839 38.0544846997799411  8.0551420564517571
 -5.3832795167166019 38.0220341201619121 11.1730807825112421
 -8.1244087179286844 39.5281911991364865  7.9884066748664653
 -8.2220306865829951 39.5217091991438139 11.1063495794846006
 -10.9351990691184913 40.9990268507074660  7.8831966005552170
 -11.0580103293655334 41.0216757349238677 11.0009213272303654
 -13.7461560895834278 42.4660124801916083  7.7419396259116287
 -13.8900224491286313 42.5199725612842983 10.8588258289052106
 -16.5580959166298491 43.9274559796164255  7.5664629057982085
 -16.7179137442791657 44.0162738535707021 10.6831443986094659
 -19.3711282089317756 45.3835948321665086  7.3610995931498531
 -19.5394094020700031 45.5101678860167596 10.4775901450289517
 -22.1872434285868785 46.8335471383136834  7.1329967327021961
 46.8182700918617059 48.2790760944397945  6.8931719286449455
  8.6838317896453905 33.7839107132740821 11.0785254331662646
  8.6196732711960085 33.8548796559594436  7.9600348822596985
 11.5090319957857457 32.3210116365657925 10.9858971162009471
 -19.7547260750932629 54.9285379541749990  6.8853021663540028
 -20.0065132402294168 55.0606014000146686  9.9983600717712395
 -22.5773324433431490 56.3890563343600419  6.5939883004960667
 -22.8270170786869500 56.5184098854213275  9.7086585185733068
 -25.4114668268987529 57.8511342528353438  6.3170653146644780
 -25.6348815037525455 57.9674308794926532  9.4356226422137652
 -28.2612067295355338 59.3152768733092373  6.0848543575684362
 -28.4299319255535714 59.4060298849576540  9.2075112526113561
 -31.1271900009629903 60.7838890341592588  5.9290606585688463
 -31.2157667686915978 60.8369341335385556  9.0557202509633221
 37.8259339311091196 62.2560168510524292  5.8748774724366628
 37.8307152251179772 62.2634644625351044  9.0028440563632071
 16.9874004326544430 32.6157365332324716  7.7694597520939466
 17.0344773751282581 32.6146929720874397 10.8911796083117647
 14.1452274294596538 34.0845346423665916  7.8338327485864738
 -17.1734181460470978 53.5943217568893928 10.2799787429366454
 14.2205770995760403 34.0619307603468471 10.9536069214540692
 -16.9398029889882160 53.4659464944105594  7.1665764435889008
 -14.1288458353484856 51.9980314425050096  7.4214909464639502
  8.4535603012362479 40.1947421562406717 11.1672614032383386
  5.5569379799409813 41.6773660611423793  8.1148773409027442
  5.6106280856199664 41.6818323722976558 11.2320628509322340
  2.7465814048828965 43.1540799480584596  8.1415045563877371
  2.7634995607807333 43.1742801954477997 11.2586009048431048
 -0.0654780126839777 44.6307632243574730  8.1260801075518359
 -0.0857897949185775 44.6686018352318044 11.2432809468168582
 -2.8787178251112429 46.1060105822419430  8.0676892905136679
 -2.9363228458478918 46.1632655516446633 11.1849689814771462
 -5.6919238833762975 47.5797898020004340  7.9664001882107218
 -5.7861714197743703 47.6570712630962205 11.0835403029598343
 -8.5052406093590953 49.0537871802269549  7.8240499849509675
 -8.6355125071327361 49.1486842423713455 10.9402606919352259
 -11.3177684561473253 50.5265443778319252  7.6420168967192348
 -11.4843506048318247 50.6358662210533055 10.7570399512338657
 -14.3314082066377733 52.1186807782050110 10.5355789531218154
 -8.0001567338299715 36.3494444100942218  7.9664004164845412
 11.3129637275125035 35.5554145136575812  7.9255710646396436
  8.4927273367766993 37.0281434868642592  8.0217238144673502
 -19.6213279519803869 51.7427488055594154  7.0449372948576121
 -19.8502364279781389 51.8921482224137804 10.1581829631205789
 -22.4411889942123253 53.1974799749615670  6.7592231615072143
 -22.6701444417505229 53.3599446739330574  9.8737051932124853
 -25.2700778981562912 54.6522390076604552  6.4773280331945005
 -25.4782416506261740 54.8192860478615174  9.5941958712603785
 -28.1132837200215420 56.1080117042342081  6.2250004515282802
 -28.2752579613287622 56.2673576078910855  9.3452100905108626
 40.8549823848632911 57.5683687047591022  6.0333529690785337
 40.7643996903271955 57.7053593624150309  9.1571852216315950
 17.1294373238222910 29.4461438999454650  7.7488851733134245
 17.1385309387966274 29.4252477596564646 10.8704242679161549
 14.2837407594241323 30.9140359457163321  7.7900220260851185
 14.3260456822900260 30.8695219818765416 10.9103236681859315
 11.4459385517424526 32.3836594589015760  7.8667361100203150
 -17.0205402124740068 50.4156215591020427 10.4274298613385294
 11.3998836425157144 35.5187721841013158 11.0440996243608271
 -16.8081811462405604 50.2836698495823597  7.3135538161887492
 -13.9980292280683152 48.8198426133729129  7.5520825571032351
  8.5701003241050753 36.9886202409079416 11.1398494203633227
  5.6800212816599815 38.5029752273347370  8.0989789498985516
  5.7315097135895554 38.4717574910472280 11.2164667522579133
  2.8693378655457504 39.9791294893696119  8.1428439015672467
  2.8879486834199892 39.9625004978778762 11.2600106753513654
  0.0581504275807176 41.4560335405968203  8.1475678855087299
  0.0424047026755437 41.4576036931675276 11.2647721722121421
 -2.7534381008295323 42.9315279471381004  8.1115560714248538
 -2.8037058593800990 42.9542478982608671 11.2289667662652075
 -5.5651228603878922 44.4053541520213102  8.0338338958690194
 -5.6505280760001275 44.4505682501093702 11.1509960533933405
 -8.3766301267363428 45.8793518169157295  7.9143670546896896
 -8.4960869453281784 45.9471167375406679 11.0306827033215011
 -11.1882157595617162 47.3510688067989420  7.7534873048460247
 -11.3411423113813683 47.4410255711134781 10.8689397530619782
 -14.1832653669966486 48.9316493835074553 10.6669029090272929
 -8.0822568189661368 36.3045191624326549 11.0850327446664956
 -10.8111443171916246 37.8183940398229481  7.8940135853129600
 -10.9130873081172215 37.8052814860204052 11.0125218490967658
 55.8897198704329767 27.9409431510300799 10.8308231545814468
  6.7819696905420290 13.1333007177115544  6.8168022703357973
  6.6724506121688876 12.9103466771311997  9.9336072249730805
  3.9305705373047433 14.6014102874057770  6.8552362515432117
  3.8743681083989503 14.3494573957337597  9.9712670732421120
  1.0870885287479430 16.0643035975635335  6.9469994044050658
  1.0749189578360774 15.7986435585202418 10.0620572449881749
 -1.7457128755245965 17.5235421878990110  7.0715339670347346
 -1.7285262959591319 17.2632100112098605 10.1860981690130217
 -4.5704035785249673 18.9800487351961564  7.2063463683038558
 -4.5359560275108022 18.7436233604373825 10.3215504310813344
 -7.3906719557948310 20.4354161263500700  7.3373972300936252
 -7.3454378897892800 20.2335066479492625 10.4542391486424595
 -10.2088664510815974 21.8893040670163899  7.4579990309516333
 -10.1559624262715289 21.7278862075535919 10.5765560221457608
 55.8683176800871450 27.9894892791379419  7.7089764749766898
 58.8022612400727951 23.3438528584757954  7.5643644706043141
 -13.1242733500291546 26.4398740111636741 10.7868590267840752
 -10.3116107859285329 24.9402916377906614 10.7232989523505502
 -16.0772128737267295 31.1802839746657057  7.7369298172909717
 -16.0955225074952928 31.1582774088563674 10.8588570966679470
  6.6250666517791652 16.3045988592868660  7.0489719403290305
  6.5506784368369315 16.0810160737589953 10.1656768146447796
  3.7803953835529001 17.7720621217412180  7.1129816013604401
  3.7463525128525426 17.5269393662315913 10.2285841068264620
  0.9466715253333006 19.2360028143606314  7.2119730480883586
  0.9390201692155358 18.9856783616672971 10.3271671418289994
 -1.8773447746114222 20.6972336302462523  7.3232642215278929
 -1.8721539249061956 20.4611307404898852 10.4380947173039385
 -4.6959495988296540 22.1573418396764623  7.4298364283078140
 -4.6849705544836064 21.9484979900386001 10.5456630656621932
 -7.5130499832986697 23.6171577521042977  7.5243684593531066
 -7.4986004302193958 23.4424785707804944 10.6422728216271700
 -10.3288551578347398 25.0759268885646094  7.6036822161313973
 -13.1444326033043595 26.5334608715153060  7.6657117952545653
 -13.2805316551533341 29.6559579254950982 10.8618713255873196
 58.8606062039152462 23.2256788321589625 10.6842143052581413
  4.0064301100005615 11.1835113678764042  9.7169145551493976
 -7.0321357952813646 13.8339656288174151 10.0027686081732892
  1.5479911307068406  6.5153828055508409  6.1759976661336111
  1.4961364750291850  6.3160816047023776  9.2982222439048261
 -1.3157035159057862  7.9819027941432008  6.2664074885217307
 -1.2897544237589047  7.7506035557689659  9.3863785066762428
 -4.1697186064625091  9.4400042579886101  6.4300698848333413
 -4.0794867328522271  9.1955327308959358  9.5470718321004480
 64.8177908902561200 10.8918610978267107  6.6423197398069904
 64.9526032706521050 10.6539412717584714  9.7573496607488970
  1.7099628803534661  3.3086925678904811  6.0051951983841665
  1.6421719776961405  3.1805834077928985  9.1303730498950966
 -1.1616052475663454  4.7799470379702216  6.0552978156748285
 -1.1404035203856500  4.6087789939966504  9.1788177184662594
 67.8027477959830662  6.2434448245686403  6.1980265497979738
 67.9015271632506483  6.0436248554322018  9.3180412470923315
 -7.1406168821236005 14.0756058329418945  6.8876961835108315
  4.0875162457011989 11.4251970001994536  6.5992135471216145
 -4.2324150036278461 12.3632658807808742  9.8069739382772916
 -1.4380633497659268 10.9064664422344393  9.6404343962366550
  1.2346212264167027 12.8894844159359057  6.6728192707545118
  1.2127644977592216 12.6242137176751097  9.7890005864274183
 -1.6089287932632965 14.3490872827263853  6.7995559709493687
 -1.5840215567202607 14.0776426397125025  9.9146433049211744
 -4.4416664288165322 15.8041207462321456  6.9569359235501764
 -4.3845060288993016 15.5469533417780816 10.0718979061586609
 -7.2671260568887588 17.2551503865199187  7.1238346596501998
 -7.1895379257548324 17.0291033007067654 10.2393754799435683
 61.7397958409405163 18.7048381433187707  7.2865216135665349
 61.8297568533820439 18.5190354408999944 10.4033751685431479
  4.2497888451483625  8.2394230334287801  6.3648887129191030
  4.1420119609908257  8.0293531409125425  9.4843026949903653
  1.3886888761714014  9.7079213366150654  6.4081013631524364
  1.3530338691105888  9.4630092566863286  9.5266329824423241
 -1.4654653847292902 11.1699861869723094  6.5237696757387384
 -4.3083734253358141 12.6253256244359502  6.6915028748438594
  8.3681178284898898 40.2020940840886070  8.0498462940427853
 -13.2631661403955423 29.7229626383042316  7.7404785061060961
 -10.4488755054249793 28.2629774466729096  7.7222505107112980
  0.5467709953717557 28.5992460141037697 10.9562665126365442
 -2.2563173759890351 30.2251506029042183  7.8913787188463465
 -2.2839615699891249 30.0906091502469373 11.0083749857559177
 -5.0663219979785215 31.6978799206589663  7.9138488890806595
 -5.1129081220251278 31.5875804309055681 11.0317735990901209
 -7.8774800833761489 33.1676653916889919  7.9064537377347133
 -7.9400692376524633 33.0866892881247878 11.0251876394686903
 -10.6891955606486100 34.6348833614236682  7.8696554013381546
 -10.7655527638928898 34.5877152312907796 10.9887341094479822
 -13.5016863083185985 36.0991471667199164  7.8027977623385381
 -13.5891820992680081 36.0905214073543306 10.9227103247271664
 -16.3152631703534432 37.5600887169802675  7.7081032973883543
 -16.4093970749463054 37.5923340858204327 10.8283808147958887
 -19.1293470716500202 39.0158667344422554  7.5887493749627222
 -19.2257876924860476 39.0912961284983638 10.7089653046625433
  0.5551584529042654 28.7522393231953508  7.8399050531791987
 49.8819429055787182 40.4687661651503134  7.4486849752448245
  3.3762582003051085 27.1150975613373504 10.8802072683550222
  6.2010394810298441 25.6452840270502911 10.7909597324150557
 -13.6229009979938063 39.2840468177306477  7.7882805155553774
 -13.7407787158314356 39.3060727951044697 10.9067254965021352
 -16.4360188381719432 40.7457443516773026  7.6516126120139001
 -16.5645724591888772 40.8058297424538594 10.7703579758938481
 -19.2497490742184461 42.2016479696698852  7.4882736977785882
 -19.3830862271130009 42.3028058775004041 10.6065402160555244
 -22.0655984861055536 43.6529330769969377  7.3028435756767349
 -22.1963853652622589 43.7969900093994511 10.4206283468638539
 46.9421351957933624 45.0996196025648004  7.1029033763894507
 46.8224757715814022 45.2862431333738087 10.2199710191592636
 11.8678917549401319 22.8742091156903591  7.5429564419697881
 11.8302491995773149 22.7452216101293914 10.6622027210238173
  9.0240358851384421 24.3422512528124741  7.5927604859370295
  9.0181433542970773 24.1899445613010862 10.7105930923190318
  6.1901822740420975 25.8111625680811585  7.6739395729320181
  3.3685999929770554 27.2804597540139326  7.7635211779627493
 -10.4650113328314536 28.1548517247477044 10.8424217765637732
 49.7891084320243777 40.5887424285134699 10.5680226932856502
  9.1286703050846061 21.0015004429854244 10.5394061220925863
 52.7595164817643649 35.8770925153268294 10.7844629709935003
  9.3190042486715203 18.0048411584236483  7.2336164124527063
  9.2400932804862190 17.8191821276609517 10.3515805306188859
  6.4737037633519856 19.4731501746708737  7.2762189618828348
  6.4327883383936140 19.2611275933522847 10.3929527653669016
  3.6372796435654435 20.9401533375729159  7.3571284153727072
  3.6212588222106246 20.7144345292147420 10.4728809556936202
  0.8124441289228503 22.4065083368080771  7.4539680229982732
  0.8051514196903218 22.1834841951688162 10.5693984180919482
 -2.0051063183617552 23.8722542888462321  7.5461463318339232
 -2.0128938710648514 23.6669571821432854 10.6617747322758287
 -4.8204738348614580 25.3366014281466292  7.6239042939032355
 -4.8313586270825493 25.1579899281997399 10.7403922676471826
 -7.6347245301107849 26.8005056599173983  7.6832213787346966
 -7.6487766427528916 26.6547465089881115 10.8014454851446775
 52.8171682553421746 35.8269514598474501  7.6630947188092255
  9.1686655020209020 21.1733912128707189  7.4212010783262556
 -16.2527504444103030 34.3760720725109081 10.8579976719553972
 -13.4355551586442523 32.8734267975002439 10.9075513403424900
  6.3287681562737470 22.6413975889955807  7.4870016013740015
  6.3168538953736544 22.4496667924276672 10.6040049282510633
  3.5005597047974057 24.1091708960866775  7.5762386593706781
  3.4983650477543660 23.9109346898448365 10.6925552615298010
  0.6825846508327712 25.5783603705842388  7.6647253143463052
  0.6745359753151463 25.3887584958954982 10.7804938489112931
 -2.1313116560674845 27.0486519746019844  7.7365033777657155
 -2.1503586456009929 26.8772885929547947 10.8529376390346375
 -4.9436132847099978 28.5172943334320017  7.7861179992277485
 -4.9739243399351425 28.3712479779400972 10.9036729289882537
 -7.7556751646933195 29.9844430478481421  7.8113005931604977
 -7.7955415612368197 29.8698591498678994 10.9298911092408666
 -10.5686513448805908 31.4493888581313783  7.8116063823584323
 -10.6162767346602092 31.3707233885227730 10.9313705546667457
 -13.3821807367792101 32.9119344511098575  7.7866704032460827
 -16.1955743704276216 34.3709914138196595  7.7365309576957175
 11.2885369669030364 38.7184473518171188 11.0744898417517561
 11.1839618607737030 38.7283667091781894  7.9566328473651051
 14.1134817173901670 37.2558593543405436 10.9745157900368895
 20.7637487448262874  5.6874860331758361 10.4806856581398797
 18.1493626931103691  7.2387010879544595  7.2129858103455335
 17.9217154443760158  7.1471240513415211 10.3284818188386200
 15.3209745807573832  8.7135623642590065  7.0594814228954776
 12.4825860284764971 10.1874570938785407  6.9278742455788320
 12.2778970430539118 10.0406516684481470 10.0442554817691132
  9.6347976713381627 11.6608811300595274  6.8417449058154478
  9.4723015224477543 11.4757959548208088  9.9587677178478167
 27.4965057662555097 45.7617709909658359  7.0765104535986056
 27.6321960658114136 45.9602332865678136 10.1926283598094685
 24.6510483651161394 47.2322516784339541  7.1356463732901938
 24.8270504398053369 47.3967116547160359 10.2507023841068587
 21.8131067925007756 48.7052022429702873  7.2419457479068283
 22.0151329367213187 48.8381001286331156 10.3561190295656562
 18.9857652250349496 50.1788980603750971  7.3754255333533605
 20.9711088063758346  5.7630470605770663  7.3643674628895512
 19.1932668170038063 50.2882368722977731 10.4896837804976482
 23.6171277475779426  4.2233399980079458 10.6136512760086283
 26.4757616685599153  2.7566521533143384 10.7210463749566358
 13.2112504364431107 56.3144847318260631  7.5457524550222406
 13.3690726869375140 56.3921781881850706 10.6626572006379625
 10.3927709222743854 57.7967362415882988  7.6411031628201114
 10.5104286745799733 57.8602942001165204 10.7597490815808943
  7.5716320064817424 59.2817597282692148  7.7077957026613459
  7.6473680067004999 59.3290363929120517 10.8283223606633747
  4.7490776138080975 60.7682021855770955  7.7450321876212938
  4.7812986277042580 60.7976265937703175 10.8667594582248164
  1.9251343671900891 62.2561195678496802  7.7527771899345526
  1.9136842736240196 62.2664297956881470 10.8746242843553240
 -0.8989779999184895 63.7440594552326658  7.7313466303730580
 -0.9536486413445743 63.7343776142588894 10.8526123979531519
 29.4346410627626085  1.3172300547531834  7.6809522885291015
 29.3382493502565715  1.2884708359350283 10.8012295138032979
 26.6122318469177266  2.8028468131369437  7.6021288996530156
 23.7911307081812033  4.2850504461501879  7.4962564865402124
 16.2222471130080379 54.9253160434026384 10.5381125643916533
 16.1672286774735454 51.6530953557494641  7.5116756878295163
 13.3533422650033540 53.1291953530087753  7.6289466735834690
 18.3015446671647375  4.0509136007224429  7.1391888501095835
 18.0612369478414223  3.9859402495824146 10.2550542504521633
 15.4772051166615512  5.5281819763819033  6.9595232407195295
 15.2268346736188196  5.4381846182569058 10.0748942188713180
 12.6433264295939320  7.0046055145717228  6.7926875766689054
 12.4062140823000178  6.8820067613923035  9.9085371593206784
  9.7983760431322509  8.4801964371103651  6.6636458769250302
  9.5976476477232282  8.3184234962825290  9.7806675960236458
  6.9442377151380166  9.9549076236444716  6.5950813290470194
  6.7994237481637612  9.7502778125709142  9.7128899908378479
 24.8020583426906143 44.0603625805616375  7.2843410644476894
 24.9383160033466140 44.2198060906129271 10.4006013467364227
 21.9601759513530510 45.5318260717439287  7.3591378070405975
 22.1291267816885728 45.6595590676565593 10.4747623956949170
 19.1269411563037544 47.0040587022759340  7.4706041998087773
 20.9100727764130845  2.5275286609334233 10.4260845318086695
 16.3592999645727559 51.7497820328328473 10.6267497084859954
 21.1213661732834126  2.5723722285448529  7.3095608457347678
 23.9419028391437934  1.0902277579791073  7.4580504374819014
 13.5136400202108327 53.2205427647142031 10.7451160988844077
 10.5372123363542354 54.6066218052244921  7.7161264978625788
 10.6585344550701269 54.6930037534663427 10.8337859651049300
  7.7186704652791462 56.0888172577577109  7.7711096152674877
  7.7982996879067779 56.1663637850385697 10.8904545938634296
  4.8979352740764046 57.5728731121219894  7.7943805135303235
  4.9342092182028692 57.6379947458178563 10.9147895637872256
  2.0761615746246331 59.0588759036264861  7.7857994168784428
  2.0680384020547642 59.1088796418148590 10.9065492068251331
 -0.7477184092780693 60.5457670805090089  7.7463888315646940
 -0.7987670172531505 60.5780406885243039 10.8671646698337909
 -3.5714203352120846 62.0330456930835723  7.6778855728387194
 -3.6645245820041232 62.0462367345966896 10.7984983851521417
 -6.3939867951665690 63.5191192036491472  7.5814096300500511
 -6.5287223598734236 63.5130992639366383 10.7010002778269939
 23.7674588576048578  1.0647695394039498 10.5759550172074448
 19.3125830462302766 47.1065792112653270 10.5854195554412112
 16.0275565718190620 54.8355283952386472  7.4223820605854014
 18.8429831419471761 53.3584490827140243  7.2762953127246677
 20.4992481383937175 12.0401824188768547 10.6415704485104339
 17.8523713125115187 13.5931339539189349  7.4042360356468695
 17.6730959533793417 13.4975829064839044 10.5206663212059723
 15.0137599390046592 15.0639722789979569  7.3032156931654564
 14.8560078021482536 14.9436986052332905 10.4203459212963914
 12.1675138795313611 16.5346227993571446  7.2424383373743941
 12.0462991983489296 16.3819028528809838 10.3604166221532434
 30.0316583652924258 50.6433887437880728  6.6392901869447858
 30.1891296990662887 50.8590098846588603  9.7550975587934570
 27.1826687056901832 52.1158781544382776  6.7154292263052797
 27.3900356618234362 52.2927036308017179  9.8307476638734546
 24.3437619692436584 53.5905634797315429  6.8482628936811851
 24.5811848152941685 53.7297095248114971  9.9626501003561732
 21.5161702027559514 55.0675369355853377  7.0145364206609306
 21.7595899774854011 55.1747479278053206 10.1286596857878131
 20.6810289975709871 12.1222720848973875  7.5251074607172503
 18.6973293196614350 56.5464524752224520  7.1888109560352218
 23.3366675124077325 10.5722283284847300 10.7592865559646409
 26.1852481020465611  9.0973581408941779 10.8531831263852876
 12.9135796890219829 62.7073131240910016  7.4691228601864577
 13.0633071725245227 62.7073751562834047 10.5881381912545134
 43.2497814432893719  0.2782282681334605  7.5981404523652696
 43.3589469536446401  0.2597866486470823 10.7183359902347011
 40.4274488952703308  1.7643845640827855  7.6991063652558207
 40.4953095866015005  1.7288827393865565 10.8198570840993860
 37.6035099251839355  3.2497802409281240  7.7708598114239811
 37.6301067351357617  3.1988722673585466 10.8917263280798622
 34.7804870521708835  4.7352896057283571  7.8120465418348966
 34.7654501889459908  4.6710876707315583 10.9327590047945016
 31.9585114031083073  6.2191438240535302  7.8205697594540293
 31.9018199194683802  6.1452594260800240 10.9407785146642542
 29.1381276921268295  7.7005397205683357  7.7952454514787810
 29.0412835818841337  7.6211564342416400 10.9141793134952891
 26.3192878970308008  9.1779866145803108  7.7353940424209675
 23.5015825758695662 10.6513889343327364  7.6422766589527509
 19.0640288742784989 53.4636597476707607 10.3907809981255372
 18.9237469652607011 56.6281083805915202 10.3039270348366667
 16.0747284015944985 58.0887848915939031 10.4663112669525749
 20.6263484742923886  8.8586758337031295 10.5590013894016383
 17.9996969109550591 10.4186411336762159  7.3068046531224775
 17.7926744747303509 10.3187801965265660 10.4223701378967561
 15.1663001981755965 11.8910661100964052  7.1788027315545815
 14.9706209377365074 11.7681526955967080 10.2948699952196261
 12.3233843015182174 13.3630483963232329  7.0823441901473707
 12.1587133802293810 13.2078410770457992 10.1998444819530718
  9.4746622618943981 14.8348795468224903  7.0368811872560677
  9.3538668588168754 14.6433620033166996 10.1545745566245778
 27.3407327348829732 48.9351408308096083  6.8909003211219444
 27.5151537048246944 49.1312424511563179 10.0065479025336277
 24.4978733723083657 50.4077098335200375  6.9865623426998624
 24.7091551063149879 50.5676984545716053 10.1008352876261842
 21.6650090076770709 51.8825539959922111  7.1231263003958061
 21.8926579337341956 52.0110101317312115 10.2367644123456358
 20.8238241041695318  8.9457224812316127  7.4425834093664180
 15.8816525268620481 58.0267080656151393  7.3497800567871359
 23.4723998098360624  7.3916084609788388 10.6816253194716531
 26.3271730954871472  5.9210237074934566 10.7774980928235742
 13.0642071299385023 59.5086595709430739  7.4869977838521393
 13.2183416253664774 59.5527826026493301 10.6051812513616515
 10.2434508622646909 60.9931096191097168  7.5981402366038067
 10.3572580200637265 61.0184665679923128 10.7179081814250239
  7.4209566181286686 62.4793646013237947  7.6817479878448545
  7.4926512762181661 62.4857839726449953 10.8028624404281111
 37.7550535411671504  0.0528235191077141  7.7366791417882377
 37.7840841976503441  0.0403836005636136 10.8585409694607549
 34.9304592613990152  1.5403486064397316  7.7626141721316531
 34.9167025581872394  1.5092143298480747 10.8845233701731363
 32.1067896646033333  3.0273953936442752  7.7588578825888295
 32.0505528021129749  2.9794157620313073 10.8798144114683684
 29.2846473611889948  4.5122521219920451  7.7243574245366080
 29.1870512295898372  4.4499166915574735 10.8438294899422019
 26.4631084866257282  5.9944997890740295  7.6593732352353481
 23.6434274973328975  7.4723292072406355  7.5644490897658248
 15.7325714095746569 61.2243552239959143  7.3137219609095965
 16.3035870071300550 48.4772727740146010  7.5970436545059288
 13.4879089490872026 49.9508999275047785  7.7140629271494978
 -17.2218755070018830 59.8494121590023127  6.9342111612298156
 -17.4853194830790599 59.9088049141120820 10.0487821789711838
 -20.0422803296699890 61.3230705710618835  6.6704682365525905
 -20.3187993595128127 61.3610871313374915  9.7854680666991314
 -22.8729955959899307 62.7970345773080609  6.4171856339258628
 -23.1364017069452288 62.8043604535594113  9.5342217720490066
  7.4398779602300298  0.3570492772183472  6.2030124740164458
  7.2176782240126096  0.3249465827255764  9.3231856427887738
  4.5799892479318247  1.8328845545685033  6.0573948305228100
  4.4264980768581195  1.7537648279738887  9.1810272198401801
 19.5497358543719457 37.4876239377133942  7.6827368331004768
 19.6373880477475424 37.5484190196262020 10.8027547156175903
 16.7092513456993679 38.9580849103691520  7.7550690172619143
 16.8241863303123900 38.9949097946224441 10.8741343516665534
 13.8778356722173104 40.4295153776761751  7.8547703782268261
 -14.6373526558021023 58.4482800421809401 10.2990257778413472
 14.0036793653174332 40.4508146925956424 10.9728429935712040
 -14.4059367522527584 58.3742035276957409  7.1840045649957549
 -11.5907916602672962 56.8963294549564225  7.4077574837347306
 11.0547777921102917 45.1211701939802552 11.0502358390940252
  8.1207472120109703 46.5507895924302559  8.0069803006156945
  8.2099651334038164 46.6052093691457330 11.1235280823496332
  5.3081300182741966 48.0262140938171456  8.0418111364987226
  5.3589101873366030 48.0934161697083695 11.1587718904573627
  2.4944319992115407 49.5029107578452354  8.0345120228490678
  2.5041561733338935 49.5825755386409384 11.1522805530285378
 -0.3211362640935506 50.9796725769344405  7.9844651169606484
 -0.3537876119032050 51.0691308186783672 11.1025125710686652
 -3.1381900160368192 52.4577213791480688  7.8933337996324457
 -3.2128246546729229 52.5522010318999762 11.0111153306158158
 -5.9562761179354897 53.9377111284237429  7.7648449421818828
 -6.0710159864503570 54.0325078488983124 10.8821416075250408
 -8.7743046258028663 55.4172630311704779  7.6022141467845481
 -8.9286518869822018 55.5085470505953538 10.7189549671246418
 -11.7841094450804285 56.9809262319188363 10.5236859783217049
 10.9323294940144820 45.0767569009155409  7.9332894432787553
 11.0578886357395803 41.9027976854196780  7.9593262873593664
  8.2446653625364732 43.3763977915524350  8.0445130589077820
 -19.8950209996516350 58.1222847717759734  6.7533123620019353
 -20.1632727572205397 58.2158349532698409  9.8674477173114070
 -22.7209969939752838 59.5899836075895877  6.4733063211036752
 -22.9829022693874627 59.6651001365084070  9.5889959176416291
 -25.5608248298415432 61.0588364472349880  6.2202253612430471
 -25.7892125239009893 61.1052723334987107  9.3400264106691040
 -28.4167492751495061 62.5305047095667632  6.0255325234640598
 -28.5825695198789909 62.5374869026796603  9.1496457040858576
  1.8715920929838654  0.0909477430992538  5.9188482139957985
  1.7909303470707711  0.0512199739957974  9.0460228570020718
 19.6918598629760417 34.3174297588575286  7.7236808925868159
 19.7413571513019015 34.3604273206947255 10.8451371474864029
 16.8470389774581975 35.7863348165018422  7.7714855288960845
 16.9296612950332204 35.8045747908783980 10.8921067870867159
 14.0102007371456416 37.2566360760932440  7.8555988992742307
 -17.3288426346832232 56.7576328247871587 10.1467952675995949
 11.1738758238796621 41.9197880508328637 11.0765770436623789
 -17.0777039439466485 56.6544090278911483  7.0328856643448781
 -14.2646850786766670 55.1825277600657245  7.2912866149266229
  8.3336407807881692 43.4008387569296303 11.1612037786342579
  5.4337152178313506 44.8520312324096011  8.0947637136664152
  5.4870454894668228 44.8901191029487308 11.2115552940969714
  2.6219799739761758 46.3282760497444244  8.1038022297323486
  2.6361278053339476 46.3819768307336915 11.2210504872966403
 -0.1911991785153433 47.8044187101148523  8.0693058352931413
 -0.2171955402937797 47.8739595334778230 11.1867638389645219
 -3.0062476429547060 49.2797786547160257  7.9909565482044957
 -3.0719343869031102 49.3640446543817504 11.1084924310490507
 -5.8216098366937752 50.7560130848243816  7.8709452893063823
 -5.9261894421680648 50.8521856301278703 10.9880762734303961
 -8.6371069771847537 52.2320030057152209  7.7127890456227011
 -8.7794294530799188 52.3360405716228954 10.8291390608030245
 -11.4515363676669768 53.7076678539832884  7.5189542274113439
 -11.6320813298805366 53.8152588252575086 10.6341881273929761
 -14.4827856399133026 55.2898852460255199 10.4054588075093744
 16.4859407215215228 48.5647614700299215 10.7118324887627967
 13.8908043337135663 43.6464324523773826 10.9481107847717976
 16.7158818340487052 42.1852539174161336 10.8377765540247388
 18.4539855154107926  0.8558506750777209  7.1037457423342492
 18.2095140504871509  0.8333466242657106 10.2197859196980456
 15.6329353068589931  2.3343902005022841  6.8972715583203561
 15.3687181142818297  2.2865669057449303 10.0124115825782170
 12.8035013209628712  3.8127580711582207  6.6947945929567636
 12.5429568195833578  3.7323978344955302  9.8102254560821631
  9.9629271434442650  5.2901986345612579  6.5217975131159847
  9.7312594535843910  5.1703010775142433  9.6391440329668345
  7.1104904344396420  6.7661922098589704  6.4046698168772345
  6.9324363372135887  6.6007364829796575  9.5237091015851973
 22.1062652133392525 42.3598376645727797  7.4687354036900544
 22.2377990930447638 42.4776123821020164 10.5863027944217087
 19.2674337173511567 43.8314104638276589  7.5550458455058083
 19.4246157259742276 43.9220055632046780 10.6713689806159007
 16.4381625710167256 45.3035382085510605  7.6676122820920547
 -12.0947892694604260 63.2880835212858130 10.4119274402085775
 16.6039685424826828 45.3756470675751444 10.7834573076398943
 -11.8848488730521247 63.2894177938650273  7.2950767216809025
 -9.0645429124985792 61.8061276476770303  7.4630161172289213
 13.6475246896530873 50.0349555684175229 10.8297965500318210
 10.6747945604725842 51.4257335766175245  7.8027772888447595
 10.7990159484368462 51.5129515818006709 10.9199935141655580
  7.8596571016554124 52.9035043757181995  7.8560590406904716
  7.9434406509781157 52.9923522535073985 10.9745495492162153
  5.0420072388265469 54.3837273712399849  7.8733453632760249
  5.0828133773053015 54.4697325495099989 10.9923297084265918
  2.2218847874495955 55.8659592414346733  7.8549660155822769
  2.2187340929532824 55.9448561602220877 10.9742048404187020
 -0.5993865748171709 57.3505431786370821  7.8022526138348107
 -0.6455707436569716 57.4184947900368812 10.9220365802818886
 -3.4219920689834278 58.8360175035915915  7.7183292419920253
 -3.5101387405435589 58.8896137951380609 10.8382924656384318
 -6.2435578765342754 60.3210784955298820  7.6049236450698121
 -6.3737212182638805 60.3581959327341764 10.7243039996952270
 -9.2357907006941513 61.8247100589365957 10.5811655088443004
 13.7479534128678527 43.6029985531678577  7.8308706271951367
 13.6188481646933273 46.7765565381586228  7.7836194034754307
 10.8054734028233010 48.2504249847447824  7.8795146363376833
 -17.3710508208500585 63.0487479730174201  6.8869973460757983
 -17.6394703490336120 63.0540097616664568 10.0019925790799924
 12.9615880149409275  0.6131835787369230  6.6507402928208892
 12.6875630054695101  0.5891264951780099  9.7658989982258930
 10.1260342107524259  2.0903831290018822  6.4348470064722809
  9.8727130742944418  2.0288853461468848  9.5525259985835334
  7.2768463695727039  3.5662181723759381  6.2675877224456622
  7.0719949582007944  3.4600389742125834  9.3879095603975635
  4.4151560987676044  5.0419105420567245  6.1759612133049959
  4.2818085301995952  4.8873913454221629  9.2978670428701911
 22.2515248234280847 39.1891209565824425  7.5676709526740353
 22.3431938483067967 39.2934862838145591 10.6865758064553198
 19.4084501603188535 40.6594861483773187  7.6261183626878006
 19.5325208979670499 40.7358502399415627 10.7442547662526753
 16.5727828740211152 42.1304579528417165  7.7204252373611322
 -14.7938172478663112 61.5984071441497676 10.2339795929208286
 13.7727365850789791 46.8419335433722495 10.8999039565395854
 -14.5527824576777487 61.5711083520589426  7.1182784032760491
 -11.7353777771056205 60.0914361879264618  7.3287316740540911
 10.9303541583274981 48.3202462589451116 10.9963764555212169
  7.9929328481758510 49.7256086609402317  7.9408991839145697
  8.0803107561991556 49.8042676557499391 11.0582911010715339
  5.1787307393478965 51.2023244366757382  7.9629237931202921
  5.2250548618746429 51.2883722567199385 11.0809185898493912
  2.3617897505494705 52.6807354745683440  7.9449674483816688
  2.3650455611101631 52.7705845669448834 11.0632899126262014
 -0.4571520167443599 54.1609123516468003  7.8880116398081821
 -0.4971093514712744 54.2499810631771453 11.0066954504895840
 -3.2766650766232557 55.6435024530950741  7.7953455312108018
 -3.3586241728901589 55.7266878599166304 10.9139927909710348
 -6.0973299350183146 57.1262975551863690  7.6700155794934748
 -6.2207627676228965 57.1994992341787878 10.7882476420609823
 -8.9168816358643568 58.6094552048742301  7.5136463880031235
 -9.0811038655481013 58.6700471324452266 10.6312741715110608
 -11.9391146719099410 60.1368153107926346 10.4454194435576309
 15.0935352200965749  8.5986277797999815 10.1749587632784610
 70.8373838193952707  1.4770775777264067  9.0450445252994580
 38.7181361048338815 43.0897060421362355  7.0707325923782340
 38.4398621868791324 49.4410527278981107  6.5428578481463635
 41.2211953720607696 48.2401653432792372  9.8211297874402916
 41.2833288024065794 47.9909429142383317  6.7043887512884277
 44.0189023258316325 46.7680941621472570 10.0149813838800377
 44.1165038699497174 46.5442317224150912  6.8979565445420272
 35.4957667141463489 54.2947897797224286  9.3269153102766644
 35.4308267950893736 54.0871078510988568  6.2060447979733242
 38.2815728532743407 52.8581189295544718  9.4097019824262844
 38.2926629943821979 52.6265195122197369  6.2895253226888430
 41.0701680787659242 51.4101799416291882  9.5656163312058187
 41.1461206640192927 51.1726340447073724  6.4475322927718492
 43.8635648829579949 49.9497708203922670  9.7739374666354095
 43.9880000849330486 49.7242062608262216  6.6569718570422660
 35.3488188290058574 57.4331050282349267  9.1540765203980161
 38.1320668970580954 56.0024860794485946  9.1996451326809865
 38.1402421782367043 55.8237360889030896  6.0760087281227424
 40.9175449503703348 54.5643947698886436  9.3356355144508623
 41.0036301023951921 54.3640384590495742  6.2146142082467950
 37.9815226926523692 59.1353971747029163  9.0572476330221185
 37.9842721788962052 59.0347691084158157  5.9304749375526375
 38.7148576932236139 43.3359904110816103 10.1871133937287279
 38.4284038877374456 49.6987107925972609  9.6601196926852424
 35.5869605240333584 50.8962398759058203  6.4360366640068323
 35.2713185658852666 57.2915819702621434  6.0295951666835714
 32.7280439405456960 52.3595995074588743  6.4020258105641030
 35.6387828313725947 51.1437044589787249  9.5544972347019073
 41.5446846155497695 41.6381993618052846  7.2012940295917023
 44.3267727573761050 40.3688419191436125 10.4512925998005510
 44.3662192253079084 40.1871783925136157  7.3330559454339266
 47.1358417571132620 38.8742624586189010 10.5773281822109215
 47.1847159433969949 38.7344293450542736  7.4574691133622260
 70.8240054223076214  1.5648456446538026  5.9181965309291149
 50.0016450929263385 37.2813194679312545  7.5687252036577615
 32.9836827801998638 49.4231970455146055  9.7485348044250344
 32.8856687132774823 49.1767110131739784  6.6324523178962833
 41.5196554579036743 41.8567345390740968 10.3181999197065046
 35.7378762835679211 47.7166006908444515  6.6936649513175341
 35.7776027615236174 47.9791257010091954  9.8099382506448336
 47.0638796544936753 41.9185444942219902  7.2925430160295202
 32.8493097917968555 52.5798300236848561  9.5203579728138816
 44.2419399390390140 43.3664809085630552  7.1269118107938070
 44.1735112807782215 43.5726173588664807 10.2446938076134817
 46.9798317298992529 42.0829697647041101 10.4112337507823369
 41.3710633273560049 45.0544720008364905 10.0779799099681835
 38.5819326832238119 46.2633014252469721  6.8099433578058859
 38.5726727682373465 46.5239017188975623  9.9263062084340472
 41.4159060046380816 44.8141525099404703  6.9612546124082249
 24.6030008722781410 13.8012747420316764 17.4363540954476193
 21.8371995996302459 15.4606030729033606 13.9906291009193424
 21.6924875324555231 15.3882120733313688 17.3479769865733147
 18.9246285043086040 17.0655188346178228 13.9101555652145912
 18.7890011292695078 16.9779747838368102 17.2664306949728754
 16.0060088197934896 18.6790316218399646 13.8501537809870783
 29.2535010942440579 53.6940198408870657 13.0042338329603417
 13.0821894074797651 20.2962250945108416 13.8210727811282705
 12.9955694952283931 20.1657147976137203 17.1767609712923885
 24.7415688817258399 13.8666184981836516 14.0779057120548234
 29.4070099713917159 53.8351947971831635 16.3487759506867789
 26.3203295235637569 55.3227437546907979 13.0967374138107964
 26.5120433065027825 55.4305032736087924 16.4415705904222769
 15.8907113058788951 18.5710752451226462 17.2060941520582844
 27.5214897722873140 12.2166968768965329 17.5137583578447327
 36.2972821884984853  7.4752084949002420 17.5606196132301733
 30.4456863807328233 10.6345387132510893 17.5649237464211581
 23.3983947209574197 56.9458600056011690 13.2325082854790601
 17.7381701563553200 63.4918434119727806 16.9277603692761005
 47.8058725531983271  1.1926857169230498 13.7620748420259282
 47.9827187745912198  1.1591068624958536 17.1158023431605955
 44.9282783586561507  2.7826115554432866 13.9217957985499083
 45.0650316535141400  2.7388191366777073 17.2785012213070992
 27.6375446306321493 12.2813382948075063 14.1541302965801652
 42.0516627035898054  4.3698595735841330 14.0494895973838201
 39.1736943062830463  5.9550895248722355 14.1422925661798828
 39.2214558648574325  5.8966541143885944 17.5026730041267626
 36.2939365212801448  7.5387709781821819 14.1992706429920776
 33.4121145065197709  9.1205821627148076 14.2196569980053535
 33.3717808109540712  9.0543841819079915 17.5814205709604892
 30.5270749386044322 10.7007011570739046 14.2039016991284175
 42.1443320401689334  4.3180342206642024 17.4083919434891001
 23.6138828698907162 57.0213809277001431 16.5786734139341974
 21.9360090739932581 12.1489013048406544 13.9119038406541620
 20.7124386690812763 58.6070371721877592 16.7455881755368310
 24.8337871339152585 10.5559201638852258 14.0095252441582954
 24.6814393187850456 10.4838822683886583 17.3669622501899497
 17.5302657260786248 63.5113872314495040 13.5773921516911535
 21.7687602720265332 12.0676442176668370 17.2680211288662804
 19.0284255629658183 13.7514826124506122 13.8145384658811778
 18.8634486602167115 13.6542537743858468 17.1688134206100145
 27.6004847459782212  8.9026401290593444 17.4492259407873895
 16.1125016992495276 15.3635791605024377 13.7332995452073714
 13.1898270732194032 16.9813836218305632 13.6807704939546717
 13.0687446028989100 16.8391085379412289 17.0338176388843756
 29.3395848459482771 50.3507842797755600 13.1552820068006664
 29.4770231391004245 50.5272459585556746 16.5012871713340665
 26.4056185959249525 51.9779825945108840 13.2159030864126663
 26.5824049069282360 52.1242332652626459 16.5619451838232905
 15.9640033494215139 15.2449081965116093 17.0866510226775965
 20.4901068582639638 58.5610199122413846 13.3976454722805158
 27.7233797310510184  8.9689922513449396 14.0900621492703806
 30.6068903565490125  7.3839292778450547 14.1426323188188601
 17.5960310021995809 60.1676934091745395 13.5749253727039392
 17.8057551923969122 60.1888405309965933 16.9252866074543142
 14.7126527083535237 61.7663872071359066 13.7445420556719018
 14.8931317371259997 61.7686033170674378 17.0982108874580661
 11.8351530977251187 63.3596525999017715 13.8925407252280273
 11.9762659942322323 63.3470400431511464 17.2493005618459421
 30.5233493501939037  7.3232544269397950 17.5027546807418766
 42.1177238061517656  1.0363580488738562 14.0108123698508482
 39.2420829896629328  2.6249073475243248 14.0955767537575500
 39.2931324712884731  2.5890365976773748 17.4555531859677266
 36.3650069107077201  4.2121377709196972 14.1460267284596792
 36.3706517188500769  4.1665635805736079 17.5064968315494873
 33.4868875796454972  5.7985802824989694 14.1617579664822113
 33.4472688282852459  5.7446945581961186 17.5224099628672789
 42.2144265212100152  1.0113095214911569 17.3696230837378174
 20.6455886917757780 61.9090999003673375 16.7273586788003534
 36.2186209505631425 10.7872841511145729 17.6265932341886540
 23.5471437229409375 60.3236002461740242 16.5329019445173380
 24.5417551377322489 20.4733907588368673 14.1714936367258559
 24.4438976627962958 20.4524187681872043 17.5320244403721865
 21.6268998402898873 22.0753618314512607 14.1047543043695196
 21.5390051167930778 22.0440238796069501 17.4645877704819199
 18.7074348458970263 23.6862364146194011 14.0575581199226072
 18.6394344171007376 23.6384946462381720 17.4174327380100387
 27.3562397398181396 18.8634054335167818 17.6057387446875602
 15.7851041228720881 25.3010906213918858 14.0385199357133903
 32.0429999268717651 58.7790253041799673 12.7303667210753435
 32.1653684689829831 58.8468996932843496 16.0741821869717185
 29.1015512210133913 60.4101196661101270 12.8357008925850877
 29.2738976597136258 60.4430979559912060 16.1791910055694217
 26.1726954915974410 62.0349949555409594 12.9946832655317230
 26.3793780294642737 62.0358091155998537 16.3386089955728835
 15.7423467801708394 25.2339037697599835 17.3986381806255537
 23.2580467577831236 63.6513509937419002 13.1907985636109171
 27.4492000001999408 18.8832635251512784 14.2439699674240252
 30.3483490240251506 17.3035812541085114 14.3039191630303595
 50.5635529904069543  6.2732007608414744 13.6898651454717371
 50.7550923419319204  6.1860583418640482 17.0414902299595674
 47.6772864211638421  7.8559827173962988 13.8857247930012342
 47.8382724144402616  7.7707075496841425 17.2406446967045923
 44.7923354233273869  9.4352841483787824 14.0513345339212634
 44.9167857981383776  9.3542223198687022 17.4093911320592447
 30.2768950083557158 17.2759150592475059 17.6665518694338388
 41.9070096211554315 11.0119925590101815 14.1817369342078745
 39.0202825814971774 12.5862847125712136 14.2735758977919449
 39.0636960026370019 12.5207635078477431 17.6361529729142319
 36.1318474344067511 14.1584110893991593 14.3246806977373726
 36.1340905539606752 14.1048033729497551 17.6878959676990490
 33.2414990373411783 15.7298593893878262 14.3338559110177126
 33.2040908467121199 15.6896325532139915 17.6973015259469619
 41.9914907538467830 10.9372712472613305 17.5423501434247022
 23.4816112594966597 63.6248865076543808 16.5364804452726943
 53.5151442607946848  1.3430619289404819 13.4053813652182363
 53.7363524093042741  1.2972214998416995 16.7532591263860837
 24.5234197004519601 17.1247018974581309 17.4944442799861797
 21.7336846203056666 18.7687217627692924 14.0573431125878479
 21.6155652279101247 18.7141175204841375 17.4158981281135787
 18.8172135220327874 20.3766266216788310 13.9931395397495120
 18.7141745798471426 20.3066614176280673 17.3514724575794226
 15.8964229452108707 21.9911958201021314 13.9538677404698532
 24.6439013916189502 17.1711993897468638 14.1348008685660780
 15.8168943260759605 21.9013401865692572 17.3121677056522394
 32.2309196063037504 55.5430880085469809 16.1676128851576024
 29.1742125801843812 57.0483428276609033 12.8939362636446724
 29.3395029394282361 57.1402951657697216 16.2376474335423495
 26.2428994039993384 58.6761255146049336 13.0200708376418319
 26.4447008733806221 58.7340442739434323 16.3641602805842901
 23.3245930835921911 60.2970931355819815 13.1873753954613431
 32.1165733076279665 55.4163362629932834 12.8238083801609477
 27.4393326435808937 15.5374326715727644 17.5702293938182983
 27.5457648187188866 15.5846770058224884 14.2096417865333819
 30.3627495570803489 13.9521082302994994 17.6250799486625702
 50.6256315529923242  2.9389834594734294 13.6176317878114048
 50.8272369038111123  2.8814595926759576 16.9682192575387987
 47.7425329222810149  4.5283419472129856 13.8116213284495384
 47.9126217141693758  4.4641619386958995 17.1655466082570776
 44.8622802746869525  6.1135933189609961 13.9776542283201941
 44.9933964342702737  6.0455602422342478 17.3345659954182807
 41.9819366226188961  7.6962465786101770 14.1099115406724369
 42.0706289499750454  7.6262510566874955 17.4694785555450309
 39.1001083657476158  9.2766257744568179 14.2059062634975568
 39.1454337109666213  9.2065904155829088 17.5672969627609810
 36.2162262471471834 10.8547946331929843 14.2639273577055281
 23.4810418854649612 53.6017864644369766 13.3204959175741084
 33.3297211513026497 12.4305641541514547 14.2830470908710900
 33.2904314663388021 12.3687684917638290 17.6455132349287531
 30.4401658481187134 14.0060141326941441 14.2632188729915921
 20.4208721564686329 61.9090177132369277 13.3797174453746877
 23.6841800636679594 53.7171044537956419 16.6676625721682434
 21.8433124785257533  8.7535361218648635 17.1875322527320122
 20.7818313029718418 55.3038473255300929 16.8059108226931997
 22.1835104070135394  2.1636472506219548 13.7325004295546069
 21.9821198024557418  2.1382858139431895 17.0848213086392171
 19.2961589687196202  3.7653426936775665 13.5727568352465475
 19.0749497383306235  3.7199079258480814 16.9224733973568426
 16.3961461591424289  5.3753170230698100 13.4142720097096735
 16.1744449615202122  5.3040612793177662 16.7624901451074990
 24.8957282005063156  0.5584038799637497 17.2312885111049034
 13.4820849247270527  6.9941400217613339 13.2770214989664908
 10.5564285390355845  8.6197446515855205 13.1757395334704572
 10.3853575425911853  8.4833515688245420 16.5220678251189383
  7.6213203032869332 10.2472086376356604 13.1225959242103603
  7.4952838934353814 10.0778458879746715 16.4687807019603021
 23.7772664653496619 43.6217889319087035 13.7150594905812948
 23.9082162320079838 43.7709020465816963 17.0677779154057312
 13.2782816266101094  6.8916441285974104 16.6237079873591824
 20.8553310541139396 45.2395811831711967 13.7757272307991965
 25.0623955499128996  0.5678879389924565 13.8760097781021674
 -5.2204233411093748 62.8895404851843480 13.9917790758703369
 14.9396517883004449 51.7667043415454842 13.8801268885641189
 15.1114694819462922 51.8519531665670570 17.2355545590403736
 12.0478224145563111 53.3588162068589114 13.9844096934230091
 12.1920722449557015 53.4305348766965551 17.3420580017269579
  9.1633503341159646 54.9472718647830618 14.0665082725984618
  9.2690760891955133 55.0076866091153605 17.4257871885314444
 -5.3437959215782342 62.8935502879939108 17.3498739866829403
  6.2832724621458187 56.5346447252983353 14.1189125856166129
  3.4054850126647511 58.1222534007552767 14.1382186886719872
  3.4218147247451696 58.1612389925971911 17.4987651319205568
  0.5287138546516760 59.7103074333256600 14.1234530094193307
  0.4989348080845739 59.7383716755123473 17.4838237392078533
 -2.3464923962655178 61.2992854564676861 14.0747255283923245
 -2.4231913683717834 61.3156033752045033 17.4343202439676901
  6.3452617878913502 56.5842301509259187 17.4791548514182828
 18.0248583954580930 50.2707076540986293 17.1199599977628552
 21.0085700287440886 45.3648700214767118 17.1287737671190996
 18.1038191681333984 46.9543057303504270 17.2160465932764275
 -10.9079100205468329 62.7360384629278727 13.7296321048787444
 -11.1083487818329356 62.7455538550716554 17.0817964260299462
 19.3662530089561891  0.4214464406099628 13.5511725392766920
 19.1405603154753265  0.4141091780088857 16.9001608389531093
 16.4720865903579607  2.0286597823807657 13.3666193399757507
 16.2391398085831256  1.9985603079983136 16.7135657138513842
 -8.1936615494198541 61.1653448048429809 17.2424926196074573
 13.5635116417708463  3.6459043552984620 13.1967597521876812
 10.6410912760965797  5.2710688458754875 13.0602548787451731
 10.4508743180081982  5.1762140888411414 16.4048875423385745
  7.7067963792769314  6.9008582991315555 12.9717018822815362
  7.5612876614394882  6.7696707665157367 16.3163481054830406
 23.8858220428623795 40.3075837811603961 13.8458521236197267
 23.9839681989569300 40.4447024160197728 17.2009769403081023
 13.3433501863309001  3.5858319688397029 16.5422866995958131
 17.9394870384965728 46.8506429469852250 13.8614103102868746
 -8.0308265435561044 61.1427172353619355 13.8871559744721047
 -5.1560534890996781 59.5528360601384747 14.0143947359827887
 15.0316998328110110 48.4513766644532353 13.9599157369699505
 15.1923383898894979 48.5386194242000855 17.3162119049683056
 12.1332763577665439 50.0423810854703390 14.0547902546987817
 12.2734969753061645 50.1197842089310157 17.4128856220951711
  9.2425995138331327 51.6272141284918789 14.1301019857802377
  9.3490314225062576 51.6988181724938372 17.4900861125613538
 -5.2743837534046198 59.5864188115400353 17.3724014178237809
  6.3573891195796604 53.2097940084780063 14.1758008355873120
  3.4759454762777313 54.7931853994097864 14.1881770302457575
  3.4960415419123598 54.8536240587813637 17.5495181622521272
  0.5967709853104317 56.3782414486941690 14.1653426939382250
  0.5711740940887992 56.4309777980591747 17.5260873853615351
 -2.2807550901964091 57.9647336905587665 14.1074165201309842
 -2.3525163677968624 58.0082869748996544 17.4670381273468287
  6.4223141568938287 53.2764913199678318 17.5372138802363544
 17.8409530590049741 50.1675259717800017 13.7665681504502881
 20.9315255913070573 48.6845424366326185 17.0118270592342036
 20.7523921235274962 48.5585720432218508 13.6605714157990761
 24.9185394105023796  7.2355651734305040 13.9437734814026442
 24.7564213939248035  7.1727458320266022 17.3006505619858011
 22.0281958321986906  8.8299926315056929 13.8328633694359038
 53.6666232091275148  4.5999927715918023 16.8199321381798619
 19.1268845296346335 10.4316889195847704 13.7163742767490859
 18.9367858790420271 10.3371025849606681 17.0690685785056537
 27.6747509554090492  5.5935656178824376 17.3926107874185298
 16.2145189896469546 12.0425778277699038 13.6123254745795386
 13.2933939015029896 13.6609921096273954 13.5348784400330526
 13.1406469740433867 13.5171514907866719 16.8853016256228763
 10.3654328037130092 15.2824746985280164 13.4948597889371324
 10.2474835915856453 15.1121441076585068 16.8450872392142301
 26.4989660241404827 48.6438600366471476 13.3644633000218604
 26.6553136253135214 48.8131500219030201 16.7121072404612256
 16.0364488216780039 11.9246444585765268 16.9632920807788210
 23.5728341361926397 50.2670212985256271 13.4405992199170043
 27.8009292569287965  5.6451387110112012 14.0343549748371839
 30.6790341589679691  4.0564856735675914 14.0949085700449945
 17.6683552583383445 56.8259814032971136 13.6097938680601818
 17.8744945620116944 56.8856932689991694 16.9611809090885615
 14.7808398064438151 58.4266058221643831 13.7611769805343123
 14.9619118488087466 58.4646407951219160 17.1151014121147327
 11.9009665715754149 60.0216049896237180 13.8948129146462342
 12.0451175983795036 60.0422277621419624 17.2513504547579331
 30.5960010452783671  4.0153610492318537 17.4545168313419161
  9.0248938040681779 61.6131491153025834 14.0007897592851318
  6.1499473216423741 63.2032425608627761 14.0744857334671405
  6.2045537659954126 63.1964301319046768 17.4343347354435423
 36.4317114039783831  0.8789004582843862 14.1147970294455707
 36.4404254492717783  0.8599308259115273 17.4751048783128162
 33.5554712340135808  2.4679252590875596 14.1219544657473666
 33.5183032419565166  2.4372512714184524 17.4820566298673299
  9.1256145384548724 61.6191828800207517 17.3595076347888231
 23.7577158814856659 50.4080312136172850 16.7886465396400624
 20.6557057788216838 51.8839158039577555 13.5493389612682194
 20.8553793521064001 51.9973820906291806 16.8993840302066651
 24.8273784739815646  3.8650514429502487 17.2520284633030379
 22.1106430841352939  5.5010047701260554 13.7688070424876372
 21.9141679011542010  5.4448738445308074 17.1221878971659258
 19.2170136733751988  7.1033489549806772 13.6305897968118597
 19.0075301506808856  7.0266320490312024 16.9819846969582677
 16.3099619803079889  8.7137440096826406 13.5004653523955263
 24.9939757337516362  3.9049279205701808 13.8962568432999163
 16.1069912290339197  8.6115009893798575 16.8498557259419286
 10.4641608124864884 11.9566065572869356 13.3261599726567486
 10.3175704639368924 11.7950140125896823 16.6744517582175362
 26.5992892775947212 45.3193146050288576 13.5271067552112125
 26.7296898940730543 45.4964121138468514 16.8766099308622159
 23.6722751113411256 46.9409829997923325 13.5767103123830459
 23.8327213643705065 47.0924087686879176 16.9267104133842885
 13.3914492289252607 10.3327738613701712 13.3950212743755568
 27.7452186955195828  2.2865234430377233 17.3572285053448638
 27.8712206719206499  2.3125679564424741 13.9992374329029339
 30.6656335654842032  0.7085569105432343 17.4301224694131278
 17.7497458842484406 53.4917374454178685 13.6775718630310994
 17.9475022122394599 53.5806544778556244 17.0300722430796370
 14.8557074135502933 55.0917901720244672 13.8089542239166416
 15.0340932839233066 55.1598722494313733 17.1638461812094860
 11.9708680298068124 56.6863373521141867 13.9273254777012170
 12.1162246212790468 56.7370665016995801 17.2842007243719848
  9.0916441291321330 58.2774729879545887 14.0206767160241483
  9.1955183798851259 58.3137086934767837 17.3794134424838447
  6.2151665733830406 59.8671572015709756 14.0830102286876233
  6.2735430998466866 59.8905727218991260 17.4428186353808421
  3.3392057707390350 61.4566257575742227 14.1120366251583125
  3.3515121943784814 61.4677016525689268 17.4723686137531082
  0.4633484831124432 63.0460726692946878 14.1080446669892616
  0.4295145759599070 63.0445757564090314 17.4682027131149198
 30.7462332541189021  0.7223676265207886 14.0706069442148323
 20.5677569567381866 55.2180015602965710 13.4567899550355055
 53.4542435869201498  4.6848628780921908 13.4716449372995140
 36.0448239692350327 17.4280249488913057 17.7276943186891494
 56.3536339402236806  3.0882024466443800 13.2437090380770677
 32.5999357773867757 38.9799578211681492 17.1056340229565258
 29.6341213345852488 40.3864597903475513 13.7032376418569246
 29.7015633142201985 40.5768377555772375 17.0556418471101239
 26.7043103288210624 42.0023830845427071 13.6899527313704485
 26.8050848773248944 42.1744484570701772 17.0419857423927930
 58.9078321684635213 21.3920037765116504 13.8561450264703208
 32.5628547293877446 38.7797884427219586 13.7520630329975404
 58.9899177008043267 21.2510489716063873 17.2111994218349764
 56.0649986912763580 22.8541510340720002 17.3309336561494725
 53.0669808059916193 24.5114214453415258 14.0646510563581959
 53.1378994696591320 24.4583968733684287 17.4240799437961336
 50.1495156888888829 26.0700434044148039 14.1265360106938598
 50.2096144610599069 26.0629736586524885 17.4872379930586277
 47.2337598975756165 27.6298618230182527 14.1575095425491977
 55.9862672941882948 22.9524281698572636 13.9734241774315446
 47.2814074611120674 27.6668977446918340 17.5188395664353962
 35.5036474967038629 37.3845382386033975 17.1823609610627379
 38.4150019341400792 35.7883516017878236 17.2701003731202505
 29.6250555570272986 43.8983382316652566 16.8691899297090551
 55.9230322680476348 26.2364540378508799 14.0477994996181224
 55.9664491378042470 26.1689730327029437 17.4071907347050931
 53.0020321937649399 27.7949413281734188 14.0935594582637105
 53.0379341395651025 27.7745667188891332 17.4538276484402530
 50.0819568064898277 29.3536331832076733 14.1102569928861801
 35.4882523605630666 37.1879409610743608 13.8274632694420596
 50.1092106371174069 29.3801727362260543 17.4709667643732161
 47.1813796124828428 30.9850567545192348 17.4584589453368970
 44.2450781113750509 32.4746248735247605 14.0585562010857217
 44.2554426769739919 32.5882485584467787 17.4179216891293329
 41.3280173642837099 34.0393060905475195 13.9948168722567399
 41.3326967552983504 34.1896000692691828 17.3527032275709523
 38.4096334496879876 35.6092505947433864 13.9137870209690053
 47.1630357685980144 30.9133479201885777 14.0981615702719587
 29.5314422290517307 43.6992647564243555 13.5196397368168082
 44.3196043260244394 29.1907648435578295 14.1578616303068490
 41.4070051919574666 30.7539235224855680 14.1290499222574883
 50.3093650047598544 22.7456433863241330 17.4694909658549058
 47.3061765438844617 24.3455548996850197 14.1822221416204926
 47.3815904855422545 24.3481460401148624 17.5437554004328113
 44.3962929912991484 25.9065308611325626 14.2216692063518888
 44.4535821128538657 25.9489653463635932 17.5840173949114913
 41.4883772223923870 27.4689272181748407 14.2281082135180235
 50.2177762341509322 22.7857478404082094 14.1092213859938980
 41.5262024468601822 27.5477356469376247 17.5903186443628563
 38.6004235687252972 29.1443212502352971 17.5643778398407733
 35.6739226207997291 30.6053947523256937 14.1520040487173517
 35.6789093858602726 30.7384995444048315 17.5119438369191620
 32.7620282906874820 32.1851733106262898 14.0857465697010742
 32.7642027093099770 32.3308698625146178 17.4447492574179215
 29.8437069082424244 33.7774039078351080 14.0218638397569908
 38.5817451990910101 29.0343094424848402 14.2031269626381107
 44.3541839933298050 29.2693296844766948 17.5189171884131234
 53.2361426007588818 21.1430772019158546 17.3620342385632718
 56.1607572147424605 19.5411003771238256 17.2250916347819327
 41.4286509164227468 30.8697568324995828 17.4895115999707151
 38.4948011404501997 32.3210922262680569 14.0753233655339809
 38.5066742054290643 32.4676484155215377 17.4345270180710799
 35.5807706307228884 33.8952780646062948 14.0051721428693128
 35.5902545808824442 34.0630611361604352 17.3628423088859520
 32.6622313736312080 35.4801010827778640 13.9318735725684064
 53.1317872105951849 21.2261610172037472 14.0039331232252202
 32.6809863094049575 35.6567938413345260 17.2882755347341472
 29.7791166581148481 37.2515442766310443 17.2285135859754810
 26.8122159206098978 38.6909703924584960 13.8424130598597852
 26.8811244593714918 38.8481398555347752 17.1973328959025160
 58.9687915026965968 18.1022121616596934 13.7127118478335603
 59.0825226659462643 17.9402273522843032 17.0647820072665439
 56.0487054925208028 19.6654634022798369 13.8700257210568747
 29.7386140677448303 37.0796237498785928 13.8731382350316199
 32.5210079012709201 42.2997192381296898 16.9050039636042904
 32.4651259593910453 42.0861819804242785 13.5543192316303056
 35.4200660708981090 40.7026797843779775 16.9781541496104005
 43.9703668938852914 45.6391454995400352 13.3731187777791689
 43.8872506300758403 45.8409787778135183 16.7211717812828056
 41.0334124851748427 47.2258764000859586 13.2084931495076834
 40.9826479119219229 47.4397423510205059 16.5548190265485928
 38.0900859005575256 48.8266597395501236 13.0768764931806754
 38.0846368213066029 49.0382533704730150 16.4218466253917477
 46.7987146551701940 44.2407131662132258 16.9020083833623609
 35.1429643445454118 50.4405908177970730 12.9936183417688493
 32.1958949534146228 52.0645456070436055 12.9680824126060052
 32.2988718139100683 52.2371820686061170 16.3123853208183220
 46.9629545305222820 40.7693736163894513 13.7259476266951577
 46.8899231381307544 40.9301183732431682 17.0796932505854961
 44.0357916537231588 42.3383018438300738 13.5747625127535247
 43.9735345535809472 42.5322892822695025 16.9254261642579173
 35.1906411939896557 50.6375034492579559 16.3378862011257340
 41.1037021576265005 43.9157087843272649 13.4244105433380643
 46.9004862306507633 44.0631778693838143 13.5516930852732838
 35.0660344988457666 53.7855836383749875 12.8196704481356782
 37.8802464599641624 58.8788939850631650 12.6228865551015730
 37.8796977248844087 58.9522629495770545 15.9664643907262658
 40.8998238235775631 53.8925614103064703 12.8281265933360196
 40.8358934029451035 54.0496993231728311 16.1715492276051371
 37.9475966631549113 55.5143921560586264 12.7255851305110799
 37.9443378748483369 55.6486945450540134 16.0692277779468498
 35.1208976613092716 53.9438607261848944 16.1636394370041536
 34.9935333985110404 57.1448709773021122 12.6919351509619247
 43.9069689214176009 48.9530117121452903 13.1718955704516993
 43.8061869022857664 49.1467628496900204 16.5177601290457545
 40.9656653866570650 50.5512923960266747 13.0043654460127964
 40.9070614590446695 50.7450473427904640 16.3487107467415278
 38.0171355658681733 52.1628588935719080 12.8823251739208047
 38.0126133494435550 52.3442223038946253 16.2263473244715186
 35.0546698736249738 57.2481124321981625 16.0358135069690171
 41.0632735070146566 44.1321176068052949 16.7729761983360994
 38.1659295866289625 45.5056004238837062 13.2922340975002609
 38.1603490047259086 45.7303805856014804 16.6391153764877693
 29.5499447200187646 47.2151225962139662 16.6798794765225900
 52.9369349949800636 31.0778307238411706 14.0895130246011657
 52.9370671878115218 31.0907390410576312 17.4500222536216256
 50.0155096063149998 32.6369415584996290 14.0604043224295925
 50.0087937322093268 32.6966963842115987 17.4204985675626567
 47.0940501775545641 34.1968505991826888 14.0048144278467177
 29.4326331510781287 47.0197990447427685 13.3325072069040100
 47.0823380931393984 34.3018326555197604 17.3634979007822565
 44.1585742294705454 35.9054062836385697 17.2825103192724825
 41.2511043201698726 37.3262252522693174 13.8284530916726958
 41.2391028298211211 37.5069169690782971 17.1831585458779621
 38.3261169039767395 38.9006284881805300 13.7235874635238826
 38.3258107944104722 39.1058914350267841 17.0765942756107343
 35.3972977300218403 40.4859952085711470 13.6263359396808177
 44.1731036372116250 35.7591635347587626 13.9255577668474491
 32.4442612515678874 45.6159538174451242 16.6969263751424855
 32.3707161025166101 45.4010298174203157 13.3488199334515656
 35.3400711253557702 44.0173723380741961 16.7604748693961412
 35.2241458549696915 47.1100474032163632 13.1960927427090269
 35.2638306082503590 47.3288386910677445 16.5421436125807055
 32.2806255072906580 48.7263185087950603 13.1485847673190754
 32.3699765489789755 48.9282719323552726 16.4940945609349683
 49.9502642005588200 35.9204132472829301 13.9781024581157975
 49.9093485622905320 36.0121976871433276 17.3367551419432537
 47.0273570602483630 37.4814926982130530 13.8794345401393215
 46.9848423573458973 37.6169983771837266 17.2358710782537727
 44.1033006224221538 39.0461803715325928 13.7621948839129242
 44.0641861845986469 39.2204148207950354 17.1160688859739700
 41.1762245233765043 40.6172651117627126 13.6354195880257318
 41.1489361857637803 40.8212119872818491 16.9868361625166990
 38.2447970229338381 42.1981133735533973 13.5126063192551467
 38.2407832391619493 42.4198168705712391 16.8622885429924878
 35.3089146964585012 43.7924144630727383 13.4117285292700323
 29.8579620195644075 33.9235200587691708 17.3799337982485333
 56.5721172805363324  3.0125407360850245 16.5895818054211652
 26.9208812567242006 35.3832314539420381 13.9771029681038605
 23.9962157833578615 36.9968953389356159 13.9611973400030838
 24.3276644596038061 27.0785630455520980 14.1676082079166168
 24.2875395885997349 27.1157536557676870 17.5288803523798933
 21.4070760316142561 28.6888154196600382 14.1284242356577554
 21.3876063407461245 28.7107984813514712 17.4895242068539432
 18.4841057849789046 30.3031600828196268 14.1175683211462122
 18.4895947668477625 30.3064434204111599 17.4786585216313668
 27.1922825630516201 25.5235486882025491 17.5890279954246544
 34.8592240638444224 63.8859064771682057 12.6225961698779958
 65.0677549139361702  1.6020257809867049 12.7318112923511428
 65.1950287211060129  1.5368768977559992 16.0753156594407578
 62.1300189509004781  3.2226384743208247 12.9003476673091360
 62.3012568861286624  3.1310104254363367 16.2437521799120645
 59.2051550197603831  4.8316724028309403 13.1092081151426552
 59.4033797770210370  4.7236205050271298 16.4537979099305076
 34.9283682895574685 63.8541800443821117 15.9662559031361493
 56.2934256571890828  6.4292527096132019 13.3382927385742089
 27.2440710815291922 25.4778140363985983 14.2268440461221886
 30.1533576813175586 23.8897732544937469 14.2923009258087603
 50.4297033135773347 12.9081996659822877 13.8868004795110664
 50.5933799427101931 12.8017536968688450 17.2422272351391577
 47.5330021449424578 14.4767358354476325 14.0602634960091102
 47.6710674011519231 14.3928423864134984 17.4188860012952063
 44.6374310656121054 16.0431791165683642 14.1989429343479632
 44.7447696160850938 15.9837826300415902 17.5596661096106175
 30.1046980230443815 23.9339045531446182 17.6554304438521825
 41.7424405199041217 17.6089537706825752 14.2979046567815740
 38.8476344277832482 19.1750623399091928 14.3548726900795991
 38.8843584258699977 19.1652678191174957 17.7184491475764929
 35.9524364714122058 20.7420391150394394 14.3695414037082543
 35.9532960300279925 20.7550082852344744 17.7335775866897691
 33.0554111350705710 22.3124730314902386 14.3454022744140293
 33.0256287404583802 22.3447298090260027 17.7090377314220717
 41.8155142516195539 17.5749315675055975 17.6604557316908917
 53.5113106387388484 11.2102750209094602 17.0365323580415691
 56.5007301631942767  6.3149279064901496 16.6852443405227966
 53.5919631711488549  7.9043303251794272 16.9185064610109670
 24.4359420797603129 23.7754643525223521 14.1831008583666556
 24.3650898952214980 23.7832076242595889 17.5442271135238812
 21.5177521981250877 25.3819544932990731 14.1291078376953116
 21.4630024766312353 25.3766785151229755 17.4897748707762410
 18.5962126436532635 26.9950961658552870 14.0995608686646516
 18.5645874753122406 26.9721037883594903 17.4604588988195140
 27.2735690463730975 22.1925985064989746 17.6130136460562952
 34.9252000207469919 60.5138408570899742 12.6239114511952373
 31.9748609631729721 62.1474300798275507 12.6983541601580274
 32.1012302541990309 62.1492081162135719 16.0420383009997920
 29.0349423370063100 63.7750911836917993 12.8374557879368414
 29.2090667738349268 63.7440629566809989 16.1808465783236741
 59.2661758773789629  1.4804732034066228 13.0255516157859610
 59.4717098760184157  1.4228332395777947 16.3695877085730679
 34.9909866370546752 60.5513895007914513 15.9677374227751336
 53.3927382152900591  8.0166793938809864 13.5685838363049758
 27.3482462414432632 22.1803228350221673 14.2505970616897955
 30.2525236214411066 20.5971839952459526 14.3151962835710957
 50.4988537334078273  9.5971169210596976 13.7838370209522836
 50.6775107406427878  9.4925760866268938 17.1373490553781771
 47.6075119624884806 11.1725322085401579 13.9734992649809850
 47.7579502251396946 11.0796575309925256 17.3302414410280967
 44.7170691112214413 12.7450041329659367 14.1305771003996909
 44.8340123838503288 12.6665331609408387 17.4901166209167229
 30.1903553619528076 20.6039632161209383 17.6783607271764431
 41.8264356765784839 14.3153431566411502 14.2502014192697963
 38.9353650115638388 15.8845007545742085 14.3283632174554185
 38.9761385114617553 15.8407121480895423 17.6916270341257054
 36.0432499819014396 17.4527514506300712 14.3637728845600385
 20.9624140113056292 41.9249382176860905 13.8838439522171235
 33.1497936822349146 19.0225311141692544 14.3573711617491373
 33.1151415508899873 19.0158529442125968 17.7213133564709260
 41.9062977828972905 14.2533788341935352 17.6117220308049660
 53.3288697185050253 11.3358945544158800 13.6841297522667453
 56.4237550387942051  9.6180126588250925 16.8111627453087706
 56.2330158616178508  9.7575459522370629 13.4622704362971408
 38.6952192084840476 25.8190056173263969 17.6561928396049090
 35.7673517388111293 27.3169923846445073 14.2633515224177234
 35.7692096717096817 27.4116992341408690 17.6251873530277408
 32.8609925685616062 28.8929361352481706 14.2081806626927261
 32.8495967586249336 29.0029830046705612 17.5693385228760235
 29.9483158687555679 30.4790136708076567 14.1434935793499861
 38.6699161429107221 25.7480463408763853 14.2935536773041267
 29.9383684577103644 30.5941720059019140 17.5041124602789679
 27.0348658108238382 32.1873603471683580 17.4479992424156336
 24.1073598573782313 33.6890314379992404 14.0553510134082842
 24.1353622235660339 33.7828326612606560 17.4148219147977770
 64.9439115427030487  8.3100195867159954 12.9751685140397672
 65.0619544335568776  8.1384529853126217 16.3185736742259522
 62.0107938595704908  9.9083805726188796 13.1721230710804704
 27.0295027719784144 32.0787251402552442 14.0882834167239910
 62.1602059709720152  9.7331593720909932 16.5168058319166349
 41.6239436243251717 24.2240558251996738 17.6528897269870058
 44.5529188654142203 22.6273353124617280 17.6121628546766651
 24.0597216650094019 37.1150651341260343 17.3187257020676846
 61.9521444199927132 13.2285205864150193 13.3523158443841456
 62.0828803167875805 13.0354794340101900 16.6987944440726395
 59.0283286986472007 14.8045578940908840 13.5520439411575477
 59.1703220535983405 14.6321886162994996 16.9013438582821607
 56.1105363315845409 16.3731795568536640 13.7431161837951290
 41.5718996794531321 24.1834341261859542 14.2898920465084913
 56.2530775892225066 16.2303554387186892 17.0958974723926787
 53.3319505274062138 17.8295017849596569 17.2712275085171569
 50.2872304680948901 19.4991042705294362 14.0598191320798289
 50.4076671691277483 19.4291959248520136 17.4190226656251888
 47.3802158884329074 21.0598263451767629 14.1724854645307090
 47.4808758796053709 21.0287710812602455 17.5338640026276558
 44.4753770526777004 22.6211329347745114 14.2495452168666503
 53.1971050036080157 17.9372392618292125 13.9148859970880210
 59.0872469643035103 11.4949760780234733 13.3869120770353227
 59.2530287276437591 11.3277482364121695 16.7343730336288381
 56.1719423947293279 13.0717684060692587 13.6023967569825608
 27.1374882678508342 28.7769655055189482 14.1723036065792574
 27.1127940511114751 28.8553740752506300 17.5336139570513367
 24.2180668573339197 30.3829544372014162 14.1247813038703782
 24.2111295559881654 30.4493923607882842 17.4855607445013455
 21.2955396542497475 31.9958983280599440 14.1024385587479220
 21.3124112418757150 32.0451620156073815 17.4630023501234497
 30.0206578761130203 27.2641468400666795 17.5968210662437521
 67.9518901096940340  3.3409240857214995 12.6886608072441263
 65.0050092854382342  4.9625759415151363 12.8276867080988861
 65.1300517799103176  4.8375961588526133 16.1709552903638887
 62.0694989455521551  6.5725304470981651 13.0165187428493070
 62.2327095299129098  6.4318877427524352 16.3600966761783688
 59.1459692435930151  8.1705579903302183 13.2342369709008576
 59.3307567739205126  8.0253154256001906 16.5799573562684976
 68.0230777407193159  3.2423295401538548 16.0320142433683586
 30.0517610062955818 27.1834454424108429 14.2345317738797252
 32.9368914938938104 25.6740422119335356 17.6581476941423112
 32.9588840526655176 25.6022359380437372 14.2953845554275709
 56.3409544208289361 12.9226975021504220 16.9531835992113464
 53.2629100173595944 14.6418439731081413 13.8045075123409475
 53.4242091201561564 14.5184585441396745 17.1589833113041621
 50.3582368590118605 16.2075962833374341 13.9831172240838804
 50.5029761420308461 16.1142966309249793 17.3405163643661169
 47.4563361681053522 17.7712282559664345 14.1302144080850525
 47.5780890971523647 17.7097887474640956 17.4903846322216729
 44.5560556020668272 19.3339888666965116 14.2410887581600267
 44.6504533474672627 19.3049383990839445 17.6031992463392335
 41.6571252765319855 20.8973009678375483 14.3129128013208327
 41.7209069442047209 20.8992868683070299 17.6759895391484569
 38.7587438703148663 22.4619019620687510 14.3443594950072004
 38.7902251075924625 22.4920722204478736 17.7077123647089110
 35.8603768318002381 24.0294823949395102 14.3363805763755003
 35.8609917897861905 24.0835559545560436 17.6997073913300902
 26.9577334938787487 35.5187323994827580 17.3347042322723688
 21.0854025843718347 42.0397642318565943 17.2393306733909988
 13.2106421025304321 10.2012324020711187 16.7432346174861344
 18.0433669561425170 43.5380934444661563 13.9503585759944038
  7.0400098921922494 30.0102755637400307 17.5153319611813956
  7.0214432190859410 30.1217623775437922 14.1545009385927152
  9.9454301515436114 28.4212457929482696 17.4524092787603173
  9.9396810050105007 28.5239119107537995 14.0922771124940560
 12.8451118643082012 26.8283660819027148 17.4109827961444417
 12.8617412388291417 26.9151258802829787 14.0511309693139506
 43.7306764423443468 52.4514096451908785 16.3319748929530313
 43.8448231706967348 52.2828040689747482 12.9881303420159409
 -25.1963605831207040 50.8535947616435706 16.5325923305579607
 -25.0481466160743409 50.6852359749060710 13.1874258791802568
 -22.2896446382467630 49.2562945486315940 16.7535093922255278
 -22.1236863452424721 49.0995214083787346 13.4053839771399801
 -19.3766928580938220 47.6592702109318083 16.9757193760076532
 -19.2077013520343058 47.5233987908401261 13.6241723524825851
 -16.4584256063191781 46.0628615949533256 17.1835458839774589
 -16.2983268132883374 45.9538266286280219 13.8284129199487715
 -13.5360049162400813 44.4673991913817801 17.3655427914266767
 -13.3930906117449720 44.3879219481651717 14.0073296816988879
 -10.6096793175473660 42.8730743996658035 17.5145907732776038
 -10.4906532169007214 42.8244288342238448 14.1539151521626962
 -7.6808958199640927 41.2799524088647303 17.6260290585437005
 -7.5894586805953610 41.2617299736625043 14.2634000305517485
 -4.7510173294824583 39.6885382254597801 17.6975404815464650
 -4.6890672703217087 39.6990476516556328 14.3338793224898282
 -1.7892591876271968 38.1356952578199042 14.3647424170427360
  1.1093085106405203 36.5109588957397690 17.7204232503664443
  1.1103643489311754 36.5693490838794375 14.3569700342500148
  4.0352833987432462 34.9248250142542673 17.6784806614219505
  4.0119407509725029 34.9974757922093858 14.3156465785326024
  4.1100918774825077 31.7064260328618346 14.2233509110848626
  4.1260315388231223 31.5965472266032812 17.5846283328632964
  1.2040818615740909 33.2811573279798978 14.2799878927790278
  1.2046394018510584 33.1832449394987421 17.6422153264919679
 -1.6243006380176090 31.4463949487938415 17.5784473945386814
 -1.6106248067199396 31.5632523654851695 14.2169792683058169
  1.2979120349121969 29.8567491474673048 17.5248804383287897
  1.2974367903255224 29.9926043099644453 14.1644623502775193
  4.2142203955153956 28.2693686540074616 17.4547900424688152
  4.2086352521608266 28.4138771505038434 14.0954221718185035
  7.1228590885129046 26.6816101547609321 17.3840571279924312
  7.1255603707676931 26.8233007434039372 14.0253291671291986
 10.0238722604285666 25.0901685869864757 17.3301597041039841
 10.0478247700234604 25.2193245247104372 13.9721702465593243
 12.9210507809458957 23.4959603192474518 17.3046502617478879
 12.9723585630511327 23.6070022600114200 13.9466441721677477
 46.7120676392017344 47.5482080874527355 16.7145213716116565
 46.8394023390236640 47.3670511734223254 13.3669721693015138
  6.9544955085085736 33.3393266663076560 17.6148641280068716
 -22.2025766288521851 45.9487557349850988 16.9197454512124814
 -19.2843804821290696 44.3485377369415019 17.1164355357528173
 -19.1455199334140644 44.2229174079073744 13.7626585800788366
 -16.3619336604033627 42.7488058497250591 17.2924759602814255
 -16.2315390541888220 42.6590968385128022 13.9353293486781880
 -13.4365953550552781 41.1500613357152858 17.4401178406805393
 -13.3209631465722023 41.0974087198753750 14.0802144961565379
 -10.5088581115107473 39.5525160366329516 17.5540196349685012
 -10.4130915147835204 39.5366909381405875 14.1922413127976785
 -7.5801477376995727 37.9567121150762574 17.6312482737375618
 -7.5070990130191859 37.9752485209865185 14.2684701075061149
 -4.6506005886685422 36.3633105524076399 17.6710860025752226
 -4.6026081235280314 36.4132507160156749 14.3077122930971488
 -1.7218640158488443 34.7719926872822143 17.6735654742940618
 -1.6993069936604766 34.8492726873225536 14.3105832344030883
 -22.0635317763121925 45.7914189419995807 13.5693999793241638
 -4.5180052487825026 33.1284792015594363 14.2428275553679278
  6.9185607435829271 33.4176977344904387 14.2525720628340302
  9.8319641009568084 31.8259999109610909 14.1852036983368386
 12.6894284479639712 33.4944094824083649 17.5455907112770575
 12.6414528163711140 33.5260589364341612 14.1839510017752453
 15.5908747514839785 31.9013343039678894 17.4986745732019386
 15.5615524642138023 31.9168961213477544 14.1373787978858658
 37.8174242736367106 62.2558969619631526 15.9283456656472584
 37.8141380026116067 62.2508675268174301 12.5847287120933693
 -31.1219714594504389 60.6576365574889422 15.9661132760840427
 -31.0580071731528555 60.6164302213162642 12.6225569446632502
 -28.2334446150311145 59.0606636169191717 16.0764379342839234
 -28.1080785915553300 58.9869109332447934 12.7332981936905494
 -25.3419018257551443 57.4647040101355131 16.2486975931024098
 -25.1693474542297722 57.3668806367184843 12.9056253481424079
 -22.4458709589184622 55.8695453651041944 16.4640267192507928
 -22.2439998513261799 55.7586672467265601 13.1196264838486183
 -19.5444865094025637 54.2762115887969472 16.7009663585040435
 -19.3316658291621088 54.1618306678305927 13.3539738927182974
 -16.6364284871686330 52.6849441937075795 16.9391443871642835
 -16.4306623022663310 52.5747346985429402 13.5889533018102586
 -13.7215225302526722 51.0956199558249438 17.1613728119769213
 -13.5363299042351493 50.9944690420915592 13.8074259261970766
 -10.8007763992997283 49.5081293754390899 17.3562507805312585
 -10.6446629049898096 49.4194393083655470 13.9988761419919481
 -7.8754610783524432 47.9218972390960545 17.5170402651759289
 -7.7531378692062320 47.8485396151518572 14.1570181407354649
 -4.9467125313284983 46.3362523458930653 17.6393218040976052
 -4.8613183632282482 46.2801452258413590 14.2772500890976914
 -2.0154381536472261 44.7510701441560599 17.7197398602007574
 -1.9687623682345261 44.7129694124173014 14.3562267681866533
  0.9174849419331934 43.1662785029179972 17.7567640041089625
  9.7256215851745313 35.1254008928794050 14.2484405272086700
  9.7823061098832049 35.0831938042220983 17.6111078476969105
  6.8168359546182833 36.7116116082603696 14.3168620105268314
  6.8666406617756328 36.6684031046625662 17.6800070329201695
 12.7678349430143196 30.1615241008264192 17.4919871026788591
 12.7511742853400509 30.2215292837992457 14.1309130901634958
 15.6669073919736270 28.5673858244453633 17.4614266960120119
 15.6732286183220904 28.6095774913912884 14.1003834738732579
 40.7689962665514400 57.3538425388301576 16.0395486745931493
 40.8348336692951648 57.2485553649477552 12.6961342301637998
 -28.1671242961929167 55.7562741858113853 16.1799850631065816
 -28.0446487628389072 55.6279751224877330 12.8369389551259196
 -25.2717970011595021 54.1590489913952737 16.3724245852874866
 -25.1082495272113420 54.0191314573174708 13.0288520458004147
 -22.3708901171709620 52.5629110907531256 16.5966427969506043
 -22.1837855986573338 52.4219500626419830 13.2508045406773451
 -19.4639628641222302 50.9681484812684147 16.8325074790454963
 -19.2699907861261863 50.8357745927590514 13.4831432976765822
  9.8650005464641470 31.7524945077703400 17.5468956430670744
 -16.5506996619098636 49.3749669845082693 17.0612951741771894
 -13.6315793277189492 47.7829265606926015 17.2688077333866055
 -13.4658250356849010 47.6856900312427996 13.9126891646046200
 -10.7075830196036872 46.1921773655998535 17.4455175382755598
 -10.5685724034423529 46.1174652932128666 14.0864405494421323
 -7.7799852233415709 44.6023549682634410 17.5856316822442729
 -7.6721985459505628 44.5517025625400152 14.2240283781678052
 -4.8501624129175491 43.0135166546734453 17.6853981506810278
 -4.7757867894550694 42.9872102401105138 14.3222468309538140
 -1.9187740662707160 41.4258163463732458 17.7431773562257327
 -1.8796374186478826 41.4228719756284960 14.3791572358662485
  1.0132132438533743 39.8391619525196106 17.7584555465792633
  1.0168406771965501 39.8572873447866343 14.3942910968492939
  3.9428636098100260 38.2534282369801275 17.7343735968641809
  3.9146775595780183 38.2877914943432813 14.3705769948483368
 -16.3652163749080017 49.2579582992931080 13.7084560502960056
  0.9243538911552814 43.1461274713527274 14.3925271162142252
 -4.5504811362812250 33.0389852023910748 17.6051291455304977
 -7.4784883860267088 34.6342387636908384 17.5992611388722402
 -1.1848173541050016 14.8621748878533975 16.6297009813018342
 -1.2024126057490918 15.0912447503953171 13.2827757955821983
  1.7123058435893184 13.2686737847883727 16.5269484766151571
  1.7379500949390849 13.4876339781771062 13.1807411925094851
  4.6051200721764243 11.6735590053842007 16.4706769073172019
  4.6803726732976898 11.8717930051151033 13.1248866726264168
 58.8936952067135735 24.5644049750644626 17.3320415199028055
 58.8449779387159353 24.6771965672593190 13.9745164407622724
 -10.0087037305807911 22.9618902333468817 17.2320197915913162
 -10.0593717448777884 23.1160835106816336 13.8767989767392272
 -7.0876083149939655 21.3620122037129292 17.1130530138330705
 -7.1351665861358944 21.5510840569794162 13.7603619112232423
 -4.1717998299053898 19.7652285293577954 16.9841675093382669
 -4.2087078995515581 19.9798852161638827 13.6333403315033799
 -1.2629076027479491 18.1716484741738746 16.8578608295617691
 -1.2786811283224959 18.3993069137702605 13.5084736509826069
  1.6386051765638814 16.5793582677997833 16.7507939541091062
  1.6553151836041393 16.8059231565464593 13.4020000730853184
  4.5339319317573272 14.9854061590934435 16.6785164070979519
  4.5922183255719746 15.1984476808035662 13.3304696409755135
  7.4262492735908801 13.3900836986861869 16.6517458250073496
  7.5299360020637343 13.5803382151475081 13.3037426297559733
 55.8662378953206300 29.4848488048954742 17.4506769960557442
 55.8586632463063424 29.5191813912189929 14.0901423744770167
 -13.0323809175146579 27.8799195028936673 17.4217315216429611
 -13.0472724426653102 27.9599658629971017 14.0623781491071416
 -10.1051458709924411 26.2768674542793299 17.3650837639433497
 -10.1255461578578529 26.4002354616304586 14.0071379374309526
 -7.1806951093076679 24.6763843117030532 17.2841583773911474
 -4.1382777168472202 16.6807291298438116 13.4180629867250261
 -4.0883806934438800 16.4552587024215029 16.7656377581825424
 -7.0692263196816532 18.2587333884445151 13.5687303556402021
 -6.9991753460373021 18.0507909356707827 16.9180326261649192
 70.9131116786243041  1.6455357206859194 15.9587720562957589
 70.9057709078377769  1.7103795063585219 12.6152012380541265
 67.9579987176374516  6.5435875878112828 16.1591664725309592
 67.8875711258170469  6.6992709720368717 12.8160548541100638
 -0.9774304162844649  4.9479396583433859 16.0559730235554312
 -0.9883709229578473  5.0773589672954742 12.7124970756918465
  1.9116551706344205  3.3514220670760371 16.0202657387336842
  1.9651133591145094  3.4462769772067419 12.6765017295611280
 64.9894009184933736 11.4399767800885979 16.5039555614875049
 64.8834194950488694 11.6419377765621306 13.1590766541645916
 -3.9379822249662402  9.8455070527336428 16.3351557042259827
 -4.0042110010955874 10.0429565567456702 12.9913803689044922
 -1.0431261840700141  8.2509518773205084 16.2108567391163803
 -1.0570598650960981  8.4310586094090318 12.8672814638891424
 -7.2038005133046941 24.8382028477800532 13.9281333902656019
  1.8483846456318174  6.6552715633622297 16.1446803611209866
 61.9998547862704541 16.3406068309967409 16.8888865354743487
 61.8924830524390615 16.5336865201223446 13.5398952499823899
 -6.9158141534362185 14.7435423873648297 16.7097478617666511
 -7.0056046927276245 14.9572711138657706 13.3629610112079309
 -4.0107329285766884 13.1489520649723115 16.5435342225487965
 -4.0701545286524263 13.3697761254946634 13.1980819955297619
 -1.1118867098535050 11.5555404064981495 16.4081419240227575
 -1.1284045609543678 11.7690288950616964 13.0635420173655330
  1.7820979355789528  9.9608895287728245 16.3191729419303719
  1.8174549544492093 10.1552755633526530 12.9747155298035235
  4.6728476296787482  8.3651284049036363 16.2869494975947156
  4.7639534575359557  8.5310840164964059 12.9422184092133801
 -9.9157983415866227 19.6496810317032029 17.0706746855017677
 -9.9958570532269420 19.8281639350738779 13.7185404931131849
  1.8932970539480394  6.8078941696605444 12.8006404049326115
 -7.4266428378216558 34.6904603752881613 14.2370312617639705
 -4.2607298408418659 23.0790656058906194 17.1851195381688733
 -1.3468159369379913 21.4850040115074954 17.0773384569463538
 -16.0998896003721335 36.0849431436543497 14.0758072280327262
 -13.2337485051668367 34.5141336320533156 17.4983231933466392
 -13.1816296741800425 34.5260296692891586 14.1374890984513364
 -10.3049907590426226 32.9123295813379499 17.5296494863999328
 -10.2646410720504537 32.9667682030996048 14.1686772464880306
 -7.3773222619131440 31.3130542577911832 17.5299699658582391
 -7.3493533939275215 31.4065042086273145 14.1689555594773182
 -4.4514253045587981 29.7165430345055768 17.5003416821402311
 -4.4361478111306356 29.8439530926624066 14.1401714806948959
 -1.5287740566750256 28.1229713053933743 17.4448591737165870
 -1.5240231430261062 28.2768051514826801 14.0856067129832354
  1.3887147754450844 26.5324677072752948 17.3709920163992280
  1.3896766928579904 26.7029107576223410 14.0130986566618390
  4.2996288298254370 24.9440261933640492 17.2922291677105342
  4.3073067776063327 25.1190065633613955 13.9350881094440755
  7.2026449182596997 23.3539865541177747 17.2247533118908613
  7.2297439907833736 23.5213625392440733 13.8686667369850785
 10.1002990686099388 21.7605408311735182 17.1836050240635210
 10.1557836198678988 21.9118758618509553 13.8281494127437465
 -22.1110663142307544 42.6386810513536147 17.0800226223899436
 -22.0028949533974796 42.4946596591576480 13.7267690806404588
 -19.1885844580322953 41.0360556875242395 17.2416509452182822
 -19.0828171544441858 40.9310512612498698 13.8855317307175703
 -16.2629637904894437 39.4336623137503608 17.3785131417814824
 -16.1655998995382291 39.3701795372364884 14.0198381453303291
 -13.3353131948466910 37.8319940690438017 17.4854248890870423
 -13.2506442295368938 37.8108692394018817 14.1248401904302163
 -10.4070240070918842 36.2319915022548429 17.5593470284252327
 -10.3375738668175572 36.2510723148385452 14.1975178604753740
 -16.1628583191606054 36.1174069115035223 17.4354823040333535
 -19.0193613216473096 37.6445108477532031 13.9839586041535053
 -19.0905740943304920 37.7219435206989857 17.3424255806878982
 49.8865885858956375 39.2054473427141517 13.8655538452344942
 -1.3576463272037611 21.6972876861233814 13.7248086664087605
  1.5599976942043154 19.8934133023614663 16.9747293964880512
  1.5693271666531605 20.1124740832449191 13.6229974175986150
  4.4594678253967031 18.3015178145222102 16.8938218761431216
  4.5001600608273487 18.5136546109367650 13.5427717939299725
  7.3543010266332560 16.7072341028768463 16.8482292687570734
  7.4331636301060371 16.9017807421292581 13.4978663079207397
 52.8362995123682140 34.4065769454081973 17.4126117635654651
 52.8722424094340440 34.3606961489876426 14.0526184239124667
 -16.0621321167179048 32.8011756814551276 17.4600576846265803
 -16.0341593004134921 32.8016111556593515 14.0995801790784370
 -13.1326038823628597 31.1966866588219354 17.4773122132027332
 -13.1138061383184521 31.2426571349374740 14.1169680910354476
 -10.2040748512336172 29.5938723109074786 17.4647814737106692
 -4.2815773164960191 23.2714259438892626 13.8310044076452598
 -10.1940754870307710 29.6832990194695228 14.1049623976529901
 -7.2752484959702972 28.1226793299770712 14.0655290119707459
 -4.3544125790756771 26.3962958679399264 17.3592006930354650
 -4.3575027973232840 26.5586725965542634 14.0018316454757290
 -1.4358561824377833 24.8022323738930162 17.2758632882364012
 -1.4394092425587617 24.9888583092517749 13.9197811125328901
  1.4765562685641316 23.2112045718778504 17.1851191453241974
  1.4806704642858850 23.4104473592654401 13.8303324329766362
  4.3814304388994145 21.6211525991769911 17.1023531853846400
  4.4046408898187730 21.8197690749250732 13.7480662413136780
  7.2798718951190580 20.0287439952404043 17.0432164983673751
  7.3327585155640982 20.2148203215895101 13.6900247573776070
 10.1748564965031942 18.4341267135941607 17.0188265787692323
 10.2621723762270456 18.6002115224887703 13.6659637793399149
 49.8113746927123557 39.3263878737228509 17.2216419046717633
 -7.2776424314768438 27.9937045638189126 17.4243960956725346
  3.8494174087566932 41.5815659720305106 17.7512897746375451
 -1.8202433796884112 38.0988362402046192 17.7286583638321105
  9.5222717839754178 45.0645026897305101 17.6119803184392829
 -7.9671306834731306 57.8065102204967403 13.9288271803892361
 -16.7150505855353799 55.9936122490493986 16.8314213522520362
 -16.4933557171749143 55.9043579077756903 13.4833979111199724
 -8.1229828210303143 57.8575573534262659 17.2843922312037535
  4.9158299717508749  1.8112088516286389 12.7126990317394988
  4.7993263177816745  1.7547972652810895 16.0567585768201049
  9.4220702438897490 45.0165083996149917 14.2503981162344768
 -13.8042110586704379 54.4059337351356476 17.0582168603934434
 -13.6027643243450314 54.3163433202587100 13.7066296854494354
 -10.8452174539046720 59.3958257849395750 13.7614552668499925
 -11.0395958600729358 59.4385951998181739 17.1139765200271974
 12.3236061886185553 43.4316157516828554 14.1752619659545367
 -10.8872903313337801 52.8203715295622374 17.2614144509284237
 21.1835665144649496 35.3039277141164263 14.0516176808951201
 12.4428812808025118 43.4811987531310606 17.5355029818632140
  7.6875043430679888  0.1596994388405324 16.1617006427371948
 -5.2019755613483056 56.2780467386152239 17.4218528837547169
 -19.3927527809980802 57.5005259922308909 13.2495389367839671
  0.6486301950322986 53.1215993748695041 17.5883215599008658
 -25.4073626102179908 60.7693906401679982 16.1751208745662751
  6.5949915582780818 46.6469926937963848 17.6646919846222197
 -25.2323308484975577 60.7268861625960454 12.8318316616709627
 -22.3694964203888240 62.4666107470622336 12.9802962391570507
 -2.2114001762687563 54.6358648120921941 14.1632300938339739
  6.5275461238020593 46.5938854780500904 14.3019891414218687
 -22.5801262430821410 62.4804434041141974 16.3238717833184310
 -22.5152155070066797 59.1757414050972059 16.3687982733000901
 -2.2775898076957923 54.6996986671550403 17.5234529369863239
 -22.3051792026495939 59.1077802479960965 13.0250084457232091
  7.8584046062509092  0.1790764255752939 12.8179407331671360
 -19.6184029724399487 57.5835233816829870 16.5950517194633811
 -5.0900529429564720 56.2200462729946224 14.0636880450484512
  4.8426633362397595  5.1763646833105543 12.7998263503500258
 -10.7161511037856148 52.7340238805851413 13.9062392346693233
 -13.7272200956713721 60.9902969446224219 13.5687853930377056
 21.2371457040214331 35.3786567252158903 17.4110779561228384
 -7.9651910618611925 51.2369785304144258 17.4333952413589905
  0.8344839838237479 46.4392790283435133 14.3563288931378601
 10.7180376310443926  1.9140367237778277 12.9926376515459499
 10.5145254831868620  1.8711078847728093 16.3363539314255242
 21.1615001863709367 38.7106096728503388 17.3354059991066478
 12.4264921967129052 40.1305092973909083 14.2053159549334183
 12.5270424389652089 40.1550951270046070 17.5666186089962935
  3.7560524927300420 44.9071759459937283 17.7313246233208268
  7.7858923155227879  3.5432510804738278 12.8663672365673438
  3.7260677734108945 44.8699360793415494 14.3674983801493834
 21.0721323098689055 38.6132957284388354 13.9776711141214207
  7.6249678590555030  3.4641096086626439 16.2103206182021324
  6.6859797277799640 43.3237924061435891 17.7026847441328954
  9.5195846615572481 41.7188805480820974 14.2801375689633527
  6.6203862350788762 43.2975725890806302 14.3393242603497910
  4.7371292510213463  5.0591046529660213 16.1440426888336361
  0.8234715079256576 46.4899813412663008 17.7199103021540587
 -19.6867575524399676 60.8894886983168675 16.5273538716651416
 15.4356641080183437 38.5665624568468104 17.4933010383491023
 -2.0552006588982792 48.0093774733355545 14.3031659706097933
 15.3555079890800368 41.8953009317381131 17.4531588219785796
 -13.9503713866713035 61.0217924353104024 16.9180219326520813
 -7.8300600622005856 51.1561622109836307 14.0750515603751651
 15.2337560608005536 41.8355228740176628 14.0944228319204274
 18.2608039746390354 36.9189979503277357 14.0790546014738940
 -16.6177274201677996 62.5921356067806229 13.3630424545064965
 -5.0386719290989168 49.6547335088610353 17.5693697176809351
 18.3380014990420896 36.9737265084221747 17.4385224805801791
 -4.9432321296904735 49.5815316921992277 14.2085677970268272
 -16.8543839510239160 62.6068485037282372 16.7097226973618547
 -2.1087752603629526 48.0724719208349285 17.6656787005885896
 13.6366215750029927  0.2914266347170540 13.1638424653274448
 15.3409738510862130 38.5296158701855873 14.1335774130546650
 18.2609020988229389 40.3046813411682763 17.3824279252735181
 18.1508522243726240 40.2278718673528601 14.0246823909473299
 13.4067395911551941  0.2808849725936140 16.5086729153157137
  0.6695219089976164 53.0536638930356972 14.2265687161532046
  9.6103525441054458 41.7400008581042883 17.6425136250661190
 15.2740813507298743 45.2195688151397519 17.3920554210317846
 15.4506824955518756 35.2234230939564767 14.1483831978819019
 15.1302129225828939 45.1420574248820046 14.0345065915063625
 -16.7871823105815245 59.3009587087195698 16.7512604558509963
 12.2255474468604852 46.7345477291530926 14.1225407927487545
 -16.5547291925923759 59.2445727269927573 13.4042841931576682
  6.7170188629691561 40.0043021631242226 14.3456799711169882
 -8.0476202021610135 54.5482529346506766 17.3511446096674611
  6.5061822718281004 49.9646638903244096 17.6045060416569790
 18.3721003634089932 33.6108697588435774 14.1105948745106318
  9.3294586240392938 48.3181867982108457 14.1966898218049895
 -2.1966171125895451 51.3884925682380569 17.5946147958132428
  9.6212365833216058 38.4225049617351715 14.2801720902363609
 15.5140037563779121 35.2348161781972848 17.5091678196778666
 -10.7823206277350714 56.0608292509665986 13.8233945483620708
 18.4141585535379484 33.6406328673875237 17.4712643681686082
  6.4392628177127023 49.8966219863825842 14.2425489102024301
  0.7488220901204147 49.7406556161579658 14.2957291322623004
  9.4344867563108803 48.3845091737436448 17.5573654947769171
  9.6972450391313085 38.4126204902510366 17.6429578090741614
  0.7330454918145337 49.8084424510648418 17.6585052850580020
 12.6093479999781586 36.8259111829800361 17.5704976222836606
  3.5528581977221028 51.4741292598574560 14.2529882192306356
  1.9735737768156603  0.0479566543669843 15.9590184899137739
 -13.6655101809959199 57.6493838818631446 13.6233864810363556
 -28.1733635791173924 62.3550378149692790 12.6900969602763656
 -10.9663896285875389 56.1302486898347794 17.1766642897825932
 18.1828753687993157 43.6319321449446917 17.3063276109915876
 12.5328667624606656 36.8288957451362009 14.2087927951833741
  3.8190726088651501 41.5778209515415398 14.3871877807561255
 -28.2964480338291899 62.3645101600726335 16.0337063309359209
 -2.1365270754806445 51.3163922226836320 14.2330236828256478
  3.6368034920300460 48.1673031508807057 14.3185204806980906
 -19.4549304348165109 60.8496419388524430 13.1823939660390543
  3.6642656549563140 48.2282786227714553 17.6817148398701889
  3.5767547666523525 51.5434572357837482 17.6155520911981007
 12.3578754599196152 46.8031350002085560 17.4815661062999972
 -7.9011652637943479 54.4763828462736583 13.9945956449822368
  2.0333675678087406  0.0754568128132752 12.6154726049100052
 -5.0195541683057074 52.8950400857516811 14.1321375439932027
  6.7769219380727028 39.9970167634142939 17.7092170819323407
 -5.1239625518345440 52.9681123287123370 17.4913938818023880
 -13.8800480606243593 57.7145884275418695 16.9733662954281961
 24.6632924888032043 48.6963404939045788 15.1296708281697523
 16.2023396946913785 43.5460285122244315 15.7083519598495958
 54.1071689843053960 22.8581595127482302 15.6953633458748971
 27.9391361990871978 33.8140497409712566 15.7103100993619567
 28.7951705123388386  0.6616841983822060 15.7022642525475113
 57.0296876074790617 21.2767344875932380 15.5786612700579177
 59.9518752827421366 19.6947035714859453 15.4383372914413375
 -9.2795576876912627 31.3131971140219960 15.8320457627592823
 54.1871472269590626 19.5576652640551494 15.6094420440247017
 -12.2021020635804653 32.8937048740438840 15.8251155689223921
 42.3344925164426158 32.4868796089997289 15.7443557212804439
 20.1028069700659060  5.4257820856132994 15.3307253817996134
 39.4154332499968660 34.0702277840735235 15.6769221450086018
 63.0147698363119844 11.4989063774954694 14.8910044654128217
  8.3052585997581438 18.4840964339138090 15.2909822915853901
 22.0232552182756010 40.3431342417236891 15.5810992806839081
 36.4982435366647877 35.6560536147047173 15.5958103648540618
 65.9328320409610598  9.9044532084715886 14.7004639089096951
 -18.0497033478616338 36.0565888818607689 15.7196999384935996
  2.2996359702997879 28.2958507996911344 15.7763062671426511
 33.5824634122895702 37.2465119947450916 15.5150016940083351
 23.0010589070535154  3.8344742405172094 15.4762408849842235
 27.5759480610665229 47.0869532658510579 15.0755092468932439
 30.6681298622103178 38.8446315373949034 15.4519303199143110
 25.0276499980968623 35.4173931253221781 15.6783625054489129
 -4.1552561131543539 54.6142956214508928 15.8037300043306583
 -15.1255996624608251 34.4747211113443157 15.7876759247258995
 19.1128374259613700 41.9474025891597933 15.6328024862941746
 27.7547617670354754 40.4493862179722541 15.4200997138548104
 25.8981174115464725  2.2468609929971417 15.6037627043450353
  5.2127040857010405 26.7105108228810728 15.7015801431587771
 30.8514285431324602 32.2167871386862359 15.7670630285694813
 -3.5304106849877397 31.4568894179660070 15.8876107197841190
 -6.3588977486039555 29.7333751926038516 15.8096641780199665
 30.7592507293677038 35.5302613523203590 15.6220483070385630
  8.2156942409519385 21.8015673182147829 15.4726416804699891
  7.2327386254302546 58.2421586956197430 15.7570595361811510
 45.4292991338159950 24.3006064862109810 15.9049164385869197
 27.8465213688523612 37.1314518218774410 15.5757560281461611
  1.6542078089887626 51.4559171324032576 15.9464567954736669
 11.1272133359058429 20.1978679301717854 15.4480564342060056
 24.9345864761445704 38.7370030911708696 15.5611033553466083
  7.4716773105183085 48.3007923438480731 15.9363064224758038
 10.1331924580236681 56.6595144217426920 15.6868512094465036
 48.3481232907185259 22.7197811964722582 15.8400582530941190
 62.9458339265001854 14.8074675728843825 15.0861694497962340
 -12.2881496714620511 36.1948816780876257 15.8380484613796728
 15.9386263625947677 53.4900971622066947 15.4667854642128635
 -21.0537433724544307 40.9390442257725482 15.5040274136612997
 51.2675301350853303 21.1388595804622064 15.7406168308100725
 60.0263374541760797 16.3929496979258857 15.2738190043935411
 -18.1317214470769912 39.3565499563523886 15.6440404019336743
 57.1069320705610650 17.9759789492681499 15.4515415137752328
 -15.2097280543588500 37.7754163595057761 15.7566488289364326
 13.0350627297509956 55.0760343538691330 15.5872788885326603
 -9.3674306259995301 34.6151075750797688 15.8872250361006255
 18.8444714237302087 51.8993138610586584 15.3392070578538426
 10.3816125582320371 46.7207751689334003 15.8774976598780118
 33.6730419184758603 33.9367688682809359 15.6900368465408402
 51.1847855397568949 24.4396667733309805 15.7835494583857869
 -1.4649279478982609 62.9912517597552934 15.7669103456460906
 33.7645955253303498 30.6273372478634478 15.8348345340538277
 48.2628723753514066 26.0214816021255437 15.8401622286037291
 -1.2516744664260264 53.0344367407022403 15.8937534425281495
 -3.4403213280939271 28.1533460835269516 15.7603230739157247
  4.5621687549866001 49.8785645703763691 15.9605630357446735
 36.6789591802158697 29.0429600856479162 15.8943004575963176
 45.3418294903955186 27.6030458001951580 15.8647454047322398
 13.2918428640410422 45.1366158091308733 15.7956255144598021
 -0.6145985735567324 29.8772482449934671 15.8426293212593325
 -0.5240065668805444 26.5721516184497268 15.6893849948836586
 42.4220462020631643 29.1844595910054814 15.8579032089689242
  1.4338095468909526 61.4078692014893477 15.7971992482993624
 39.5041088372077951 30.7662648007896777 15.8217669326612711
 39.5945732357788032 27.4613541468657054 15.9304459723605643
  2.3908786132207207 24.9882671794839233 15.6073764366837260
 -6.4479889005160436 33.0357533924272744 15.9035714190760338
 36.5878558275049457 32.3497431130411925 15.7621433091611198
  4.3330497263951795 59.8249817164634123 15.7940100278106090
 42.5113690589357063 25.8808779303857186 15.9348917309817875
  5.3036933492937921 23.3988735768809768 15.5294835343447151
 21.7527516398636678 50.3015605816368421 15.2216792406948560
  1.8303593188520033 44.8366544653269870 16.0649667329122323
 36.4103261723494853 38.9624927501484919 15.4011030747914290
 45.2554299808234859 30.9044580928069870 15.7887898113993472
 20.1731175700649423  2.1018755714491939 15.2911944524936150
 -6.0336010223787477 16.5253554558946760 15.1187592673355340
 44.9301162474078666 44.1093522215053255 15.1700721005322059
  4.4792794636991440 53.1902496737922519 15.8921184367573183
 42.0084454632654243 45.6990557273931586 15.0014144444558717
 -3.1139693264946033 14.9360142995720064 14.9650143453862121
 23.0693052059817987  0.5113921947117395 15.4559193053140209
 39.0870720691206230 47.2943562689436376 14.8548164629805193
 -0.1952922394099256 13.3409993289414146 14.8380944622609992
 36.1661314026132672 48.8972258629113412 14.7486522956283128
  1.5751079818135034 54.7699741086033711 15.8786895244022741
 -7.1922357174094929 62.8381296108192373 15.5981223444066011
 33.2456703054431983 50.5063974202969845 14.6953092886859960
 47.8516987333212143 42.5230931255282343 15.3426646594020877
  2.7229616500625462 11.7386208662779108 14.7539457706446040
  5.6399450382299197 10.1300193909095295 14.7228832142888546
 47.9301676029684955 39.2221746459565637 15.5014973661008693
 -4.2955837520584419 61.2536421874365118 15.7088373983072351
 -1.3270512391021199 56.3508216220071034 15.8293317841323766
 45.0075884594333360 40.8065413192461790 15.3624035825507921
 -9.0305486112840470 21.4122227937164205 15.4618092409291066
 42.0855175853072794 42.3931535715355636 15.2161213338573216
 -1.3973820010793019 59.6702015820732399 15.7848059804786853
 -6.1091436049661221 19.8288097540499031 15.3279913674932455
 39.1643507952069214 43.9838754215781975 15.0773487602668581
 -4.2274284528962411 57.9327358155705667 15.7443891838895791
 36.2438989506830254 45.5813020001328155 14.9646101147852946
 -3.1893754042661611 18.2432419269418702 15.1906937536554167
 50.8538536835583912 37.6390149786920958 15.6229205406470673
 -8.9542874589887731 18.1111442461132839 15.2814573857321321
 33.1705725316362745 53.8320968653087704 14.5253035237796038
 17.2749803330342893  3.6976178927595318 15.1192483339632346
 21.9310900593416669 43.6630466959683687 15.4680870700907747
 41.7977950012518136 55.6542924702118000 14.4399057017034096
  0.0126566164303849  3.3642920282978497 14.3181742068843540
 16.1112252657454000 46.8608442944912156 15.6329882770846087
 38.8761643999306372 57.2657850151245000 14.3319558777467311
 -2.9746074200708477  8.3037720848738132 14.5466428135350867
 35.9534774267265433 58.8817353670353398 14.2959838209973604
 24.8420981810458095 42.0566333940048764 15.4255913907690179
 44.7847670691945794 50.7280708362356805 14.7766143798432132
 -0.0535026907348870  6.6967685427077885 14.4467691801059726
 13.2019310341027598 48.4488857611597368 15.7296260453704448
 41.8652038271508573 52.3282517423362137 14.5965407914250083
  8.5543636348054370  8.5184095534321855 14.7501369984467754
  2.8667812172018357  5.0842760831481471 14.4115053648147491
 38.9433053313096309 53.9351564538248098 14.4653333815878948
 36.0206079885946266 55.5476790472571125 14.3976361773877617
 -5.9622118938725563 13.2180994197529937 14.9035671480086567
 11.4656986073608316  6.9074192803972627 14.8327923787434734
 47.7759354433600336 45.8265957872047878 15.1663869998144900
 10.2932529399387516 50.0316669337309108 15.8132172241942772
 -3.0427470767644307 11.6235825632103982 14.7442687903303913
 44.8558540355505428 47.4156258556578223 14.9694421022328878
 14.3730097754814512  5.2996963072253633 14.9604172815667482
 41.9351561239192492 49.0099761164460617 14.7890770367348754
 -0.1227419752274266 10.0224045750967043 14.6259748362711690
 39.0134101418441048 50.6113762251084580 14.6452671219315214
  7.3854052348610244 51.6114529931912571 15.8696550856502743
  2.7968450461965948  8.4145488809263309 14.5620502715117777
 36.0914378965245746 52.2192544846042637 14.5540923253908456
  1.5023736592938697 58.0878039785743852 15.8259543148306623
 33.3248389745620557 47.1861470684863278 14.8942483856913679
 -0.2712554480492306 16.6532240329502699 15.0655911386889816
 30.4068844642337197 48.7961941672183812 14.8748744658642664
 21.8404633441023535 46.9825619690724778 15.3451636907830959
  8.3921642881350262 15.1651036739676250 15.1009739661419733
 42.2490175322878798 35.7885505840110341 15.5964966155035754
 14.4433562036217857  1.9712776515623576 14.9054968710623097
 39.3288578936736783 37.3738955152986563 15.4998384277656633
 -15.0418481827234043 31.1749864391043694 15.7854487794004505
 24.7513447394932342 45.3761789319214728 15.2785681082704894
  8.1242912781930556 25.1178383559026308 15.6359325980901769
 -12.1172453265636495 29.5932540290283690 15.7778278799806717
 33.4936380166073349 40.5574016104946438 15.3171281283221852
 11.5387221417027117  3.5777492021805601 14.7427349193996164
  8.4755315781163532 11.8436274445544925 14.9151671995391109
 30.5784828776569597 42.1601517565378572 15.2638942110130493
 -9.1938425914659039 28.0123962268362021 15.7418295453032915
 27.6641457318563404 43.7677041171482770 15.2501378997642938
 -6.2723558291976280 26.4317128353880086 15.6803160806709947
 59.8739691969884831 22.9945004663396588 15.5814488601579786
 11.3872289406552145 10.2334235131907718 14.9643712932193136
  8.6286029343907007  5.1885677627781508 14.6231036772614669
 56.9500768436076328 24.5763919644714761 15.6794425337766725
 -3.3529498491646041 24.8503897785558081 15.5979687169551795
 54.0257300766072603 26.1581170324115071 15.7509670920019857
 14.2963915657399738  8.6253065859603151 15.0577771688685260
 -0.4358852564565054 23.2671268499508983 15.5035233308614782
 51.1015223023613672 27.7401145086202554 15.7933487382017947
  5.7142647147794001  6.8019738476494318 14.5604035510838159
 48.1779472134698707 29.3222197021109778 15.8058344083795657
  2.4792351149579628 21.6799162060179711 15.4100991096329452
 17.2017700617219198  7.0222436092418770 15.1847747194467892
 45.1705762117498111 34.2050429855750835 15.6779888137322327
  5.3925300924834261 20.0858813598007693 15.3344951800604381
  5.4785399167808100 16.7706760730290050 15.1263186913063752
 18.9309449914835071 48.5826532896684782 15.4395828959966170
  4.4032740810228219 56.5059324848114741 15.8325795224112209
 53.8603833675453387 32.7571927945331396 15.7633292047184099
  2.6452736777108301 15.0565657265897297 14.9699489006207465
 -7.1254962676329479 59.5160488559064333 15.6238230778709202
 50.9355045843035583 34.3397106807265757 15.7122139162886860
  5.5612847347785017 13.4526242078281655 14.9173265894445120
 48.0110636951022158 35.9222488120179690 15.6345753838682686
  7.3056125727129206 54.9247670306024105 15.8047387613199675
 45.0877656431637845 37.5055366138424233 15.5344059147066815
 -12.0341382017851881 26.2937070279015117 15.6961440839091662
 -10.0221436151414665 61.1014051193443350 15.4697074624108950
 42.1658144566596462 39.0902637852675667 15.4180567485732478
 10.2098297760860373 53.3439369396789473 15.7441892987104026
 -9.1105915178360011 24.7122973105983483 15.6174290663475048
 39.2449563852570122 40.6777791132926225 15.2968262200544114
 36.3254279373135915 42.2703461292589679 15.1868108922832086
 -6.1888032492791556 23.1305120511951898 15.5179633274971156
 13.1156614694133768 51.7614859054411127 15.6553608568826235
 33.4075126389265336 43.8703442093034752 15.1062223516158163
 -12.9179618153833378 62.6904610487511675 15.2891421650018202
 -3.2691996752132630 21.5472922983190998 15.4055598995559553
 30.4911955160591539 45.4770134300028559 15.0674224846114093
 16.0227528993991584 50.1750419725275449 15.5485781753610457
 56.8684131296107722 27.8756669053195552 15.7491664107147393
 -0.3514705654359991 19.9613237142638802 15.2920958956659003
 53.9434541575211028 29.4578571708302022 15.7737867804586589
 17.3428467460473072  0.3706534099660453 15.0946649547761105
  2.5641788779620835 18.3698530382767302 15.1934806897816976
 51.0180807210687064 31.0401473829757855 15.7694630097379616
 48.0938853002561189 32.6224303789378993 15.7368425178597953
 11.3040023583093792 13.5564680736106506 15.1211935693137711
 25.8276933533776010  5.5677560540908608 15.6389904644542241
 -7.0564597115762284 56.1956142525654769 15.6771326564272577
 15.7901091048488773 60.1285569752919926 15.3689817130936515
 27.2016303105965775 63.7200330690456340 14.6091878048421879
 -21.3524966536249998 54.1744048346065625 14.9058847586513021
 -15.6833095903934616 57.6328383944344935 15.1743445318701298
 57.4517759953332572  1.4084683035029280 14.8150249280987847
 18.6896184872934050 58.5380141646234833 15.1984486796880791
 -18.4456530941543946 52.5827192261288801 15.1459665073716643
 54.5486884752596453  3.0033850478484490 15.0409277141550390
 51.6479571937605613  4.5929777225574675 15.2656953579044394
 -15.5398047464885067 50.9963871327540943 15.3779358391832872
 21.5924372955178363 56.9423723249597629 15.0289582875086030
 48.7477123314881950  6.1784849118815020 15.4730688926401410
 -18.5827725034884281 59.2266117560124457 14.9436451872329652
 -12.6332633729595862 49.4140311394607608 15.5875947466821092
 45.8463593126140196  7.7613924625948396 15.6529351291086893
 24.5000334389967911 55.3403371639353239 14.8797758496071868
 42.9431545791383655  9.3425278635382192 15.7991309632620993
 -9.7249193590602161 47.8345101011594238 15.7661389020947222
 40.0378640060582072 10.9225012671647992 15.9080458380690946
 -21.4850801953958310 60.8271694731815131 14.7218124553573961
 -6.8147580739976918 46.2567741440569122 15.9081315742254628
 37.1308351688303020 12.5014859383329551 15.9772990331258633
 27.4119880359231054 53.7315767083435816 14.7662326929890249
 34.2219517899699071 14.0801503814557663 16.0049781747960118
 -3.9029555514313996 44.6803470390545030 16.0098073133391487
 31.3122023228566242 15.6596181867197437 15.9913342022749241
 30.3272034129709347 52.1189465149916415 14.7014128911414090
 -0.9899513650372960 43.1045203799495837 16.0690287292058436
 28.4022645382169259 17.2419831758868725 15.9415975739476927
 30.1146552677524966 62.1117592639433767 14.4435110547056773
 -24.2624771774989156 55.7722890797613289 14.6768652145114640
 33.0324013807081371 60.4983753717751114 14.3349012177683459
 -12.7844959423383742 56.0443760249231318 15.3934635282019823
 -0.8960134410398191 39.7971426595499977 16.0724128339338570
 31.5557866703088052  5.7183661560050618 15.8169907149921194
 48.6764413653786789  9.4942007205459653 15.5605722413833547
  2.0180926173898515 38.2204245402173868 16.0667540095951544
 45.7712516332020343 11.0750950109778596 15.7356076972087084
 -4.0771447212025169 51.2996687256287487 15.8778438609808479
 34.4562576784613697  4.1355747555429732 15.8268153759680210
 42.8641197637294908 12.6545448422712852 15.8749537630979773
  4.9313545184059135 36.6417751534414933 16.0254542183681110
 39.9549140696058487 14.2333628339518761 15.9743677850500472
  7.8436930997775312 35.0593465739113839 15.9611579509289960
 37.0445231567884434 15.8116297896126810 16.0310533805971360
 37.3561079801114317  2.5526980781958546 15.8017939312489570
 -6.9821911537426553 52.8786342497956312 15.7506572076726243
 -24.3926324665118237 62.4344814586691328 14.5316133536931211
 34.1330916852742163 17.3900577935328648 16.0444610470188174
 31.2219644799961884 18.9704772468200176 16.0172212426641352
 40.2549502970128614  0.9698233987332232 15.7426587245221956
 13.6654066657141851 31.8736005380617513 15.8346145433901704
 28.3110699389804026 20.5545992392121875 15.9589771110779033
 -9.8845160709763071 54.4598363233073712 15.5878317647651858
 25.4005341435805612 22.1447346556460403 15.8876002127569240
 16.5758408635982448 30.2708258824790910 15.8013673663939596
  9.9950134951814178 63.2997818909041783 15.6492202265840543
 22.4897865062565252 23.7419820427639436 15.8224833531900053
 -30.0949028997254473 58.9870525380765969 14.3344375154317003
 19.5794857677453784 25.3448888259524949 15.7778119071836276
 12.8923450002063174 61.7153404528631100 15.5228377280832017
 16.6695335875456152 26.9499081256903317 15.7617490463761065
 -27.1765936670129129 57.3766920659288289 14.4792151664909685
 10.7549017964458429 33.4707240010790841 15.8915956674809298
 51.5798256290581989  7.9111156776037257 15.3556622079241549
 25.4924171900705652 18.8292604367966412 15.8695902130036934
 14.0373922730051337 18.5916581371021046 15.4605795659937808
 -21.4197552916633995 57.4982127836005148 14.7930065788967742
 13.4776404962217704 38.5087359709918360 15.8676573109058143
 31.3992030474552912 12.3482504704915623 15.9389619769926547
 34.3842725367644704  7.4537525483222087 15.8790527201771496
 -18.5160003583765445 55.9019811423438711 15.0298034087351695
 28.4910091298181776 13.9296415362312604 15.8970414727053111
 25.5822672967197811 15.5148991139123620 15.8266039259581461
 -15.6141075495947366 54.3119463363530528 15.2662583163665015
 37.2861659282835376  5.8721234690052206 15.8469521232634243
 22.6734285400734166 17.1059050763534160 15.7439798872413128
 10.5665588142513833 40.0983223325798406 15.9433954920262497
 -12.7119353019197110 52.7266486803399772 15.4850376010022206
 19.7642326024939514 18.7038556342187015 15.6678914370556956
 40.1867456662391334  4.2901171570032473 15.7790905207299588
 16.8551546050265912 20.3071621094354136 15.6122480207210383
 -9.8078619798707276 51.1448888352123348 15.6758843864609023
 13.9458391069600633 21.9127664324773406 15.5863508077306498
  7.6549161578769338 41.6813680038516381 16.0127159597038506
 -6.9014130052500162 49.5660103090656250 15.8330794812684221
 30.2522455554135874 55.4465329649285010 14.5631962378171327
 43.0856914330225749  2.7072335358883084 15.6757549259889579
 27.3374732449820748 57.0587842292876815 14.6619186296980679
 -3.9926819872350849 47.9888382569556313 15.9523503846877794
 24.4269026935278113 58.6661146698310532 14.8081723255103395
 45.9834265461547318  1.1231771291037236 15.5379995099262338
 -1.0818354558941903 46.4125259686776914 16.0302489243295021
 21.5218301592200199 60.2669909033387867 14.9872888215125535
  4.7428808093589341 43.2602538732880291 16.0572910937923901
 18.6212475097085104 61.8614481122116047 15.1814059640269718
 34.3063778968603259 10.7684187069926800 15.9439037632579481
 31.4808850756531697  9.0349404184239557 15.8748468840111272
 37.2114733542181781  9.1887041953791311 15.9099633384016297
 -24.3278966002933821 59.1012900255560751 14.5769800931865188
 22.5823134768032823 20.4233601963904903 15.7946424646914956
  4.8367149017880964 39.9512745670954814 16.0603432227031355
 19.6722824316577700 22.0239695336457046 15.7337243074158302
  5.8516345630070443  0.1331529393113430 14.3923075424998821
 16.9463827364629616 16.9860229397862810 15.5090989765190237
 16.7627176582732922 23.6286250836289007 15.6979730076605026
  7.7490903931007296 38.3708927246340181 16.0044165576300834
 33.0995379533535825 57.1633518164428693 14.4007763470185974
 10.6607297151851395 36.7853527273064387 15.9330916992283296
 30.1816212468073708 58.7781567300032251 14.4739305295396097
 19.8548121010929286 15.3845482076577280 15.5847862973885594
  2.9335492726096910  1.7487843685482414 14.3184885157478501
 27.2676495079046930 60.3888762335034031 14.6070752207385492
 13.5716495429267763 35.1920140915946078 15.8650009390689082
  1.9235746923374419 41.5286103881111899 16.0849032456430052
 24.3589182123902539 61.9942429573963949 14.7852143384122972
 16.4821604239321324 33.5912197314749221 15.8152620679745279
 21.4556758909331613 63.5926101339783401 14.9913022171713930
 19.2991723451221233 35.3077370246964009 15.7623676226937519
 51.7135017121140095  1.2712845222756874 15.2047131360970624
  0.0771391433541433  0.0270754587516243 14.2539359190338342
 25.6692882012081611 12.2008155768399273 15.7650577116609689
 48.8149855187649919  2.8589869809882540 15.4064285154076632
 -30.1593617790359261 62.3241925057559172 14.2924074397496028
 45.9164074835677098  4.4435961667426893 15.5835903973561241
 28.5757054851705448 10.6166314023276414 15.8353448629128319
 43.0165558291280732  6.0265592482771622 15.7285077535640312
 -27.2412247553776758 60.7104062685991295 14.4038436245430095
 16.3884756715665034 36.9110144580106905 15.8032171790688594
 40.1149582740719239  7.6080939277275119 15.8377561056167302
 22.7623422001177644 13.7894232148988483 15.6756927571801494
 60.0975546991589624 13.0878229126966605 15.0985984419824888
 19.0208864937005124 45.2656692903730118 15.5408960152679967
 -3.8103551158072535 41.3731888402906236 16.0370091036987752
 65.9980587454737986  6.5830698936174734 14.5277538324700330
 31.6254765389572903  2.3988439408166391 15.7785906673053891
  5.1198437022148857 30.0213385027231148 15.8440513726058008
 63.0804038077106526  8.1833968695274582 14.7138079403044948
 11.6070640542811212  0.2456710672443020 14.7041302374608929
 60.1654696839257923  9.7774034445783418 14.9286994246902758
  8.0316372952873749 28.4329925031203103 15.7742512236265036
 34.5244212543687539  0.8152203489628314 15.7975638208032603
 57.2527120046907427 11.3659968551315611 15.1535761338727486
 10.9424333499906279 26.8362611581400223 15.7203118846980772
 54.3411573597419633 12.9507579721866009 15.3722029005913985
  4.2657559908178282 63.1456259822259582 15.7829475386843097
 51.4298933752659337 14.5325587635105435 15.5716858667866926
 13.8529595581587550 25.2335731592336074 15.6933267994955514
  8.6984455871673649  1.8553527945389299 14.5476976674894622
 48.5177988115913692 16.1125962503075648 15.7423475535830093
 -24.1246524747875988 49.1346222733474818 14.9858816527770191
 45.6050181205476903 17.6917133463301255 15.8779694475514237
  7.1642614481065605 61.5622955570500636 15.7350118854904100
 42.6914350283671808 19.2704778417374847 15.9744139984320892
 -21.2083069503645802 47.5464284415060803 15.2043844267017807
  5.7846020475758291  3.4690457410344040 14.4461617606641681
 39.7772864448724803 20.8490986151142579 16.0294863928539648
 10.0624872207465437 59.9787228069692020 15.6532981133702940
 -18.2929644995094094 45.9620087783761235 15.4150592911948170
 36.8629585278025260 22.4280501296909840 16.0426936979452215
 33.9495820980929750 24.0086983633505575 16.0171381401060309
 -15.3779276273531469 44.3802004968133232 15.6048629082937591
 12.9611585514438694 58.3943464665440573 15.5402688572982584
  2.2067938094225124 31.6037962312283014 15.9111656979322191
 68.9185124096530330  4.9764288464688580 14.3906799745972158
 -18.6480676303023891 62.5549694978698483 14.8996156090767062
 28.7267482001969405  3.9826297968327977 15.7250218431353819
 11.0354201148644684 23.5173616632053566 15.5950074911166325
 57.1812374349939603 14.6730056099953039 15.3056457158335242
 14.2138480529219944 11.9484553764181101 15.1843910687996644
 54.2653150149998709 16.2557363184495820 15.4986033149647735
 -21.1321395603189224 44.2408807427587689 15.3612867858543769
 51.3494176387729411 17.8369826057220884 15.6678065786237060
 -9.9551242384783158 57.7793114293685477 15.5159375453585042
 -18.2129069456603361 42.6580882107764552 15.5401796517204680
 48.4333655268829304 19.4171575657433451 15.8062940045098230
 17.1214364388876206 10.3443892671059050 15.2820269271485927
 45.5173587611654966 20.9967647121416654 15.9090941709593157
 -15.2938343770056751 41.0770048036356883 15.6941698405022088
 42.6015713263050912 22.5762331218805485 15.9740048829451347
 20.0261085661176423  8.7468435684631700 15.4020123134434606
 31.0370455933767602 25.5925813521671799 15.9632423338554332
 -12.3751831048107555 39.4970627353330102 15.8177927170268244
 -12.8523710644357561 59.3662167568341417 15.3249911593635719
 36.7708596355299093 25.7356888639317241 15.9886085558618269
 -9.4570065520295188 37.9179110219778721 15.9068710839874399
 22.9279698234954346  7.1551913955348798 15.5270013155206676
 33.8568835642956145 27.3179592650535170 15.9447672640849039
 -6.5393543377644132 36.3393156589144297 15.9601437792375815
 30.9440866790466558 28.9043670315313364 15.8819839852481710
 -15.7493365438905606 60.9575465418515847 15.1140875056432762
 15.7230952954890171 63.4508680447119318 15.3700816975624672
 28.0322414196967458 30.4974966000443501 15.8186287255623075
 -3.6228240711051520 34.7613758876933119 15.9770051802972617
 25.1209276636904626 32.0979805142089702 15.7719211526038823
 -0.7073293929946083 33.1832391632769088 15.9590127043835928
 22.2100959137409681 33.7026049067286380 15.7515711786104902
 39.6858401278702289 24.1555886580545724 16.0002563523440742
 54.4828951050409103  6.3245799979368469 15.1290323474321813
 22.1165329157618231 37.0229950085124031 15.6773072153557091
 28.1254936934193367 27.1821710692825533 15.8975390548199762
 -27.1106346151441819 54.0487521980971835 14.6082603122347852
 36.9545959499671923 19.1201278179692125 16.0557767754075336
  7.5620556737779294 44.9911572629659986 15.9879707492150835
 34.0419146228786218 20.6994034171964962 16.0502722403526867
 -24.1949189429649998 52.4496140833786626 14.8176583182752424
 17.0355736408309859 13.6653151833425834 15.3953177927820573
 31.1298924544963924 22.2813703639228642 16.0086362888654890
 -21.2820018336344887 50.8569340283232663 15.0475745963739129
 28.2185566738744740 23.8678847539795669 15.9446695172798165
 19.9426865031515064 12.0658789834731888 15.4920200931760039
 25.3075690555478765 25.4613766266173229 15.8775535730879263
 -18.3709550224990501 49.2697363718856636 15.2790132646847496
  4.6508114231545896 46.5690666521106493 16.0208098054071364
 22.3967088458057724 27.0617534372992381 15.8250112702920536
 -15.4605560156383248 47.6862595951534018 15.4956906281574600
 19.4863373933463429 28.6660874394837357 15.7978298876187218
 22.8479048224278998 10.4731774793522288 15.5986884704640882
 35.8887259133159873 62.2190765256055016 14.2595680927317865
 -12.5495497621299972 46.1057048367707765 15.6858364257355287
  1.7398622567634696 48.1453735602976423 16.0143204416859994
 32.9677956923346329 63.8344196778634867 14.3349336846899060
 25.7518029193797844  8.8855629957429905 15.6970914624954272
 -9.6373441143079255 44.5271941191753911 15.8421387856919988
 63.2079597561464652  1.5312249111582483 14.4769425542335988
 60.2953457971410600  3.1356854665439240 14.6698995241609769
 -6.7242304481631923 42.9497334396028236 15.9599160575939827
 28.6543065291104391  7.3013532783848376 15.7726670701017486
 57.3872977591165636  4.7333623131672526 14.8941029280847275
 -1.1697806362405863 49.7220557298196510 15.9664183509005522
 14.1270239243389213 15.2702827942531538 15.3232973094792442
 39.8674592473213991 17.5419045020832414 16.0189732284529391
 13.7592648337150525 28.5539439982766261 15.7768370184415865
 42.7795334491168902 15.9635136024604698 15.9386303559268629
 15.8611481541632457 56.8076598844098299 15.4028505551466957
 25.2142322317804961 28.7791831706565873 15.8388651265087272
 -9.5474016236959187 41.2218401959153553 15.8912565107096171
 22.3035061460022881 30.3820303480470955 15.8013065358774547
 19.2057211338292753 38.6279587413467880 15.7082300669120212
 -6.6319382515582479 39.6440198900457617 15.9786701691877617
 19.3928560975346009 31.9871163448335274 15.7926614536533041
 18.7635630813882273 55.2171416685389147 15.2539134752907017
 68.9825366139643990  1.6428655940296668 14.2918378028060697
 -3.7164337507541387 38.0669281539979778 16.0269026639632344
 66.0617885676587946  3.2545969244095314 14.4015043942843768
 21.6695431032573467 53.6209367128661967 15.1109950155369379
 -0.8014502458037653 36.4899714569093092 16.0358883002139656
 63.1444852416407656  4.8605350127064249 14.5709390471521267
 -12.4627916245046571 42.8003762122492120 15.7655647790107736
 16.2950500724796647 40.2294923182139001 15.7667072236559758
  2.1127585086542648 34.9120767510056567 16.0085519845955488
 24.5790621374196370 52.0174834017104715 14.9915106938962772
 57.3212748841147075  8.0530174083807395 15.0113863509128116
  5.0259544591887124 33.3317904128152378 15.9528445243312866
 54.4139260082801925  9.6406677524910549 15.2439874346807986
 13.3841388287024632 41.8234792750043809 15.8435940541429989
 27.4916383876663204 50.4078182864288209 14.9090774179875467
 51.5073276182649806 11.2243294583242825 15.4626286088776457
  7.9380042665696955 31.7467385404030011 15.8836560864378029
 48.5994916981743543 12.8053339189461184 15.6558821724231372
 10.8488304402125468 30.1542187776599384 15.8199752023543780
 45.6904714512613737 14.3847469228962979 15.8162921629812434
 11.2170269592809202 16.8778190511499453 15.2866729883814028
 10.4731366851347314 43.4099440319091201 15.9236258819482153
 60.2309629776356132  6.4598739160595633 14.7809434657016769
 38.8110522691095099 60.6019617276329470 14.2590742379202275
