Mo S  Se W 
 1.0000000000000000
    69.1554157106924379    0.0000000000000000    0.0000000000000000
   -32.0587786859041799   64.8392879854358739    0.0000000000000000
     0.0000000000000000    0.0000000000000000   24.4856654507443388
 Mo  S   Se  W  
 510 1020 940 470
Cartesian
 29.8887739507656107 49.9380927562175572  8.3866296234526860
 -15.1242394218742184 59.6638127031528214  8.5430877929827478
 -12.2595547042600970 58.2660436605031009  8.7991773282699164
 54.6503963309511960 10.0590603802681002  8.7077452815836622
 -9.3914268380744339 56.8635205638340864  9.0249109542995711
 51.7913866186801428 11.4591322599359504  8.9567348379448095
 -6.5204581605827343 55.4580574961302304  9.2176349765824632
 -3.6487546779354432 54.0500650664748079  9.3747492183233536
 48.9298506551870034 12.8651084676625338  9.1725533939942867
 -0.7762121927202174 52.6406448965595857  9.4939594428122973
 46.0659366634923373 14.2744062972084151  9.3503976434270264
  2.0968392056871523 51.2300292792557315  9.5713793452778670
  4.9680267691599163 49.8176629032840950  9.6043313378325319
 43.2012364702891460 15.6853968176233014  9.4876599543486968
  7.8363156812410821 48.4053286737423036  9.5925976159896127
 40.3358339961932018 17.0978292165963310  9.5827337406930067
 57.5064389015755140  8.6650804486661421  8.4358314125233385
 -17.9854217885495622 61.0551459327863384  8.2672503651424769
 60.3598968634985198  7.2747405978776767  8.1584716831607444
 -20.8431888344228895 62.4424842951415613  7.9964014955475546
  2.3065735979093551 48.0475039471291581  9.6487706353782077
  5.1744769645952573 46.6329885521559504  9.6646980457910221
 28.6765869975783438 25.9236161774022662  9.5061512752663724
  8.0404347501666837 45.2199151761179792  9.6365686784066948
 25.8150574679021254 27.3191485723767364  9.4202590819105509
 10.9036211456175742 43.8105938856950559  9.5674737667922258
 13.7644860479793518 42.4065032873519812  9.4672187897185776
 10.7023222611746398 46.9953933802154680  9.5382924748353268
 22.9525483678009472 28.7081148150462511  9.3513551095570069
 20.0888766895846302 30.0932390003283317  9.3185166367057715
 19.4863061403246398 39.6199159551950260  9.2670943718548884
  2.6371467480162756  1.7476972616144819  7.5216752058995242
 66.0699917714721465  4.5075140912862510  7.6871453592050054
  5.4992600481363727  0.3676579042748845  7.5945780443998494
 63.2136056999502216  5.8892166250101612  7.8989103609262603
 -23.7002642653853783 63.8257629827087314  7.7617316517191171
 16.6250271380455921 41.0098527433450286  9.3587272220784445
 13.5646967937227547 45.5886416765944844  9.4458069543062528
 37.4692684984055120 18.5105951965567570  9.6350074106555805
 16.4248985243742354 44.1887002269214548  9.3314212655922297
 63.4410765301029045  2.7198861802325842  7.7566974150313959
  1.8806681574824513 54.4080723013423011  9.4757780066763786
  4.7558792919386956 52.9985581025503549  9.5195703766197362
 60.5863457075026020  4.1041668424032283  8.0036504592511744
  7.6278429708936999 51.5879385493044751  9.5210990236847408
 57.7319743576021480  5.4925394008162840  8.2812095384456086
 10.4965424696167844 50.1779358081788516  9.4804587659086756
 -0.9950426393965655 55.8168175031038345  9.3918859379392714
 13.3617814794688812 48.7706171000172333  9.3989761939784557
 16.2234311938626234 47.3679460332805675  9.2850517291946399
 52.0145817784471518  8.2832623935153897  8.8228224597962033
 19.0833917824787456 45.9717993058100944  9.1603834738190635
 21.9432690833687687 44.5813674770774071  9.0506617177869337
 49.1502848921889068  9.6870192887910349  9.0527407572563838
  5.0363491694356135  6.7004886311689775  7.7987442533774489
 46.2836360506393021 11.0943331107729488  9.2469761305648177
 54.8751331358224022  6.8851637839995279  8.5614904894675981
 31.5381000361119739 24.5204735645978751  9.5829911027734536
 66.2997911543344998  1.3390468921941561  7.5731279817756576
 -6.7440980139545195 58.6302424661107153  9.1166206531677787
 34.6034263619621214 19.9233677856942037  9.6439842487642036
 19.2855360294015021 42.7959127332380689  9.2206329154160844
 22.1465142447326038 41.4077580150764533  9.1365463660993740
 31.7391626693985920 21.3343301241183738  9.6110684771970831
  5.2674354805676584  3.5346430597554814  7.6581367297233305
 28.8762769231697405 22.7401506898672814  9.5419721212896444
  8.1279722436696034  2.1537948772286537  7.7778046842877249
 -3.8697578982444303 57.2245089565520928  9.2714412427294555
 10.9859831750396530  0.7700880853168813  7.9724892854514380
 -18.2143465800900906 64.2215526297447070  8.2126390007909098
 23.1531924169899170 25.5313007189499395  9.3651948494417123
 -15.3526749117838222 62.8301960619260811  8.4684932711591703
 -12.4867895332672241 61.4348766858728226  8.7122280535467826
 20.2902652040371088 26.9183981503193941  9.3066565532855687
 -9.6170304312582733 60.0346172830621967  8.9294183620320080
 17.4266891928841154 28.3028655168341068  9.2899421646980951
 26.0148029787021926 24.1390373195182697  9.4514760234457142
 -0.5630404930580819 49.4603570708273637  9.5870661365607930
 34.4004644461360769 23.1114384400710868  9.6311988496809064
 -3.4328104228791929 50.8720788157089956  9.4803748080694596
  5.5782175405039807 40.2566098844181681  9.6854221448512128
 51.3536274682413563 17.8276482520285775  9.1859634753404880
  8.4403685187652009 38.8453242614429470  9.6249751403896919
 48.4974360073244100 19.2368762150684347  9.3455131079353944
 11.3014904052035767 37.4407162108546245  9.5345539136979127
 14.1626730451009681 36.0445573026619073  9.4367232577421216
 45.6399725409177464 20.6489879304035888  9.4702484600701364
  2.7147801383581016 41.6713702722380646  9.7066346800058838
 17.0248010678923052 34.6547670004440675  9.3575258502729692
 -28.9594243133726650 60.2501993477728632  7.5600081962642882
 -26.1001708549459011 58.8709584522711609  7.7205860055750035
 39.9205764888922872 23.4756300267718352  9.6034392628577550
 -23.2449538334501327 57.4902917431284521  7.9557177926961282
 37.0596629078316226 24.8887387738285746  9.6105958021015780
 -20.3906975525771053 56.1058694874154895  8.2333780097853797
 -17.5352716724413540 54.7178522101912961  8.5239231728200444
 42.7807910874986774 22.0622277207774360  9.5567078612155871
 34.1986290440372329 26.2999943679945929  9.5809972010022211
 54.2082335857150852 16.4223060642404377  8.9959860542564343
 57.0612385218231282 15.0209825935465950  8.7811836484481258
 17.2252227498045585 31.4782733479585985  9.3312440881064127
 31.1368207207750523 30.8902065624827102  9.4243640155034356
 -25.8749172181015332 55.7030378238578194  7.8908842062554951
 28.2759148993935732 32.2849254513970934  9.3496019783273070
 -23.0218249989808008 54.3208559894142695  8.1367664109998596
 -20.1687197962123754 52.9346470119573382  8.4113336232360112
 25.4134442569230181 33.6742481397119704  9.2935106908852703
 -0.1491921985561520 43.0876918138514782  9.6861775694571506
 -17.3150635866900124 51.5434272336170309  8.6889381678110151
 -14.4594422356991057 50.1448196889929747  8.9491443429730939
 -11.6011133871463326 48.7395155974720566  9.1779298267592484
 62.7645391262462624 12.2334974598841306  8.3157190166554749
 -8.7403242108410470 47.3292855129582719  9.3674763265942360
 59.9135710229410137 13.6254310523732460  8.5500013565098723
 -5.8778730404642232 45.9166810968631154  9.5159021334486891
 -3.0140853344725631 44.5026565904114833  9.6224778671894011
 22.5500155493428132 35.0593791275796747  9.2736403637751597
  7.8971692079167628  5.3191450413655739  7.8689501322778010
 -14.6775692734676753 53.3226823464442248  8.8029582468834029
 -11.8166822425662836 51.9199246911048178  9.0533391321149086
 -29.1899380616031898 63.4183622164216274  7.4960919354762536
 51.5715134134362998 14.6405708851352010  9.0835137839738334
 -26.3288252917321053 62.0390929965450084  7.6166508636574202
 48.7124411258559178 16.0482509359995156  9.2745176983938808
 -23.4709999918344856 60.6580984523352313  7.8241977389607387
 -20.6155719279820637 59.2746686369234226  8.0882400656157856
 45.8518268094710990 17.4594877732358249  9.4280245967224161
  0.0061194215071024 -0.0410225916869846  7.4810972439956647
 -17.7586962048631207 57.8878528131438088  8.3765133048207172
 42.9902835626805953 18.8722576480321180  9.5410385460903093
 -14.8992853435534638 56.4951721634587045  8.6604265042333655
 -12.0361014364476890 55.0949537067912942  8.9192602402963654
 40.1275129205378320 20.2853166640245455  9.6125202926130626
 -9.1699665996765720 53.6898876443533766  9.1443036852482855
 37.2638921539025176 21.6988631195931738  9.6421905206023553
 -6.3020659571970477 52.2822782869863829  9.3318905827058760
 18.2407236908812251 15.6091535776733323  9.0008248200203980
 31.3377029985879219 27.7061361438735041  9.5202423726546872
 54.4278800474377960 13.2375080410550137  8.8592247042570715
 57.2827833196778045 11.8408664684356939  8.6096949021363187
 -8.9531743356717062 50.5122042084290328  9.2657781519464884
 28.4767619529043330 29.1052199195471104  9.4411873775137263
 -6.0882676770037598 49.1019340457121416  9.4372991836575171
 25.6146205193374819 30.4975137020862057  9.3669291020922323
 -3.2220741328217040 47.6895871169554937  9.5672086592690793
 -0.3546299059823832 46.2758702189526971  9.6538637777330152
 22.7512253417149957 31.8838766495384753  9.3205919813910363
 19.6868799661407579 36.4442932891682148  9.2989152112874098
  2.5120471539571767 44.8608476299985952  9.6956481654956299
  5.3772691316507801 43.4455846687262977  9.6930353908146714
  8.2412465518380831 42.0328471595637865  9.6481860121568079
 62.9881094976457803  9.0597431324132582  8.0930209570214195
 11.1027681992443537 40.6250776226116770  9.5661634608581299
 60.1358729298348749 10.4480208380778272  8.3480769245004698
 13.9634304624868655 39.2251035644827368  9.4637415612166826
 16.8249578730590841 37.8321359053594151  9.3672003026406507
 19.8880054479415165 33.2688731299762779  9.3159360542254888
 10.7565006310649274  3.9357736553596538  8.0183257739068736
 43.4154253638434398 12.5030749175751783  9.4030768033286218
 13.6153238115709598  2.5480753053723317  8.2205226073088937
 27.2737784252974542  5.0707003551334564  9.1922807766357657
 30.1507884185829411  3.6657176562700871  9.2587677618608026
 29.4885574156462269 13.1913136563016291  9.4716264276085642
 33.0297249378647635  2.2597680412665175  9.2931213713794243
 26.6216777057383851 14.5969315734934941  9.4018004507725568
 35.9100788250770506  0.8533570243307982  9.2952985938375949
  6.7314842678526823 64.2862968420508309  9.2651461793345238
 32.3592998456003684 11.7830397393513948  9.5006302895645494
 23.7579937922904847 15.9973549277299991  9.3001520597358400
 20.8965867932187130 17.3921059096810389  9.1866796626634741
 12.4882914013240907 61.4745206329834133  9.1109967005847512
 15.3624452876689119 60.0711408219440841  8.9887029901261570
 18.0349219826096814 18.7815168041834326  9.0875171729590711
 18.2319163601177969 58.6698043884680587  8.8363496386887448
 15.1723935183189944 20.1666887649685513  9.0229952551010779
 21.0948345037062985 57.2708855690896783  8.6596764850417021
  9.6109053084097980 62.8802122835480688  9.2033141047382934
 23.9534163039043406 55.8775320196239349  8.4765699242797030
 24.3996694553224351  6.4733556316091079  9.0942492309485825
 21.5296286824939678  7.8719194243755259  8.9661110763652143
 12.7162335760915646 58.3021745340783966  9.1634907169523672
 15.5882214236449492 56.8987089867868931  9.0540337798292612
 52.4695202610298423  1.9416963265833722  8.6185454708971125
 18.4540351901871240 55.4969901380521691  8.9133821669179660
 49.6021063727650784  3.3414638365714544  8.8455801523783570
 21.3151719502410764 54.0998672064890087  8.7517807967974761
 24.1734311172738181 52.7081911919963488  8.5929366692694131
 35.2332520580309847 10.3748110423659750  9.4861567135562073
 46.7312475390802078  4.7450680769121405  9.0413005333539420
 43.8576229092162251  6.1513083490868983  9.2052373322374166
 10.0824105218719016 13.4278710426118746  8.4617743992016390
 12.9429055007747404 12.0443668349966710  8.5393798163488146
 40.9830028678810478  7.5581217023658827  9.3357495320056181
 15.8035275500630714 10.6581101496650028  8.6649259854010836
 38.1081445597292898  8.9661118100589761  9.4301616455884503
 18.6645190343006639  9.2667467987006766  8.8159045107926932
 27.0308851877989866 51.3217977496773443  8.4639057977253103
 55.3313946531503902  0.5449555643886080  8.3672124636543934
 12.3098060792484674 21.5510143407041710  9.0055773482189885
 32.0732921260816681 58.0541767822114707  7.7902238574639746
 41.4384266665224601  1.2127787894963118  9.2084648600303520
 12.2573456042798092 64.6460710449031239  9.0997968791370578
 38.3315942848971289  5.7916315867075534  9.3458702512425553
 15.1326853999917486 63.2421111237686162  8.9611304725787324
 35.4543378174966008  7.1989651705778943  9.4012615385982343
 18.0044819540779315 61.8406992142997396  8.7925685868950954
 20.8694200106851895 60.4415113847795524  8.5976160428252637
 41.2088903382306526  4.3849301181426705  9.2558933589336725
 32.5775302639800799  8.6059150384261436  9.4198025172943627
 29.7028407233333347 10.0130856057740747  9.3990572863569266
 26.5863689743798304 57.6555462468857129  8.1940455009201560
 29.4437064175431082 56.2700640697609487  8.0374046059183399
 26.8321428040579804 11.4189464269650536  9.3385718301905651
 12.5171480776127257 18.3797454075926048  8.8525430685203066
 23.9652383043029182 12.8200875453009413  9.2418863744242632
 15.3792869159930703 16.9957490033650380  8.9050484373354806
 23.7289006681636643 59.0463119293425720  8.3900418052311831
 26.8109942344662393 54.4890348796655601  8.3135628338573060
 38.5595767478445879  2.6190748605050027  9.2863503404249670
 35.6801316119449510  4.0253393558478567  9.3318304067130473
 29.6681155247006778 53.1041395053034435  8.1971955316186484
  9.8665492723848569 16.5949407093674601  8.6572711138286156
 29.2157926321522332 59.4366738579970360  7.9260975864246017
 12.7275700970446799 15.2110172755389428  8.6947295559330247
 26.3587269352442881 60.8228066764318598  8.1224023302075299
 15.5891249019389964 13.8262685100184903  8.7837984106674245
 18.4502322788995698 12.4373411114599026  8.9087723056279895
 44.0853330483907939  2.9786010932146474  9.1331185372255206
 23.5013673729085291 62.2151032021419681  8.3501081127351799
 20.6407455866263163 63.6116680679529622  8.5816670989487811
 24.1789487033974986  9.6454041993399731  9.1690202754082577
 27.0495016591054096  8.2435644673408088  9.2623331172533288
 49.8325767209260633  0.1712985918191986  8.7948804424319427
 29.9242467009756510  6.8384503546858388  9.3208054066369854
 46.9604692522485720  1.5736130089249942  8.9791765122305147
 32.8016118615384045  5.4319363699799172  9.3436761993718100
 21.3123181700516078 11.0433524937790910  9.0456823617001056
 14.3627130675291035 32.8654758425684648  9.3879408652692629
  9.8406236499787383 59.7078543365530052  9.2410993528045289
  6.9621351956525377 61.1142240066209155  9.2871129577419946
 17.6284840397857998 25.1279134528214492  9.2343048876153073
 18.8787956153175180 49.1477071143724729  9.0870998194474275
 21.7382489162857766 47.7550098768229319  8.9559700468711014
 34.4718959892166410 63.0092749594329504  7.5433468150518133
 24.5975598879698367 46.3674319025428758  8.8517766331924115
 31.6122525303963293 64.3903207049242212  7.6870330023945206
  7.6682650712022502  8.4831711158194150  8.0227669284777594
 16.0180606338724942 50.5465772576757928  9.2196650389665606
 10.5286826546500034  7.1001195997281634  8.1250185625081723
 13.3877445516363220  5.7135150898840328  8.2865265778976802
 57.9597570904954154  2.3217877582187607  8.1670116554454513
 16.2478895555358704  4.3235254649226933  8.4806751918322263
 19.1124404714097480  2.9305069631566294  8.6810144705581553
 55.1024486261884618  3.7144027863436184  8.4417169933413216
 21.9825794464712985  1.5337849779387169  8.8641583055757973
 52.2404142113977130  5.1112633829142062  8.7037149474429789
 60.8145020075457978  0.9340326918284219  7.9053290677340948
 24.8565028256677216  0.1324296292554196  9.0204747444861244
 20.4916771139753386 23.7432925719679524  9.2801951467030630
 10.2850729666758376 53.3575284790896660  9.4003082444455881
 40.5467337793051072 13.9139018996107140  9.5187218213087448
 16.4762921656901433  1.1569571852245737  8.4475654886541705
 -12.7166407213866535 64.6024813139747494  8.6716345938174708
 37.6775333960934020 15.3252672198857240  9.5918583401173425
 -9.8458350830400985 63.2042317246546332  8.8733587407764798
 34.8086548586368636 16.7371075278069590  9.6205928926303841
 -6.9720098137493531 61.8009933486697065  9.0470991606617606
 13.1538376681306151 51.9508036055337072  9.3286148944850016
 -4.0960055581679624 60.3962629582663126  9.1908862443626766
 -1.2189941618940832 58.9901502793087573  9.3031028134071345
 29.0773057443649918 19.5561713458962529  9.5476566854727078
  1.6586806704684323 57.5827629608448817  9.3826546894280423
  4.5363348630656546 56.1752479521930965  9.4266994795864161
 26.2148539100395084 20.9580449070009251  9.4593945074817505
  7.4124307099779312 54.7665269149420695  9.4329209173814714
 23.3535176352873570 22.3537086201730588  9.3614648797432221
 31.9418959887901259 18.1485855904856912  9.6046982972611890
 26.1296062237528979 63.9912392382499817  8.1115622174892739
 -4.3256998379261606 63.5672294358037888  9.1481437036464524
 -1.4472766625154063 62.1618626103472565  9.2460230784490953
 23.5548212844372458 19.1755643085701166  9.3400498110796395
 13.1633088926134256  8.8788192144557616  8.3981018324407977
 16.0230338084028254  7.4903965652501281  8.5585267052850966
 20.6934509414207710 20.5675523311330259  9.2399049602844610
 18.8858623472184739  6.0980686250163201  8.7340254048779169
 17.8312178348444732 21.9545241988519351  9.1660835812743908
 21.7537423469646285  4.7024439892591108  8.8992362701957113
 10.3032460674993391 10.2634833489780544  8.2785429050247661
 24.6263391165691239  3.3028616305099816  9.0388434819942418
 27.5025188098971007  1.8991657611989265  9.1497245015976851
 31.8431475327135196 61.2217731942205035  7.6993358228409416
 30.3809125463807987  0.4938887487621320  9.2308802610919507
  1.2019592191062061 63.9274588602414795  9.2815308207959450
 28.9855620016697273 62.6042105411584657  7.8789590409090096
  4.0822075301379064 62.5209340330182570  9.3006058219023302
 32.7468837108400024 48.5556951449119580  8.3726358775602225
 14.9677657570210236 23.3392249374660814  9.1338467446306097
 49.3744982981047613  6.5130363062400871  8.9367316571774467
 26.4166495801673697 17.7768983841356416  9.4429066955982659
 27.2461039704074857 48.1533758275477055  8.6278939123880800
 46.5053224863368442  7.9181659757389538  9.1365073656372253
  1.4317583085107861 60.7555637164807436  9.3131700702687308
  4.3112767050742997 59.3489714222537899  9.3476343894562746
 43.6343172447791474  9.3255968599414185  9.3019596725744069
  7.1899830431184997 57.9413787259325161  9.3476634281459283
 40.7620039747637435 10.7339675768407830  9.4304068941863068
 10.0659326901493813 56.5338366734538909  9.3130293740818448
  7.4429392123337674 11.6472183825887221  8.2215704119192505
 12.9388514415530747 55.1280521573776454  9.2435037066357264
 15.8068901439585083 53.7237792023988021  9.1385614644081929
 35.0182223103803878 13.5540593134457161  9.5650133297934179
 18.6696444351672035 52.3229110653663341  9.0026251415297978
 21.5291823235891862 50.9278628783419833  8.8547783578463797
 32.1477361991705664 14.9641986983201125  9.5660911047392059
 24.3880798852916705 49.5384605465943793  8.7218292603797689
 29.2808398187286230 16.3728461433616204  9.5233150578474071
 37.8901783770101730 12.1436424892185197  9.5190436278184354
 33.9970172775221258 29.4876630054680717  9.4937430646935770
 21.1021805069071000 14.2173731952620273  9.1214230779316399
 11.5005308966186615 34.2581878647842188  9.4741797264444827
  0.4611736993152718 33.5123213069769506  9.5467984862004442
 40.8714580119781559 50.7460311563453033  8.1491656055033896
 25.0085362527759862 40.0229249759516392  9.0951668120726996
  4.3626047476380343 16.1983163600756122  8.4887470432030732
 -2.3959461324703732 34.9270015988313602  9.5545051571673998
 43.7228181785838927 49.3603035156757315  8.3404214529079965
 -5.2523092761023733 36.3422812860293902  9.5266801195641762
 27.8705334618508296 38.6386883623646042  9.1013071135589243
  7.2220242748334957 14.8123916666124380  8.4452667295534702
 -8.1081956337211647 37.7555719548049282  9.4643588650705386
 44.5842297454153353 36.6192394330093762  9.1398537497695855
 30.7315322008308698 37.2508880446515818  9.1478282244014792
  1.5054798779402989 17.5867281593375502  8.5800951949964208
 -10.9625499447365264 39.1675788481052010  9.3703786457632727
 34.9324924437017827 56.6736810152719173  7.7382988879655779
 -13.8149812074763076 40.5777014690121547  9.2476862032302876
 33.5902163748212033 35.8579396378798307  9.2171685253188844
 -10.1121510454064421 26.3828555784835537  9.1808315609097342
 41.7343230700366448 38.0240866833372877  9.0666930722565979
 -16.6660663037183987 41.9853805090958119  9.1013504674702475
 37.7923253179777632 55.2946951752287603  7.7797226038176586
 -7.2629965186716126 24.9754170112898279  9.1112520347172961
 36.4463347164851541 34.4568119640285317  9.2856548468021121
 -19.5162096743601410 43.3887983119795067  8.9356454258988833
 12.1046748938210698 24.7240086968976023  9.1490086214464341
 -4.4128789144991654 23.5689279487599386  9.0273336218289302
 -12.9612909840444761 27.7904023317439588  9.2349606366951935
 56.6247307263672468 21.3993770045976994  9.0606987074715590
 47.4341245882294871 35.2123187983400356  9.1993824212102826
  3.3193414462379689 32.0994956346080755  9.5057857598892550
 39.5077283666825139 29.8591892482826928  9.4640708903779842
  1.7250544407558943 14.4151036949104245  8.3149773974431529
 -14.0287820347937675 43.7712017962958342  9.1778247803724344
 46.7901437534615923 44.7882539720525941  8.7568554986627678
 42.3630030055353757 28.4471256232369285  9.4675636420469260
 -16.8814812108710939 45.1767917653452216  8.9891921685896143
  4.5833186715109751 13.0309770877848159  8.2360148557149504
 30.1049226802778342 46.7704322609107948  8.5876557061960455
 -19.7324341257666589 46.5771297551680092  8.7793207762238445
 45.2176342076719280 27.0355911089235619  9.4406436391606174
 32.3015131795852497 54.8876632096724748  7.9462568042813704
 -9.8977070624182382 23.1880631089645597  9.0613363679359740
 -22.5824482599737912 47.9713502583681617  8.5579211433768023
 48.0706844395844541 25.6241581772299938  9.3842692343168110
 14.7646938017530438 26.5127285365825358  9.2340309132550491
 -7.0482769093882194 21.7839630619682936  8.9479895616418457
 35.1599635965585193 53.5077875684747468  7.9361361002911215
 50.2834579375357578 33.8043728114471804  9.2437515597812663
 11.9017209646387254 27.8995801222100219  9.2781215931304306
 50.9230394023252160 24.2139674810073160  9.2996295977837296
 -4.1985311995082659 20.3807304216970415  8.8253151850961302
  9.0395352349011784 29.2916492774674850  9.3532283039165165
 38.0171223618925538 52.1283726057970611  8.0076567160266521
 53.7742053317456765 22.8052424646969421  9.1900747651825352
  6.1791360207233668 30.6918041986719103  9.4368266553462217
 -16.2374182977074177 35.5940348276808933  9.2424266711378422
 -1.3476200819322266 18.9807402279680559  8.6990673654298263
 39.3011629674825400 33.0503035650215864  9.3374223631817692
 -11.1745560907221133 42.3618666846472252  9.3394960834039598
 40.6491886869780288 53.9151314970823989  7.9082399111412673
 38.8833494480578779 39.4261195529277302  8.9846026614432866
 -7.4753380940867267 28.1692332522231794  9.2459695884629021
  9.4469892480005360 22.9369468921891198  9.0362352232082639
 27.6653923016920693 41.8119789391681351  8.9525361642706045
 27.4575081274420860 44.9834858955452148  8.7931106666395529
 -4.6251236083550502 26.7599001663383476  9.2004375777953076
  6.5858116198482826 24.3275230260624760  9.1034613186105968
 30.5255028917759574 40.4269271453233259  8.9756524746808157
  3.7279350530059698 25.7256691954549552  9.1849698958507187
 -1.7733595904940438 25.3516508787945263  9.1375972679083137
 53.3451937167528669 29.1985466644801051  9.2728325522074595
  0.8718606447715688 27.1315702683770787  9.2577453223310453
 33.3840032059960521 39.0381635114074115  9.0344784206896147
 -19.3008134913600848 40.1961560256918986  9.0653036935914848
 -1.9823907271368462 28.5417937066630998  9.3114336678717642
 36.2394264617985726 37.6422307032189494  9.1077647915827242
 -4.8349490658077503 29.9532726067539556  9.3428292353701075
 50.4966738147745815 30.6071689896662527  9.2917458335834748
  3.9352414476819164 22.5448063845135636  8.9751439803932538
 -7.6865982254629834 31.3647051802726757  9.3507094802760449
 39.0929626893684272 36.2394039205736291  9.1766571646119157
  6.7938708262625580 21.1515437880395503  8.8977197320158883
 -10.5383484578151112 32.7753787262701337  9.3359016924129179
 47.6468218677432489 32.0166004909497346  9.2911667310893016
 41.9450002264272115 34.8333258482023638  9.2324714753785031
 -13.3885928041396411 34.1848631194537944  9.2994728379825098
  9.6545513293405811 19.7641860459103569  8.8515334520796749
  1.0798958213174801 23.9451746677318305  9.0606046863874639
 24.8042041429722389 43.1957819381437744  8.9772634336305597
 30.3172710817864157 43.6004881088623719  8.7869626451885132
 -10.3253050095552261 29.5792501267287058  9.2728360058228798
 -1.5622077240419212 22.1639609184002246  8.9326642970109269
 42.1541827397027689 31.6404934501198198  9.3667138548562363
  6.3813763199787763 27.5080168900846544  9.2848976576339215
 34.7027011949590403 59.8407267303559820  7.6013535250967816
  1.2908147295120929 20.7633827459702012  8.8327114983358967
  3.5226916137640996 28.9108383929594517  9.3627871519298775
 45.0069603559606080 30.2303481516340895  9.3720455192364707
 36.0305597780923321 40.8236859775480525  8.9004090974612655
  0.6658226503953301 30.3208813634663414  9.4207368674161476
  4.1467212745199724 19.3689385507005412  8.7396005439436699
 47.8589891617975951 28.8204345570888378  9.3532888994429655
 -2.1895115434427845 31.7338450196905661  9.4513504212987876
 37.5640269890181386 58.4607662252032227  7.6023451896684611
  7.0058392895004280 17.9799217764187027  8.6750670397068834
 -5.0438026929794439 33.1478179508619988  9.4522839847630582
 50.7095187668405600 27.4098536550924408  9.3107391673740914
 40.4240360334032900 57.0824236891849779  7.7037133488566791
 -7.8975691066214742 34.5602323316009290  9.4240774448662101
 -16.0237521200119595 32.3963254050173290  9.2718204480687927
 53.5595404155360484 26.0010586944003421  9.2454490377330050
 33.1748522014038372 42.2143415893158149  8.8278747723965090
 -10.7503817431059900 35.9716898992027296  9.3687998775939292
 -13.1751783892621681 30.9873937675941420  9.2815625052739232
 37.3338131623613307 61.6287136044213568  7.4981233391977300
 -13.6016334553764473 37.3819996057409512  9.2882668408580606
 56.4087825649126060 24.5940795286454019  9.1612217419027768
 -16.4513391234686921 38.7905636872107422  9.1854970986537143
  9.2422480094568069 26.1126283864778195  9.2054283729900934
 32.9631071213770710 45.3870590940889258  8.6039502114331743
 44.7960105550827166 33.4250269976038510  9.2713314345030771
 -8.3185893863820350 40.9497296337566610  9.4691669738970550
  2.1761410433599360  8.0816156906584702  7.8196024453481918
 44.3713516634843188 39.8109374047229991  8.9788566410737314
 53.9905832811764057 19.6119232490310367  9.1069790551687522
 -17.0976040159284253 48.3631647288589122  8.8496177131028748
 -1.1296218385729673 15.8032151863315722  8.4424685005469406
 47.0059313418517561 41.5993444382401520  8.9315367395107472
 -19.9495916243482831 49.7592497279230841  8.6002568016375260
 56.8421849767786895 18.2076477481393546  8.9336435586992131
 -3.7611509013184099 14.0190462006837304  8.3485307517627856
 -22.8009789781811811 51.1483637644454348  8.3448247131663660
 -14.2437733345470949 46.9607824766235282  9.0777898303449387
 41.5220362438255037 41.2119696178611221  8.8714132264945178
 32.5263828949418468 51.7219233267292324  8.1474272871964075
 -25.6527622150961712 52.5335956395392785  8.1053376671951600
 -0.9078773094114586 12.6314647304497711  8.1775013619040262
 14.5632573546975141 29.6879435348116765  9.3196665509387309
 22.3488022810293181 38.2342045414105414  9.2116253345583772
 11.7004778711273634 31.0775542629982731  9.3876891123888928
  1.9492174742834267 11.2475859946109011  8.0546879334537138
 35.3838840366415681 50.3417947824198535  8.1710011970691347
 25.2113736143639109 36.8492067746445215  9.2019458297752301
 38.6712550206700456 42.6090792989209675  8.7639315172464496
 59.6927153491280080 16.8080226790783627  8.7432976043636348
 44.1572218895323871 42.9993651354409394  8.7897431530148449
 51.1376902400760898 21.0192603499308603  9.2580598305463493
 -11.3876290779266895 45.5531430189870647  9.2752254487238481
 -0.2252226600568440  3.1280756031736665  7.5544525200990060
 36.8559811357771281 28.0789353820240102  9.5397177915520253
  8.6393098228929528 35.6587926935593416  9.5665112576799451
 -3.3131514903446186  7.6764925049252852  7.8700671115470549
 35.6033331116955267 47.1730161795912082  8.4209190620593439
  5.7781778203269143 37.0672306254239601  9.6397612517635967
 39.7140290607440036 26.6672504740369689  9.5536599116197323
 50.0693836419247376 37.0008707953606191  9.1678342783776294
  2.9163535856095826 38.4809076454398209  9.6791187529986598
 -0.4548507516690771  6.2959065346908751  7.7092557205157553
 42.5717472265026018 25.2542196495526348  9.5319561175340866
  0.0542893736009028 39.8967002374057742  9.6802173155235849
 38.4565955824358241 45.7869095846198064  8.5194209382117521
  2.4053500098192888  4.9154030151953370  7.6342864267879245
 -2.8073550041675888 41.3126391213758737  9.6405712682445230
 45.4281450982015400 23.8413503290721920  9.4742854095621567
 47.2205162540648828 38.4068237045309075  9.0792151851045428
 -5.6689532799298084 42.7274976857281885  9.5590071015521225
 -3.5384275902404561 10.8461296808757943  8.0986932532702216
 48.2837617484858868 22.4295236839976653  9.3821244851283900
 41.3072837193752775 44.3954880183783800  8.6483191314214327
 -8.5290808633825570 44.1414984086351865  9.4367012292029280
 -0.6827684956213520  9.4629455000696456  7.9252663281717410
  8.8389240713357520 32.4740905327542109  9.4747437928384368
  4.8076312154789163  9.8654873377659484  7.9988596942779759
 -6.6120946093189463 15.4120384406623856  8.5437721683610128
 38.2385986128582900 48.9598878359959002  8.2615098841086656
 36.6518271865968117 31.2687342797932253  9.4306253577354404
 43.9409584654872134 46.1825461542709945  8.5743839397574693
 28.0737834691452335 35.4628655072538095  9.2350708991697061
 -6.8314217635785148 18.5953439319722627  8.7578997088708057
 33.7942608977863088 32.6738286669159521  9.3714650270083126
  5.9781138940052250 33.8785138779779373  9.5560580844593517
 -9.6811136911197622 19.9961610696913006  8.9149631561891507
  3.1176148191998032 35.2900853928381153  9.6118595282495054
 -3.9811524581298432 17.1972926427634540  8.5965605228931157
 -5.4605436295121894 39.5358193981717037  9.5629800479575788
 35.8184592247920008 44.0003826603509864  8.6685076272591601
 -2.6016834146893877 38.1203308918358275  9.6181787870384738
 41.0906773684821189 47.5734545971650817  8.4029476761644126
 30.9352499236485947 34.0720502275953194  9.2988789233615190
  0.2574793471757440 36.7045564320350195  9.6338063646354204
 32.1851426772629026 43.8484723012100943 10.2964753254759014
 29.5365932598905552 42.0439719045540627 10.4619991286558918
 31.7969246177702694  6.9956302617030666  7.8009273651876985
 39.9195456545069689  9.1277483603760832  7.8385457031837031
 39.9789212574503026  9.0400501917950855 10.9586523318237923
 42.8729934652069105  7.6327878574159502 10.8400881696732601
 34.6330875656448356  5.5157338139295806 10.9187654304497617
 29.4688914164883116 41.8559750760087894  7.3450683906702636
 17.2911032696493052 17.1810139859854765  7.4373587628745890
 28.2996569325995537 57.7262703428013708  6.4904175812902833
 28.6199865322150409 11.5022569716209802 10.9629091925055544
 46.4212183565831964 36.6879726384970724  7.5781966345139713
 31.2970125737323386 13.2786172023967755 11.0727399841129053
 32.3436006128929279 40.4611015516728969  7.3865960441183836
 31.3626730056567524 13.3464874014877974  7.9541282645510325
 37.5097710072575339  4.1708405057713129  7.7595107308208942
 34.9929058465601130 42.2349523288723105  7.2397762944973483
 28.7246115821303256 11.5795113036127084  7.8442164133931120
 37.0659559297792782 10.5356061905298795  7.9186483364418248
 37.5331393010491752  4.1148052840001004 10.8813009770265321
 34.2132341984260222 11.9421351382466518  7.9581524191845734
 32.3804473382413107 40.6649051314775463 10.5036036270412758
 17.1406857012549594 17.0830224879319132 10.5556624082741166
 37.0843332770273975 10.4508739199347591 11.0386362992460523
 49.2580969655375682 35.3777686250909298 10.7630515411505776
 34.6530909005448038  5.5841602809034541  7.7976878067407274
 25.8741436908590323 12.9820919907307974  7.7689267806532465
 34.1894607143103926 11.8641173418036558 11.0773717541936261
 42.7733448370212770  7.7194661019917152  7.7208809308977511
 45.7657307167044820  6.2271488889297553 10.6858895814252204
 49.2732174289252143 35.3025372386491085  7.6413945402472088
 29.1520011421377241 48.3927091040504962 10.0902173476538923
 25.9460391039820557  9.7278607068671956 10.8159335240315944
 49.7193115832594614 28.9580507910474765 10.8782385163909954
 19.9938288702910327 15.7038603202033453 10.6610309243373074
 57.2914595673683351  0.6527879436430749  9.7711202162429185
 29.0077054718708141 48.1880771908862044  6.9738175379979905
 57.0292886815622140  0.6887134932914125  6.6539849950684955
 20.1611423436184047 15.7808893141310822  7.5434485892935248
 46.8155159021616498 30.3242658469658828  7.7776577389626977
 22.8579024215689657 14.3127749825458075 10.7798122903917566
 23.2367298810493565 11.2120079114924316  7.5938769784605133
 28.0823266827658280 64.1173148487108193  9.5210595465299015
 23.0618835092032732 11.1290743999756714 10.7110015113017898
 27.8325423714123019 64.1258244218559526  6.4020312860690822
 46.8656061091045899 30.3888789263013912 10.8982519075635285
 54.1768790428934892  2.0920029181319366  6.9156628564726104
 49.6637111351178433 28.9349726431605525  7.7568050990923512
 54.4253267967584904  2.0368640158653739 10.0326561032693373
 26.0894243221196795  9.8111829432685109  7.6978072290042130
 26.6946648367853570 43.4141932348388480 10.4644970279687062
 31.7337397888211470  6.9178473039737458 10.9210590917922996
 14.4127943183021454 18.5803862650133311  7.3659512392799389
 45.6271183860480036  6.3099560069320964  7.5676373983187872
 25.7340034648432550 12.9112849203039222 10.8868268099534227
 35.0262071125585948 42.4634565486631601 10.3561593045614480
 48.6567716834911579  4.8254498733435485 10.4991023049555672
 26.5882531841231966 43.2530137443162559  7.3472780291098063
 28.9419457570143130  8.4050761545853092  7.7677806478014855
 48.4792098490711538  4.9016168848813741  7.3811458480134906
 28.8371326730084050  8.3225898209651206 10.8868333897778413
 52.5704775620487297 27.5261067548152241 10.8359622719299580
 51.5442988909033772  3.4279931309518679 10.2802273391745622
 51.3282459248073692  3.4955675671744388  7.1626380574764950
 23.0216535580108292 14.3813626101781988  7.6625357809550385
 32.1201248414266161 43.6262696483105330  7.1799137379546876
 52.5122740597821434 27.5473168359001015  7.7141800176904507
 28.5140664944158289 14.7498367253786444  7.9070578242267073
 35.2302284307773235 39.2731421050401508 10.5725574393799420
 28.4098666095058014 14.6928726887573742 11.0252869507582023
 40.7151033653100924 39.4595567179675726  7.4145825275917447
 22.3440655993039208 63.7344263781749447  6.8724516124754240
 22.5717204752602250 60.5385993848783315  6.8857154718713298
 25.4620233817657109 62.3556469848750794  9.7507079613996268
 43.7880940918305726 35.0254807197309290 10.7732968502735282
 22.8282580152550842 60.5949604833510165 10.0025595531536613
 25.1982113190570161 62.3270808206080460  6.6333820549035885
 40.2039409606380005  5.8725863490507937 10.8722957578598916
 49.4686309345774404 32.1187472313139821  7.7134109399507915
 11.4522751958322679 19.8210534477620257 10.4607085532702282
 28.3095796248509970 60.9852336678606690  9.5318354721127960
 19.7224474032241588 61.9472785700635598  7.0972020351884906
 37.2853737457618877  7.3567971295289940  7.8315097536604243
 19.9542434769380570 61.9786722647262494 10.2146954695354815
 28.0642211323691342 60.9227491187382029  6.4127916201133859
 22.5993410082069524 63.7356424864954434  9.9898071637954384
 37.3063907048936443  7.2767369993420870 10.9523970516990996
 43.7685250441522342 34.8949038147301067  7.6542036402447540
 51.5538987383892930  0.3027057420411368  7.1047189878824977
 45.9965853143200931  3.0711744684755140 10.6096005044590900
 42.9968216079300589  4.5335905689096299  7.6369364174395882
 31.3631184217157077 56.4871829601136639  9.4801162933563567
 45.8514476296770326  3.1212271670305367  7.4903365548178114
 43.1009587739795350  4.4711158764172447 10.7572071810633076
 46.6183532467792574 33.5061455597893385  7.6926290694377641
 28.5316541201970146 57.8498952361546728  9.6080493587803346
 49.4895499833642347 32.1686170683176229 10.8351542000227781
 48.8901384887900079  1.6742837088208860 10.4312177687641103
 48.7041446045877251  1.7105584781254912  7.3126174509703921
 46.6392633597128921 33.5983288404374605 10.8130943544807785
 31.1837927197236233 56.3235794750143555  6.3609069216917637
 25.4290528958779092 59.1306354515402290  6.6747502304760653
 51.7794228227701794  0.2828889990245890 10.2226037604144224
 25.6871321489699724 59.2177624771777928  9.7913899865038125
 40.7175503065997262 39.6518044322516161 10.5319271484192853
 40.4336682356783612  2.7156739086506976 10.8101007827823601
 40.9179505202311660 36.2849692535076329  7.5989318776453105
 31.1434540471821393 59.6226483643344238  9.3613911026361389
 29.3458110145339575 45.2218702283719409 10.2792398357404124
 43.2240782790635691  1.3419006977782586  7.5852999476009115
 22.6616089713528872 17.4996993967749468 10.8343165709036846
 22.8079520890243188 17.5497169000796625  7.7162330688458169
 14.2947658930295027 18.4531766634028074 10.4845887489804568
 43.3326916590713367  1.3175897247713395 10.7063737797663130
 29.2404410983412930 45.0211330821711826  7.1624825335016808
 35.2095288868056784 39.0690453834109022  7.4554128992311632
 25.5299024233926311 16.1012429913682560 10.9410522899902709
 31.5760829255309581 10.1739516548702138  7.8805597918907537
 46.4110896720245591 36.8063860354067103 10.6982046616526336
 25.6638906239476228 16.1503334377397181  7.8229273497284524
 37.8577220229619869 40.8465176069870992  7.3239207384243237
 31.5120329085454784 10.0913000249721581 10.9997289379933409
 40.3672544477220399  2.7567617779858185  7.6882019483279160
 19.9416032052737933 18.9486196242217559  7.6109478310471825
 40.9359806132257233 36.4486325685653654 10.7168339681277089
 38.0830072943832505 37.8653328550598758 10.6477855228037779
 14.1714480987071312 64.7610867790394593 10.5720410841640859
 30.9460355876517390 59.5208465926596446  6.2399378900797773
 43.5642029406058384 38.2320288186326493 10.6201718839435326
 37.8712722323147517 41.0636755607438317 10.4404795355693842
 16.8728387882996032 63.3563141936334802  7.2890364626569140
 11.5307558616053942 19.9803691317029504  7.3426400440073500
 14.1101658083708639 21.6296365396687236 10.6124598543843405
 17.0659486448097937 63.3675673918292972 10.4075310948909348
 14.1855177331243887 21.7472942794012809  7.4926805069469635
 43.5690281130041086 38.0736935005759491  7.5011440080728295
 38.0659747586951198 37.6763139578196657  7.5308453183421458
 14.0204234211618921 64.7675464315177578  7.4520358104347473
 16.9546092600254674 20.2603006706942885 10.6506080264590413
 17.0661372992944891 20.3479581101900280  7.5309736318737626
 34.4300038681715463  8.7667382429427079  7.8757112572028953
 19.8043370749154306 18.8850994409699418 10.7297131479221832
 34.4085914544640730  8.6832614353283741 10.9956399314633568
 40.1411233397925713  5.9454530925201849  7.7512186963146199
 42.5552350291343586 10.8979079029830377  7.8192577376685257
 30.7099540180812483 62.7256987797952661  6.1891957221410152
 38.7089127217065752 28.2471281521787922 11.0792481834708774
 47.9774637735384033 14.3488556408302568 10.8249785227492801
 47.8282135719046479 14.4388745958786497  7.7075989132424789
 35.8346466535515873 29.5596785869539893  7.9294514572291126
 50.8545636016938047 12.9296316362041210 10.6291981255423913
 50.6747639306717943 13.0416909651593347  7.5129296643777783
 35.8378796286494179 29.6665471137206680 11.0477362543384228
 53.7262663072725601 11.5152207654658465 10.3985335971338575
 53.5213837689080449 11.6496228762389720  7.2831006089579802
 32.9845467454004577 30.9601650668137651  7.8711295544413984
 56.5903598742079055 10.1089317522405224 10.1404593182467053
 32.9683595134796974 31.0789398052591217 10.9892400603597995
 56.3711940090996677 10.2636149530107978  7.0258029592692210
 59.4439832639089829  8.7090167168167163  9.8694429840967466
 59.2265868572646212  8.8786966933473668  6.7541855587930604
 30.1259700250113838 32.3587455573718117  7.7979422000728533
 62.2854206495288665  7.3182379400835940  9.6055215259305307
 30.1055958203168750 32.4795767565368010 10.9166129345214014
 62.0906989165802727  7.4940056686596597  6.4880581930100458
 19.0725319558874595 31.6167989687459077 10.8813716873083131
 19.0579642815234784 31.6162903882498796  7.7593885541497514
 27.2563578564897107 33.7554879630842422  7.7318535115322273
 27.2507460171668789 33.8656258481901915 10.8515757577099503
 21.9178390981622897 30.2447404724379219 10.8896783470922180
 21.9398327209281341 30.2185009240003311  7.7679251974074051
 44.9817741981117649 15.8395218389547665  7.8634156784420881
 24.3784441230200883 35.1531889050824589  7.6946056851325100
 38.6796434121960644 28.1581803989554125  7.9603489204115876
 42.1357436505936107 17.2413747572141709  7.9784119623881402
 19.2791272618793528 28.4495510726088554  7.7426150328353476
 52.9062856903243528 21.1812578754259953  7.6247221033995656
 22.1009557241128434 27.0598656152156991 10.9003825002204255
 53.0337608196304728 21.1086298749633023 10.7433565444072201
 22.1596291422272031 27.0523227744046650  7.7793455639902245
 24.9528950525510389 25.6785599780514175 10.9716834865946335
 25.0331839736018793 25.6546797062919758  7.8516439952913171
 50.0584514094880646 22.5705245333714402  7.7530772870593010
 50.1762061444827197 22.5375738213197678 10.8723157384406335
 27.8137036171526155 24.2854781798744170 11.0597083098662861
 27.8961022439532798 24.2559956169129229  7.9403272243566390
 47.2121529580148049 23.9626971746985511  7.8536028051216373
 30.6858452041255561 22.8789291116852880 11.1389714909290056
 30.7484902359046117 22.8550517220822336  8.0197541252602136
 47.3137535247728422 23.9667267139003393 10.9731897516202714
 33.5657457867845821 21.4627423733522704 11.1890119112473485
 33.5957681998243203 21.4519169028785335  8.0700987508012219
 44.3674923278540518 25.3585057784813479  7.9226943666216600
 36.4485248501934080 20.0413045459235946 11.2003869868159676
 36.4418993222474157 20.0478025792541388  8.0819192428859843
 44.4483536479698174 25.3960305053818409 11.0422878296180667
 39.3324435606249452 18.6178967184699360 11.1699913767219456
 39.2886933024782010 18.6439663510943916  8.0515366937704247
 41.5233439386199024 26.7568743438713668  7.9585985451574075
 42.2159502246741525 17.1942963516306015 11.0971360934799232
 41.5794539989368772 26.8225165333596891 11.0779391498503177
 24.7674927189701606 28.8688731724482288 10.9389237073549879
 24.8178184597015097 28.8215173972117498  7.8180940558013949
 24.4012200581062899 35.2422263664113444 10.8154292779440482
 47.4149395604542292 20.7854984311630062  7.8400946788548209
 56.3557027357882703 13.2874066101735959 10.3069188176527966
 56.1610703564815239 13.4418235952816012  7.1911923631947161
 47.5366568600968975 20.7566274924746068 10.9589002565854177
 59.2088150426874122 11.8778994069687833 10.0581546935207022
 59.0158887824343878 12.0613982762475267  6.9434332064975184
 44.5704430307741291 22.1830970552342528  7.9412465217155752
 62.0520012080117453 10.4763698963556067  9.8075217648345099
 44.6655621086107146 22.1844054369449708 11.0606631454918904
 61.8769737447518935 10.6813150925592222  6.6915290736851061
 21.7366200461921011 33.4296090039913381 10.8626918689554852
 21.7191737320716562 33.3850604960612074  7.7411880009216532
 41.7265460162694453 23.5835229295900177  8.0050450821869461
 24.5836484835184024 32.0568477796457572 10.8862444115936174
 41.7914704187454902 23.6112252414539405 11.1244244419274168
 24.5991954948799432 31.9878311508912390  7.7654457523718552
 27.4363817089107265 30.6753865126532119 10.9454314153097165
 27.4731914997726783 30.5894538685468156  7.8252492642800959
 38.8825830160346158 24.9856877611117554  8.0305758929933990
 38.9157172530654023 25.0361647942746828 11.1493841592398955
 30.2971528517456079 29.2821487847338453 11.0218419729243564
 30.3368387683492244 29.1913818355542389  7.9024583616599307
 36.0375585444477480 26.3885315900315476  8.0184571065675438
 33.1660990352312837 27.8754451911566896 11.0915308274600957
 33.1900408303369332 27.7912783069631466  7.9728884696631317
 53.3123041007059868 14.8259623377969927  7.4212374424539105
 53.4957330367548067 14.7040000180248747 10.5372866779803402
 50.4029613361875093 19.3295620701472259 10.8219808272827418
 50.4653780445824154 16.2154998852868957  7.6230744348398254
 27.6237163781166259 27.4819676345257982 11.0156690957280095
 27.6865066885659523 27.4231251742751923  7.8956053334570200
 21.4974732743682466 36.5517887926059828  7.6993280673831288
 30.4902410836107265 26.0814637619244820 11.0967480654530561
 30.5439911041945003 26.0234984640051721  7.9773462852878074
 21.5555704487529241 36.6135508364563265 10.8203985638889293
 33.3649367884722352 24.6692905060526968 11.1584892895992915
 33.3932547039762966 24.6218505468505242  8.0397369626450974
 58.8097763018759494 15.2388685489554323  7.1320725569452392
 36.2435340925729008 23.2493820993693383 11.1878999913888482
 36.2396621899332843 23.2179058694426992  8.0694741875813047
 58.9725989563196578 15.0614344842959351 10.2478642411032776
 19.2538895016978771 28.4332997134560088 10.8645112909275259
 39.1234976761039732 21.8254997769283072 11.1793591925194811
 55.9568650962804526 16.6180178738869664  7.3443517489894559
 56.1215275498488282 16.4800540373081681 10.4606995152122835
 42.0031919466708530 20.4009182477447055 11.1302626357636800
 41.9304779238541840 20.4118837809666651  8.0113301048714156
 44.8812890784788934 18.9754025616516770 11.0397465189155906
 53.1075858968727061 18.0023133845838892  7.5370497483961856
 44.7750955397872374 19.0104559090432517  7.9210413956088646
 53.2648642619912494 17.9038629826432008 10.6541653584099851
 47.7568593753510697 17.5493362408141564 10.9086912568264562
 47.6196773944665921 17.6106468971707280  7.7908851158699592
 50.6288960178991587 16.1253726040270884 10.7399211564228967
 50.2601588603091471 19.3911745681185934  7.7040147401487573
 39.0855625252015315 21.8142669990643228  8.0608583210690785
 30.9178896991449541 62.7519917682901180  9.3114069709916496
 65.1959591481182343  2.9050657144344409  6.1050735100959788
 65.3449218040562272  2.8045210885414504  9.2287664415425628
 39.7592056727635992 12.2215306620006281 11.0494471635122196
 39.7038869953614437 12.3035400535065786  7.9301514840555791
 29.7257742538715100 38.8601350867852346 10.6325414462436658
 42.6492452393412407 10.8062902229325655 10.9378347504774656
 36.0400763670828042 26.4583441562348085 11.1369871413415709
 26.8136300083669035 40.0872892791198652  7.4888959990592117
 26.8803500468509746 40.2355983147126395 10.6072568495172401
 45.5390990178583479  9.3945227382724354 10.7869859831947146
 45.4074024195309107  9.4926846435803842  7.6692904600062581
 48.4264196682901868  7.9860893775456816 10.5998752103726499
 23.9329261034479721 41.4853824305594827  7.5085763342673353
 48.2579294258813718  8.0871626948273914  7.4827560165404643
 24.0370631471498051 41.6052836341735315 10.6272782232490268
 51.3116788104236790  6.5818364070258939 10.3785530037144511
 51.1064624618403087  6.6835103926994801  7.2618965844218568
 54.1910354394764653  5.1836299426953589 10.1256610244814631
 55.5584380251915633 22.9784953950003761  7.5759049705112096
 53.9537620198155565  5.2839662176429698  7.0097964427648556
 55.6526531052257099 22.8876738983561729 10.6957445736159560
 57.0585875780359331  3.7933769801105539  9.8523592874455375
 56.8050317024293676  3.8871174513305569  6.7363338049793438
 52.7080637787187669 24.3633329012327842  7.6837606600076480
 59.9107441140467998  2.4124213150230469  9.5808896240942154
 59.6644911678588201  2.4908881388083404  6.4627831562194826
 52.8022977340899189 24.3166715495863244 10.8040165167837809
 29.6921590406064411 38.6905752590753167  7.5148815307569539
 62.7476318173277718  1.0406235528818353  9.3391950654904914
 36.8530837161020131 13.7082374508123248  7.9996754801117147
 32.5762592855285433 37.4752744897755150 10.6914684621090466
 43.9672049377529959 31.7153027197615529  7.7764146746684553
 33.7417054572799415 61.3909228402141025  9.1716219559065948
 44.0096174792695223 31.8166905023223734 10.8958672532462231
 33.6039125178386726 61.3249458608250961  6.0463315253794114
 16.7716490792948854 23.4393480655346238 10.7369984762881412
 16.8421750403334300 23.5143322881817411  7.6161329432907321
 41.1200243922178217 33.1089910562610541  7.7526473930468436
 19.6189553801703056 22.0676101510448675 10.7874857206210439
 41.1527020459568078 33.2420855847683754 10.8711903629992310
 19.7216292095854406 22.1164182802800973  7.6675387180512589
 22.4711540624477450 20.6869911638377033 10.8727402754970566
 22.5932917142181218 20.7176729766666305  7.7535045869458266
 38.2718908565286071 34.5043886186521505  7.7077143313766143
 38.2930863119005593 34.6626263195037723 10.8255105350014240
 25.3327041960961239 19.2937085517148432 10.9734578531491689
 25.4553361778901142 19.3185073877977338  7.8548832929122590
 35.4212212219517681 35.9007037467399002  7.6448280619929081
 28.2059657558753401 17.8887564626017479 11.0644201231018968
 28.3077408538633328 17.9188340703712115  7.9460053399001378
 35.4330671861327957 36.0754543047288081 10.7624979311675695
 31.0885596326535101 16.4753385203391218 11.1246322764972980
 31.1557443788416393 16.5168988308236848  8.0061470602922089
 32.5624439425887644 37.2960535939957438  7.5739935411898669
 33.9763468417054284 15.0569821162879194 11.1440274541291799
 34.0032436583510815 15.1126768134649403  8.0251939713407712
 36.8678753870470430 13.6384070289249824 11.1189314914146973
 62.5366163134222859  1.0937091411990576  6.2175342410490773
 49.8597138901364829 25.7519970907142017  7.7703401021338028
 33.5148871158388673 64.5165893670053805  9.1580265067341884
 42.4306996871783682 13.9941849483727463 11.0296246917167764
 42.3431932468430787 14.0708878114190536  7.9110029354914868
 32.7760915309176966 34.1288995498647267  7.7370121733172832
 32.7723765232125004 34.2794130399039219 10.8547357166183129
 45.3161125069930648 12.5758025905649475 10.8927753050903835
 45.1920742661229582 12.6682900955739282  7.7748053452650705
 48.2002243411308271 11.1600052709864208 10.7158692121950700
 29.9110018045489028 35.5249355777586544  7.6674063732983191
 48.0409251661273373 11.2657355717622156  7.5989611323440043
 29.9151849010321698 35.6721266142245952 10.7854573802470313
 51.0816750535786284  9.7481078467379927 10.5017382169940401
 50.8885515972206903  9.8653639890311506  7.3857456014028271
 53.9581762477766063  8.3423431678798821 10.2541392604112716
 27.0363921945445540 36.9217272257617708  7.6186444890319800
 53.7356180977982092  8.4698419133791756  7.1388037985773281
 27.0655519430361799 37.0527913400745916 10.7375814481880987
 56.8246492194107020  6.9449184027461595  9.9818880229136973
 56.5856029957486726  7.0792461322212299  6.8668842291608643
 24.1563831162747462 38.3187526614666183  7.6080635988294736
 59.6776786271052089  5.5545461598643699  9.7034292238778512
 59.4422532197377222  5.6889382966184305  6.5864874192651026
 24.2197334988423414 38.4252112216695494 10.7280626968093493
 62.5176914155961896  4.1740671936296998  9.4422374442390815
 62.3109402117024516  4.2982016420243419  6.3223065273264325
 55.7565896088493318 19.7966728907137686  7.4734924276639472
 35.6353879361385211 32.8726388418004376 10.9219678349184957
 39.4941340591138470 15.4744670335869738  8.0056841118080655
 39.5439921234399847 15.4155418813074121 11.1244909168217472
 35.6292878142931073 32.7305856209369139  7.8040615999292449
 49.9479676245456901 25.7474167597161347 10.8910549780627441
 33.3689941480274541 64.5352719307668536  6.0328068406375008
 16.5901403397091869 26.6206584192286400 10.8120815076240842
 16.6190220311955734 26.6806930402829039  7.6905245046402628
 47.0130899136383889 27.1427468073255440  7.8321773079605235
 19.4356236008264958 25.2503810007862981 10.8329551990687776
 47.0905475626604897 27.1781949879696327 10.9523265697912322
 19.5005261200290718 25.2833325735189689  7.7117702017802099
 22.2847992390671443 23.8737451356360708 10.8947828547707388
 22.3773694035463073 23.8853659876852937  7.7744027774878184
 44.1667903017190326 28.5361677304910089  7.8667823268943549
 44.2298933610389184 28.6068471430920148 10.9863232397037311
 55.8872248192504060 19.6816468753499336 10.5913312647085114
 25.1405769549328504 22.4865104278725596 10.9834068733555981
 41.3212096003429821 29.9321973961386547  7.8734918908091229
 28.0073312802190948 21.0870106484596960 11.0762434550673952
 28.1024528189337808 21.0875412119360668  7.9573832921536498
 41.3667919023690231 30.0329611686721734 10.9923641146740572
 30.8851540650560672 19.6763115445773309 11.1479651064874226
 30.9517359341839473 19.6862936830055375  8.0290955582997778
 38.4763527645190919 31.3315548244239110  7.8517871678386255
 33.7691413258968467 18.2578524189814964 11.1833741531816635
 33.7984540976297936 18.2822870186872031  8.0644468812293812
 38.5016967749098953 31.4564930169469150 10.9703237016755555
 36.6560881209551397 16.8366912240864508 11.1759547980483234
 36.6455653661486664 16.8781242623255494  8.0572101757226520
 25.2454342017039899 22.4867404044493853  7.8641113765074575
 45.0973727232060426 15.7708736464199202 10.9817997569826122
 43.3385736897339484 41.4348039518292026 10.4376300985827051
 20.1903051924031303 12.5240901783970529 10.5832587731061558
 -3.6598699045516523 39.6446859288630122 11.1666344684798773
 -6.4299507188791649 41.0718740474179924  7.9716347002825376
 -6.5346417653477076 41.0715282010175713 11.0897526252152705
 -9.2745594260658315 42.4721432333489375  7.8562595596339975
 -9.4052612245341436 42.4986367023309342 10.9741179570456229
 -12.1201450772862032 43.8680631675567696  7.7051564721514900
 -3.5855034870202869 39.6695321288420359  8.0486093482441614
 -12.2714733189338929 43.9247827411054317 10.8224870357755840
 -15.1320730768715190 45.3497746593009836 10.6391749069669874
 -17.8180033717299260 46.6421987910447484  7.3134144433105712
 -17.9869857670532127 46.7720802610913395 10.4297918375379908
 -20.6719005934115110 48.0202435130297616  7.0859350034758952
 -20.8345098719273487 48.1885207684487682 10.2026027312846832
 -23.5333705122932955 49.3940754261231376  6.8535322095418483
 -14.9678376931904982 45.2580051086203383  7.5225638131299357
 -0.7838697179499139 38.2176869319264938 11.2033552576130049
 -0.7420698990881975 38.2651419461896154  8.0854439788544941
  2.0923321636068826 36.7928621953074568 11.2004940337313030
 -23.7408835152816522 52.5716971773680157  6.6341069128414523
 -23.9086065957869920 52.7664741318946255  9.7511644152844354
 -26.6186024414228513 53.9507950324292906  6.4040896971969561
 -26.7356676809157641 54.1539903484268521  9.5240753845871868
 16.3973638519695015 29.8475188122415034  7.7515008637919340
 16.4089505226533738 29.8041611873748806 10.8728702581547587
 13.5201826715332860 31.2461022218157538  7.8039891765528031
 13.5605697125377294 31.1785238470108368 10.9240836771792811
 10.6524633815678484 32.6465524159718186  7.8856819773300391
 10.7050121272408418 32.5623268320266348 11.0046131015196647
  7.7959423943412389 34.0491594664255288  7.9736549863826260
  7.8401596067615227 33.9598468145376913 11.0917671056012637
  4.9475189167315827 35.4533041143403693  8.0444034509325881
  4.9678691896227578 35.3717312370745063 11.1614946957194725
  2.1018688705700579 36.8592849092572834  8.0832876472899589
 -23.6745972077593834 49.5959949377134279  9.9707422100609620
 -21.0700997260470615 51.3696118579906553 10.0080730722913351
 42.7510970238670751 50.7694492739902827  6.6360649414076818
 13.7385885964318231 28.0793206366443080  7.7157621379839050
 -14.7686889228150768 42.0806870652431471  7.6153664458251686
 -14.9008387904731450 42.1445871648401678 10.7337159579440353
 -17.6189375121118665 43.4657156395958566  7.4485294613505006
 -17.7524973402881265 43.5710901240106736 10.5663393989431977
 -20.4721016946427810 44.8453376419107386  7.2634983717020258
 -20.5988967964813341 44.9939073292209173 10.3814224051736783
 -12.0444460350079439 40.7164688436225148 10.8778483875031267
 45.8252436517861881 46.2204582746965187  7.0687745213121040
 13.9604394001583731 24.9135848740930932  7.6106074806186399
 13.9265334984868101 24.8092238248994796 10.7310873840658729
 11.0824666356396158 26.3124515305077615  7.6502161209368422
 11.0797838013411880 26.1821234371287126 10.7692950980734405
  8.2130401686309202 27.7115901003635088  7.7219316403121345
  8.2264450293540978 27.5650792870172232 10.8394918142960588
 45.7154179281111013 46.4112801707613087 10.1869462794887582
 -11.9203176710011167 40.6904706361717814  7.7591143771337761
 -9.1832597721556599 39.2879369710311011 10.9936019208871585
 -9.0738989279625457 39.2963356658282308  7.8751220437903147
 13.7439073234470737 27.9920347346783061 10.8363126177565032
 10.8648855596750700 29.4789042901958069  7.7793970268932586
 10.8926003924224712 29.3699895620564391 10.8984993112839934
  8.0027154850295084 30.8797632821398693  7.8626254250240368
  8.0341809084168379 30.7603181577479923 10.9804082453218186
  5.1499068066850535 32.2822640405130272  7.9413804231597087
  5.1667675012116199 32.1654364104616590 11.0581996731251646
  2.3035459686008810 33.6870967701791741  7.9966277095160079
  2.2957046374486803 33.5829027163730345 11.1134642619568247
 -0.5406657604705375 35.0922419264411545  8.0197536274399575
 -0.5764940776416103 35.0057813381190144 11.1376860751596141
 -3.3837002004263188 36.4963356599364630  8.0076612432887213
 -3.4479789848320159 36.4320061656394714 11.1259734468952889
 -6.2281739679297594 37.8983192314376183  7.9589371455328495
 -6.3174843538404124 37.8599890972163990 11.0772787671337820
 42.6502661644939209 50.9942833238438382  9.7541511881223659
  5.3555050219606688 29.1127300053893237  7.8031548959854513
 -20.8751497693817427 51.1946288834994832  6.8923715525142866
 -18.0189729636374523 49.8160655170950548  7.1543738186177626
  7.4476213905766979 40.3686270410803942 11.2123067945754382
  4.5464788549722934 41.7950725587370115  8.1365307403406799
  4.5665523693254313 41.7883077642399243 11.2542862531892922
  1.7012585010546566 43.2021497404172479  8.1377081494792520
  1.6838395725192261 43.2120744833910351 11.2552584431190894
 -1.1452556937721441 44.6081418595894093  8.0959030074650293
  7.3916131707882906 40.3890500369934813  8.0943427873948544
 -1.2005986093309844 44.6370283270705599 11.2129969342654547
 -4.0840789263384636 46.0612159973064266 11.1273916818075378
 -6.8382134992123405 47.4141686525034558  7.8819698148967516
 -6.9658565844330722 47.4846370809197893 10.9988811867471519
 -9.6835231857676547 48.8147502645236600  7.7125901208521599
 -9.8461363933600463 48.9060214907485715 10.8286552558324622
 -12.5282181593732638 50.2127782129895266  7.5027828406229267
 -3.9919976636068015 46.0119681470276447  8.0102018522697094
 10.3231407217284463 38.9572272971811415 11.1346860339372906
 10.2385411638273460 38.9847864890412268  8.0162075239196842
 13.1885501038611945 37.5601706879951180 11.0372650982476355
 -21.2978822703195085 57.5603996351653464  6.5310320639508506
 -21.5376236934623151 57.6879426037065457  9.6476736472704303
 -24.1731125436015226 58.9496985238014872  6.2685798724575932
 -24.3723184242451758 59.0657195718515311  9.3894786110091921
 -27.0653912642800876 60.3417485350690370  6.0643849434261705
 -27.1946073404185569 60.4343704462321440  9.1890517074981712
 -29.9715316407912020 61.7365670115151204  5.9476735703303794
 -30.0102517355470084 61.7963318570148914  9.0758747109769278
 36.2738716349333785 63.1358346456764892  5.9370632759959863
 36.3319590626392497 63.1563073224091482  9.0654478875653002
 18.8375843665147400 34.7834569243924605  7.7621339587227087
 18.8914750958091666 34.8005885347863355 10.8832502015760682
 15.9609725707800365 36.1831195152551501  7.8260755503433472
 16.0433562521851556 36.1759940661425787 10.9460826485764411
 13.0940491537999684 37.5831272079165046  7.9184116823980366
 -12.7233820681378624 50.3244535983707522 10.6177508161904228
 -18.2208013881838973 49.9637586647120813 10.2694281118308393
 -15.3740584445938495 51.6056200100716183  7.2561646798055577
 -18.2245593240633355 52.9918687566464470  6.9827454364361516
  1.9014215647248989 40.0307870520051665  8.1301891935351751
  1.8885479839571864 40.0030385950724465 11.2477889357054082
 -0.9432598946915715 41.4374921891571759  8.1105507433504958
 -0.9911661826173697 41.4292134624343404 11.2281046170536722
 -3.7883226162623438 42.8413120450256528  8.0488818326990152
 -3.8716117768414913 42.8549306593797539 11.1664961985029034
  4.7679307752830695 38.5800007035777170 11.2272846116731735
 -6.6332444469778107 44.2439033439559779  7.9454169433485697
 -9.4782200757005288 45.6446546206732648  7.8015994349140012
 -9.6261415182039798 45.7055797072664731 10.9184102308305988
 -12.3233564745480138 47.0417378304615141  7.6190016325202485
 -12.4976812204356609 47.1290324715691114 10.7350393617605810
 -15.1694423054861254 48.4321489888073984  7.4008095253504127
 -15.3630200580622684 48.5492490292089087 10.5160928885553400
 -6.7500329193820106 44.2806117247523545 11.0628697900692838
  4.7468619654220801 38.6241491031104545  8.1097725629685531
  7.6448078792270113 37.1632107235097635 11.1700069738324981
  7.5926504879925165 37.2187314056630711  8.0517047049071717
 -18.4547448372738963 53.1408793229635990 10.0970441864045011
 -21.0834435084684095 54.3737073514165701  6.7002096168450240
 -21.3044089181596590 54.5353530455017577  9.8156939845430120
 -23.9536582947101664 55.7563500940388721  6.4315025142390754
 -24.1409861390671736 55.9227816233803949  9.5501642394908579
 -26.8387915150865837 57.1411232772301219  6.2055727209828655
 -26.9657648197348543 57.2996977213780028  9.3279962278348147
 39.4168561755136295 58.5306007261269130  6.0534680386994886
 39.3727869832683837 58.6680737571664324  9.1789607857270088
 16.1779754284937738 33.0150623958519631  7.7971154534781073
 16.2269439036225513 32.9890567414326341 10.9180824158664631
 13.3051983992430713 34.4141264612285696  7.8723308565404881
 13.3755483335609764 34.3678881456109693 10.9919673209848607
 10.4436656230824951 35.8151678939118767  7.9655578635816680
 10.5151483780783650 35.7582269681693674 11.0844362871713624
 -15.5939144345264094 51.7365804137745258 10.3701758664239829
 -18.6889377584573460 56.3024655918600487  9.9330962071205544
  5.3654878300741746 28.9629467682296848 10.9199984172589293
  2.4992442806100135 30.3740477067838981 10.9883092299233454
 -10.8901660454078684 24.6668311772268929 10.6930018807991996
 55.3621887498831171 26.1625050081362858  7.6516841636922983
 55.4187498563362837 26.0961437850711171 10.7730578384211846
  6.4625141754935722 13.2785645343512684  6.7395826930594147
  6.3665239117681915 13.0502492087044040  9.8570622856118426
  3.5751600677932029 14.6746056277306760  6.7859426302777797
 -10.9417011188363418 24.7779413284404626  7.5728535705604605
  3.5367493136029884 14.4230986793834681  9.9024056685620341
  0.7053097592135585 15.8053695961526088 10.0018498609697577
 -2.1731620598541159 17.4503734733080726  7.0197947800931964
 -2.1297624611329597 17.2028560624549591 10.1358194398348846
 -5.0346708181672231 18.8333958058114455  7.1668269193735057
 -4.9687890385923668 18.6153636137693788 10.2831845418309822
 -7.8914575900616448 20.2150103790215319  7.3132111574471654
  0.6959622824832189 16.0643380504370441  6.8857981561941299
 -8.0448358983000627 23.2393535155478723 10.5980788093430807
 -8.0898179389452309 23.3937341018585023  7.4792718886529626
 -5.1998468351028819 21.8149538031597459 10.4907239885426797
 -11.1367443833873043 27.9617253375536805  7.6675681359303205
 -11.1233098730171793 27.8756719603176535 10.7885616155680424
 -13.9879623790507122 29.3472434074528437  7.7004972424222524
 -13.9704807141148581 29.3056701053472928 10.8228679973886912
 52.3178714846647921 30.7326177738571005  7.7160894530753534
 52.3378030579200768 30.7369504287818920 10.8387797890699105
  6.2288102026501022 16.4472086423402928  6.9762264844172774
  6.1617520346612213 16.2145890808653306 10.0930437553949659
  3.3494610687043527 17.8428397790261855  7.0433787761045759
  3.3253152375978567 17.5942770335720198 10.1592394891885291
  0.4804149993940877 19.2337845695828804  7.1450009150090974
  0.4863588160516943 18.9874301416667670 10.2604796054234484
 -2.3796223666571508 20.6215557760297123  7.2598256763515785
 -2.3559280674173926 20.3956785495624509 10.3757459456408174
 -5.2355170790330900 22.0084119127101445  7.3736546112647599
 -7.8104360606372358 20.0358382353385736 10.4306315513916044
 -8.2762472835849614 26.4461284528444374 10.7379608587253337
 -10.7453045037043466 21.5955659994529050  7.4511827332455152
  3.8075926932289632 11.5005866136449750  6.5337803861938450
 61.6681022278874238 13.8618804929383437  6.9099280137618271
 61.8168734743310679 13.6498009190854539 10.0258636391942151
  1.3794707225082152  6.5216527174280881  6.1540980200225688
  1.3709699605722148  6.3396887813318621  9.2777444579076267
 -1.5199912339147945  7.9140712860193485  6.2696716768981409
 -1.4475601717766373  7.7079628902174102  9.3906410620744296
 -4.5030399057063306 12.2474867541273404  9.8095679174645944
 -4.4065434013009570  9.2993318458707126  6.4576777105648846
  1.6147244587164455  3.3195882090042641  6.0008524668621304
  1.5954883167087959  3.2080041310184493  9.1273742997191416
 -1.2910277162081436  4.7164600286772265  6.0824601855581948
 -1.2196485474403360  4.5703773115700042  9.2068496995354039
 64.9695928042975197  6.1070969568049387  6.2536425127597006
 65.1154457167536549  5.9390605313897344  9.3746164693902188
 -4.2709163010021935  9.0860363274544813  9.5759413175873416
 -4.6212046399371216 12.4827421797352454  6.6932659599473929
 -1.6752341053443429 10.8584469855805281  9.6224752613682707
 -1.7433464467633406 11.1003071471832904  6.5046318218007952
  3.7511650022502963 11.2631519418467114  9.6527164619780610
  0.9184249126280547 12.8916027781170843  6.6205721544937957
  0.9253680685286156 12.6367594874443743  9.7383190272633815
 -1.9612543473797099 14.2778294994682255  6.7620192344464165
 -1.9028965564281139 14.0231568660982280  9.8786755978905187
 -4.8301405414198282 15.6595281793720034  6.9363168805704181
 -4.7357301789852064 15.4245063645678986 10.0521624292822356
 -7.6913389021664349 17.0381327297951337  7.1216705889312744
 -7.5749899780643624 16.8378444109205638 10.2380699839863194
 58.6083873095492436 18.4161015628217086  7.3037956533447659
 58.7360981980467258 18.2575860998132704 10.4212595621371111
  4.0439749605793427  8.3172669640455386  6.3072393091601802
  3.9672749780971821  8.1147573789964085  9.4288520177940107
  1.1468918161006727  9.7123387375719830  6.3691342244873388
  1.1477571217362124  9.4818621124040732  9.4893171834703622
 -10.6553645259448881 21.4603246846585485 10.5701759789015099
  2.5066154387888009 30.5146410437264208  7.8716185519009771
 -8.2859190787588002 26.5743229966096450  7.6181042310154412
 -5.4350182873591288 25.1854574264752102  7.5527823884924468
  8.4176636674747041 24.3758605088386737 10.6726854717752726
  5.5651162945201351 25.9444520718439584  7.6325905291258076
  5.5640042709872768 25.7647720291227849 10.7493264846378267
  2.7117832804543776 27.3440728383858271  7.7103662629173151
  2.7034499792172739 27.1687359730537814 10.8268952843364428
 -0.1365214703738478 28.7455831779322040  7.7716702389406702
  8.4287402986809603 24.5452465667696842  7.5555680107769856
 -0.1585900085693228 28.5857772413805371 10.8883233447782395
 -3.0187769627955210 30.0091249618097926 10.9270892062394971
 -5.8297968963468474 31.5437308543096684  7.8219540700362824
 -5.8767683848218235 31.4366477887378686 10.9406085700403004
 -8.6781147404959835 32.9372243439600467  7.8094813168155879
 -8.7328439826348081 32.8655241215498606 10.9292101125413428
 -11.5273447938122597 34.3280648863243627  7.7731863006454294
 -2.9831920449871889 30.1459243047997987  7.8093508950343518
 11.2658278398328182 22.9991159528243827 10.6215264587851230
 11.3041315589578772 23.1461601268812238  7.5028083730590405
 -20.3639857883683213 41.7916101864258280 10.5356274917312263
 -0.3386177180288411 31.9187196007754110  7.9143771078800667
 -0.3682524333223368 31.7945082263441208 11.0319058007144157
 -3.1829654486605601 33.3214381757444187  7.9269535207765784
 -3.2345772037884393 33.2196044733366023 11.0451779181046472
 -6.0282971399584424 34.7219422271444813  7.9081235511685248
 -6.0981801133500602 34.6479817812408157 11.0266902649665486
 -8.8753088252323415 36.1177366014226351  7.8587930362046379
 -8.9589667910416235 36.0765424112976802 10.9781358243546556
 -11.7229557224144738 37.5100342921938719  7.7816223415290642
 -11.8161326900853059 37.5061245158840322 10.9014771794748064
 -14.5713869349706933 38.8996183088909291  7.6791143031718541
 -14.6693133333947028 38.9365909404065818 10.7994148222211575
 -17.4216827286334812 40.2854720844358098  7.5559300452615705
 -17.5183655054552787 40.3653119453795242 10.6758829211077497
 -20.2745456511007554 41.6673141401475959  7.4161415840915863
 -11.5867144574299239 34.2955845145356903 10.8941631393699936
 -5.4282163147076004 25.0189869109265253 10.6707663985901604
 -14.3757984166900883 35.7164853174042634  7.7144846111541669
 -17.2260637234559049 37.1023505079984872  7.6362918130796817
 -14.1819322790792679 32.5320058223236188  7.7217177731365663
 -14.2040482372310315 32.5160488126903360 10.8442299869180339
 52.1241714726873155 33.9177666468545098  7.6897602399834257
 52.1046572596022486 33.9477133873669814 10.8125354235512372
  8.8795814981737582 18.2141731298557232  7.1676542827755556
  8.8013822004509983 18.0147882222924949 10.2851481773817461
 -11.3556819248274863 31.0853091287316232 10.8562018662693944
  6.0008445099090393 19.6127121486655547  7.2113667915592226
  3.1312083259148968 21.0090286596881839  7.2906260724398493
  3.1165504715553878 20.7762765207184330 10.4063760076479017
  0.2714244856960951 22.4027298815509752  7.3836101668540115
  0.2687257561536689 22.1800951232099486 10.4989164641723161
 -2.5826741152151871 23.7951235990942500  7.4733934905909702
 -2.5796003775186760 23.5965469471373268 10.5895609433298841
  5.9606055577001573 19.3890916878305930 10.3279184027804600
 -11.3321676885768525 31.1451457490688668  7.7348018823277096
 -8.5053369878316882 29.6552561676362032 10.8487105479008292
 -8.4815995325102307 29.7559458734710773  7.7288158343476567
 -17.2845677308875700 37.1572723885013971 10.7578616490348349
 49.0773581076235743 38.4859704078113793  7.5422305826249092
 49.0253952672794782 38.5855254813968642 10.6628223384882670
  8.6512494005312277 21.3794397321193621  7.3688111762746011
  8.6091476614407423 21.1923677397291392 10.4856967513023989
  5.7794929715618126 22.7777517512061465  7.4332252592204453
  5.7616687382377707 22.5727581837258455 10.5498326793938109
  2.9194004955992359 24.1759496214660246  7.5154214331794158
  2.9090633884462509 23.9688363578029282 10.6315959709413761
  0.0667830187724343 25.5731935435920192  7.5937208209667775
  0.0538485619376039 25.3804662629243865 10.7094597625319956
 -2.7837993653247670 26.9701314245462420  7.6573305283282105
 -2.8008701256670419 26.8011414226293212 10.7741479725925977
 -5.6325579301776818 28.3642866622020762  7.7029480992397081
 -5.6536643800643125 28.2265200607676476 10.8215349911716423
 -14.4368370198353020 35.7268240336342586 10.8363174255112451
 -18.4362118948464442 56.1731235878421060  6.8187933847263773
 -15.8255440584452067 54.9082058381701685 10.2183640112759377
 -15.5839186844265747 54.7829640366033388  7.1045369826808837
 11.9675715958335154 56.6964062190019149 10.7987515239632881
  8.9919592203175362 58.0214738181595848  7.7399234509738797
  9.0711442650140750 58.0970014317736698 10.8596523961569869
  6.1362399471830251 59.4348790624125485  7.7660847152017460
  3.2792174414245991 60.8500468976009188  7.7584905437325746
  3.2680013637360168 60.8956055963845344 10.8802951159346417
 11.8451228277854756 56.6105533333068394  7.6801959302525686
  0.4221015688192440 62.2655573814193914  7.7179995420100482
 -2.4355854290891923 63.6807341126587829  7.6463180631931662
 -2.5354926720694673 63.6890155690182453 10.7676257812823248
 26.7664432745247716  0.2563154333574287  7.5447676281541396
 26.6240106658191316  0.2453168216594432 10.6646519631738315
 23.9111859847536508  1.6697354457956448  7.4140322151042160
 23.7276037873108976  1.6396830792455326 10.5323645227549054
  0.3658693019105716 62.2929055084861858 10.8399196631676134
 14.8600930153441766 55.2961493946140834 10.7037707649916953
 14.6958726633169547 55.2034399878475242  7.5867032213380945
 17.7436136229397441 53.8976751112754471 10.5762686615582950
 17.9729021014710462  7.6673099530339526  7.1440965729795307
 17.7360188510192671  7.5706504647816937 10.2596562338041526
 15.1099550194126522  9.0715578819262355  6.9811631281109658
 14.8776239360351514  8.9500866320127841 10.0968155248202578
 12.2358036685976987 10.4744382252964776  6.8448102102533532
 12.0316823779027917 10.3198029619405762  9.9615745120351065
  9.3513525264427884 11.8769933427063386  6.7590800446318759
  9.1962060752775550 11.6840537440356442  9.8769685565543188
 26.1282671222525664 49.5882285854852540  7.0449791111598286
 26.3150934600584172 49.7590974150718353 10.1605964354315645
 23.2561397158428917 50.9904502405389053  7.1646601840949540
 23.4698055344899501 51.1288445304260435 10.2792155980238711
 20.3951446453804834 52.3942262121607882  7.3118397858816930
 20.6138386369666620 52.5080615163735018 10.4266061308056557
 17.5436242559278845 53.7980449321224796  7.4601117927716603
 21.0575221140159101  3.0791058189300151  7.2553318901866675
 20.6107192116001059  6.1842175076191470 10.4241730506530352
 20.8353612634305598  3.0302306659236979 10.3719969871303501
 17.9536815756285293  4.4164155326569654 10.1883513431454222
 12.1890870944178555 53.5241167729186245 10.8830304172570465
  9.2121063883690706 54.8395060683751865  7.8224884105377175
  9.2963051781107620 54.9299965391268827 10.9412973180450628
  6.3590817316630233 56.2500202164651668  7.8421676947891354
  6.3986464494126771 56.3359115952903835 10.9617257416899001
  3.5042046383161245 57.6622402344147318  7.8247491788027235
 12.0623797027985979 53.4330417588349462  7.7655114834481189
  3.4981555388690189 57.7391044393018475 10.9450782718005293
  0.5971874193525896 59.1394233820353463 10.8924347697883324
 -2.2082473813039845 60.4890008789704012  7.6848302600843708
 -2.3027905482633804 60.5386710597921649 10.8060053482465435
 -5.0641480764115991 61.9027319925523827  7.5673397593631124
 -5.2019839384073610 61.9353739095553379 10.6873975761613131
 -7.9186608269396395 63.3162449642680727  7.4198330731558819
  0.6482254720325449 59.0748917418409931  7.7714075408996379
 15.0754460590445039 52.1185330011623620 10.7874306118805290
 14.9100786051625178 52.0292469463977127  7.6708889973255321
 17.9510879728425543 50.7202325495663047 10.6607714817948516
 15.3446861215948793  5.8901924907598673  6.8821804006853498
 15.0886859038534240  5.7960014209029769  9.9977771297309008
 12.4753713422882839  7.2951218396549748  6.7089861749415585
 12.2393052194967797  7.1683543002137462  9.8257723646114350
  9.5925751698243253  8.6993164362197977  6.5797198955773366
  9.4019133058330890  8.5336322493490631  9.6979603973497284
  6.7007992774168619 10.1021611073653954  6.5180399410680412
  6.5747357468231220  9.8965127814051552  9.6370069315066686
 26.3592454300228098 46.4195220670109023  7.1977422839205465
 26.5068005063938301 46.5891466991480883 10.3139383666036295
 23.4830871650121757 47.8208683125358718  7.2839612514351382
 23.6645221107205614 47.9578489315924514 10.3994604113879170
 20.6157410975676143 49.2231973104110878  7.4074721364156613
 20.8134111649404936 49.3334961027693453 10.5226012047067226
 17.7590061160599326 50.6259438131815642  7.5450506954431953
 18.2038578122064933  4.4848594296726132  7.0728290924209771
 -8.0986481953338938 63.3305006252504086 10.5380099265679110
 20.8288360939552568  6.2637355973356810  7.3076372100373730
 23.6823349105469347  4.8582617388067888  7.4508800441665466
 11.5077417061569278 63.0072453137232458 10.6973499453832410
  8.5372009127996566 64.4032896394750765  7.6634152515855627
  8.6075772715728469 64.4036670129590902 10.7854083608772449
 37.7382976512684820  0.9795735363833303  7.7199198528149777
 37.7646344145074764  0.9611707755898137 10.8423416867772389
 34.8801195554729020  2.3949104549680218  7.7445611701397237
 11.3942171636462941 62.9878115553083688  7.5761837266088623
 34.8618172430558957  2.3584045282949515 10.8667555911474114
 31.9604557598592898  3.7570607778820402 10.8582276354620202
 29.1661303278027368  5.2234208667167774  7.6966114285345091
 29.0615129336835878  5.1564141713353973 10.8163491313725899
 26.3108073285596582  6.6333806255144436  7.6231614081846040
 26.1660003637573872  6.5561865950684561 10.7416549882765775
 23.4570626555675616  8.0392054843590266  7.5175267153777590
 32.0225637882818788  3.8100250076096667  7.7368738763954834
 14.4049272829247208 61.6127903031416437 10.5789339473934341
 14.2489321798680937 61.5747263960783968  7.4591701444120666
 17.2981829514795180 60.2204191270284355 10.4303416042282660
 17.5168604732662665 14.0128786662350890  7.3384565120200760
 17.3311785653706849 13.9075606701086194 10.4551150573239564
 14.6426246431371343 15.4134661997318609  7.2344960049988458
 14.4823462658394675 15.2805655048614906 10.3515615995599539
 11.7619539089913214 16.8141821312425641  7.1742450757500071
 11.6406409500649506 16.6475326911833825 10.2920566217225602
 28.5362525815840620 54.5380787650514307  6.6215021087588219
 28.7463788083384415 54.7070103496217968  9.7380189950526219
 25.6615248616955682 55.9417670362128590  6.7680067305656904
 25.9052636902825881 56.0738830831827357  9.8837387667514598
 22.8001332302719213 57.3477954715699170  6.9495066803728074
 23.0514329737810009 57.4485137204030138 10.0650028537237226
 19.9489501721365841 58.7550136324521404  7.1386587044292042
 20.1823496322156437 58.8305413467211693 10.2550001247180358
 17.1002058521600873 60.1644287367627228  7.3127548876616855
 23.2756061588285235  7.9546027912275727 10.6350158859111623
 23.4981907282938245  4.7924559557198414 10.5688640772403062
 20.6029207967172354  9.4409063147534500  7.3841925551071492
 17.7442749769307326 10.8427555928395467  7.2378415548085107
 11.6218084995657147 59.7963043912494427  7.6107480015372602
 11.7398974597195309 59.8557309503399182 10.7308131850352755
  8.7659894527393529 61.2105039598461431  7.6821395474143035
  8.8406726359377128 61.2529946385745632 10.8032514634615637
  5.9088770485041717 62.6256295064386919  7.7221074511640531
  5.9387835169860468 62.6497969323825217 10.8442351848761422
 14.6353781379375558 58.4597024121056634 10.6270411849611257
  3.0511628718705568 64.0419600923204655  7.7299846420952614
 32.2517846603354670  0.6188907926108581  7.7061872644955249
 32.1917698238415397  0.6038439634283217 10.8283172436663264
 29.3942138024013850  2.0341748801434947  7.6514972717767717
 29.2908336922822308  2.0002370902351152 10.7722347750563028
 26.5374558931736146  3.4476965727630011  7.5661876008723388
 26.3925485997165126  3.3970306253638265 10.6853687085130300
  3.0357968088723983 64.0465297184712199 10.8525441083797141
 14.4749196211730471 58.3853592321235411  7.5088023211092976
 17.5253214415798659 57.0651542436099604 10.4924036881883502
 17.3245793674665656 56.9774650189848373  7.3757871731849818
 17.5288320056815898 10.7357023554841682 10.3537203978328876
 14.8755328363429431 12.2447940239587503  7.1031523440821758
 14.6755862447022203 12.1121793686284871 10.2194815725800900
 11.9971233409105249 13.6463338617038765  7.0047279566575140
 11.8323881299139249 13.4797406772104775 10.1222085236440247
  9.1134465680098486 15.0478486437848424  6.9607278068508727
  8.9967226095498170 14.8449077996067267 10.0784355848189406
 28.7725076335109158 51.3592577316660126  6.7887898469345815
 28.9529687238103719 51.5548582303850864  9.9048471711882531
 25.8951077531329403 52.7616895068853822  6.8973279681974748
 26.1150364942843218 52.9216264857015872 10.0124768537432463
 23.0286459130611973 54.1651177179162744  7.0486557737586812
 23.2663029446506684 54.2933572978452617 10.1630589193015144
 20.1729944502779510 55.5704538964737935  7.2167838987337785
 20.4031456416319550 55.6744914460948408 10.3319629184817892
 20.3948056135691012  9.3489090214491100 10.5006064072357308
 -10.7719164336568252 64.7279614506557834  7.2432177592401965
 -10.9924955563178752 64.7223927491225197 10.3599949205153106
 18.4345789646992166  1.2957091893290045  7.0406422224153493
  7.0443270066305157 46.7759113996543832 11.1903943221327786
  4.1426591525074343 48.1359242744828535  8.0805510237539355
  4.1563938974124790 48.1961490903177179 11.1986329978337285
  1.2942818804502081 49.5421632316194049  8.0437017452026769
  1.2652194605344516 49.6164554470768238 11.1618292698093509
 -1.5553377608727605 50.9468954186824448  7.9617225395218130
  6.9895384167588581 46.7297341430803002  8.0727310993519144
 -1.6265821873815123 51.0339240235121778 11.0797784739676413
 -4.5176652505946935 52.4486311276147390 10.9542013475149389
 -7.2556463581570609 53.7580419382351451  7.6725687942472121
 -7.4072641674868951 53.8603159829753082 10.7889757721814448
 -10.1040997570160549 55.1622475095390499  7.4710448625158499
 -10.2958160687400682 55.2672064561958294 10.5863453170019994
 -12.9514409346421022 56.5658613890781936  7.2346805194339989
 -4.4058452032453843 52.3523831544060059  7.8368107208385531
  9.9284133136063488 45.3596366055074682 11.1398329590119065
  9.8354361791245246 45.3260056397265743  8.0224374621708296
 12.8049457191447473 43.9497460086213465 11.0525040390180056
 -18.8787260469111438 62.5556596140105512  6.5977176545789744
 -19.1542136965641490 62.5904784718130500  9.7137600381321452
 -21.7487399295383206 63.9569313718390760  6.3465371117764944
 -21.9992671676336045 63.9632163638354641  9.4656108936107319
  7.4246291097242816  0.5182494663237398  6.1448108905345711
  7.2298825198954013  0.4887873054043966  9.2676191704665207
  4.5233866623294343  1.9190269944412526  6.0223715952648620
  4.4101883946871494  1.8483847135862228  9.1486306805822863
 21.2759884292456469 39.7181878982307310  7.6437518530033737
 21.3744934884075306 39.7953786943320580 10.7635434357560342
 18.4014171625208292 41.1188678195185986  7.7217735816828510
 18.5259491068961388 41.1698298764884569 10.8403366020101810
 15.5365174410038485 42.5196392098558817  7.8263964123627767
 15.6704366005951794 42.5529562581534364 10.9441363430414835
 12.6820685919749074 43.9224327179523968  7.9348294146448657
 -13.1810680373342475 56.6695039837214551 10.3492440655087439
 -16.2919102239612457 61.2101665496812402  9.9820558168405409
 -15.7993839762304713 57.9661686985670954  6.9680469767531656
 -18.6543244269472268 59.3610536917555933  6.6838754502330255
  4.3455878771247294 44.9657580145136464  8.1258371870837340
  4.3632365232175641 44.9944331952997132 11.2437993496202839
  1.4992560511634052 46.3726519722662616  8.1076437494693003
  1.4764906086203882 46.4175731509628235 11.2253146375960426
 -1.3488782209995978 47.7774803589040076  8.0443686119025184
 -1.4118308574755054 47.8396169226277266 11.1616859065094651
  7.2475723869227817 43.5735247725649160 11.2184074891844947
 -4.1973498662145206 49.1814591661359657  7.9365165092845693
 -7.0450311145767142 50.5843073602120583  7.7866680879707957
 -7.1842336705317402 50.6793688621118719 10.9033993824498303
 -9.8915543684798450 51.9855030027503702  7.5966190636382898
 -10.0689762185525780 52.0942014448737964 10.7120379786754860
 -12.7371767481884550 53.3860469753898172  7.3675883918696243
 -12.9509696125693505 53.5046993733300127 10.4818327316542632
 -4.2985491039347492 49.2607744262510110 11.0538272610424269
  7.1910060306586976 43.5592921073774875  8.1008573506904114
 10.1278312075765946 42.1584475422028504 11.1531657286061385
 10.0366383534007522 42.1552873372751833  8.0353300994378731
 -18.9224408956089754 59.4510101353033562  9.7990227851633094
 -21.5194077148549425 60.7556947603786170  6.4067991893106200
 -21.7695892053377875 60.8291342364509617  9.5248491693444990
 -24.4003936381324387 62.1512014911886013  6.1680139423393161
 -24.6018575776216295 62.1985789952193926  9.2903141602224348
 -27.2984459739641743 63.5491441958219951  5.9998617669520948
 -27.4227117310703079 63.5618136394489923  9.1263203209969586
  1.8515643094537497  0.1092376763812697  5.9290303922258838
  1.8216626371043176  0.0819282786813271  9.0575452316718508
 18.6187125689355604 37.9508073857954500  7.7496908587554278
 18.7096851984654506 37.9849706430371299 10.8698692758159954
 15.7470944006443734 39.3509301440918833  7.8361470431635061
 15.8581053457526888 39.3638756521996172 10.9552618550910470
 12.8863789282951853 40.7526247530480035  7.9397070037911863
 12.9984303564305161 40.7543201700888886 11.0580205895689865
 -16.0584756239578041 58.0651356064931008 10.0824948213221308
 -16.0210732521339025 61.1545946849756277  6.8667244054177514
 -13.4132245774337875 59.8218372132987994 10.2412775734966246
 -13.1704893649284358 59.7518277993322826  7.1256852312890953
  9.4252927295896765 51.6654917096676130  7.9084977099644220
  9.5140301674463750 51.7495424873940735 11.0265763879911756
  6.5757622866653174 53.0726817450619137  7.9318372099299088
  6.6216314471002296 53.1618448371924330 11.0506792532543354
  3.7234528555596786 54.4808847310707307  7.9142687113029533
  3.7240991557841756 54.5715106943172046 11.0332826447975041
 12.4014922603870090 50.3383556304206863 10.9614349042442392
  0.8693540772661220 55.8901642180706588  7.8563530718261081
 -1.9849377335874367 57.3014948646218656  7.7612044883315123
 -2.0728285418587391 57.3824191270082196 10.8813620235144342
 -4.8391994530458069 58.7130785467775027  7.6322641955224295
 -4.9700323923961323 58.7833350017585019 10.7516474969224163
 -7.6928629940781086 60.1244623287832809  7.4708328270723561
 -7.8660108906369164 60.1812783577482122 10.5886104721537677
  0.8250083710376374 55.9780757765630028 10.9760744261619028
 12.2727416601482791 50.2617474654499290  7.8446096381516641
 15.2811804485924618 48.9323190061316780 10.8595732716089390
 15.1198840856310373 48.8590019009884031  7.7431071150209592
 18.1798828168558977  1.2697872036506368 10.1564631975010915
 15.5787967277759378  2.7013843236240600  6.8229190267544357
 15.3086860372902649  2.6502884480090692  9.9386016690659833
 12.7132595366436050  4.1079782207636351  6.6138741756952824
 12.4544400756808695  4.0248096251117369  9.7308329446694266
  9.8348283585422500  5.5135896593764935  6.4411471424385880
  9.6150124747666990  5.3923255301065405  9.5598235362743740
  6.9427085084480149  6.9164756572568011  6.3320642988471807
  6.7878162487673883  6.7533242282171537  9.4528049830580798
 23.7082597573031855 44.6525645612412632  7.3996938647205486
 23.8523548953564273 44.7825395910260298 10.5168663073576010
 20.8355252864876128 46.0540305690973284  7.4962824367258625
 21.0051877513669645 46.1556979090519164 10.6125761218608634
 17.9727514940405548 47.4563048266112233  7.6188920678995107
 18.1490040803554393 47.5379008054437620 10.7349785675020577
 -10.5447622744967564 61.5358803775639558  7.2785214251131105
 -10.7588455381947998 61.5769744444305758 10.3951918577974354
 -13.3950599749071557 62.9429307425178663  7.0578439805160391
 -13.6470764986269462 62.9663813695031251 10.1739466873753805
  9.7238240292314071 48.5575572211053057 11.0961124524942498
  6.7851650577575375 49.9004038671630781  8.0139252734406146
  6.8363139776493647 49.9736524445301313 11.1319788458899485
  3.9363027419062142 51.3065838290643654  8.0061149840391064
  3.9441521504505266 51.3902761474754186 11.1245906629712046
  1.0847433429170463 52.7131494078028737  7.9543367809423939
  1.0482216310694277 52.8042543025030824 11.0731562041679421
 -1.7673762583742929 54.1206255716267464  7.8604992644491620
 -1.8474447655745927 54.2151410446823263 10.9793138390990084
 -4.6194179597823446 55.5294776835162054  7.7282528682830156
 -4.7414708929500176 55.6225340062011639 10.8463124768393566
 -7.4715454356049129 56.9379038350758222  7.5602524347126261
 -7.6351793302513489 57.0263057888021692 10.6771239617636340
 -10.3219690221361997 58.3461462315087829  7.3586725578556536
 -10.5260646691658390 58.4267986375826425 10.4745856119140637
  9.6321646374377856 48.4953758144469589  7.9787942053201046
 20.3813082381936184 12.6123847849644584  7.4666697826237005
 12.6066234452254786 47.1451837134164364 11.0198059678370850
 15.4789738732873854 45.7429505303399822 10.9123352713401047
 -16.2484125352364721 64.3474496323403287  6.8162310001673214
 -16.5236670110234662 64.3495215492369539  9.9319008878257762
 12.9487436117071510  0.9135782798887875  6.5737053360263822
 12.6763994691970581  0.8869076628526441  9.6904624436513682
 10.0745651836804697  2.3183575162661305  6.3592049468490339
  9.8342823518295077  2.2564007290755321  9.4787117099184819
  7.1850169673390969  3.7210826132515487  6.2022207992696590
  7.0059997807183407  3.6184399870814046  9.3245987405876107
  4.2835790595164323  5.1227047087920132  6.1296590852740387
  4.1871020553072018  4.9776122595002184  9.2538415180203888
 21.0554560331472125 42.8854014067956015  7.5755582502100909
 21.1916774839176725 42.9758449473746822 10.6936348181472418
 18.1862303873944775 44.2873499793922960  7.6780024178536737
 18.3394939959331893 44.3540064364403790 10.7951839160679377
 15.3278555261278910 45.6894445037910444  7.7954333223456551
 12.4786535623960813 47.0921602385552873  7.9027746257392772
  6.1706048160917728 59.4967392697581161 10.8869554906931203
 68.1634954840813805  1.4417131644140504  9.0939667844723147
 31.8910798595300697 46.7917572836374163  6.9612791769925328
 34.3133795926552381 51.7421898282308845  6.5222191326227348
 37.2259427021510518 50.6044247079480698  9.7027714052007177
 37.2038907700747572 50.3547307429181643  6.5842448257881454
 40.0510390781982224 49.2188578589451069  9.8272108007655063
 40.0866277039397829 48.9723264361661421  6.7095288519100853
 42.8806917813777275 47.8199948374553756  9.9957670865484989
 42.9601262547773715 47.5944155820362411  6.8783117607656159
 34.1860165378721845 55.1251040010807785  9.4294728103515872
 34.0779859781365460 54.9251054140487938  6.3088413238305350
 37.0059469678762625 53.7585658424160471  9.4638986777282845
 36.9754103418324576 53.5337441624130719  6.3432819706343810
 39.8264052701145062 52.3823770606787633  9.5774004051155330
 39.8683039055026001 52.1488746699840036  6.4580956852310116
 33.8408070785900890 58.1200386635068398  6.1428589287517079
 36.7828746866283609 56.8991767296513018  9.2633120787020129
 36.7432734827569121 56.7234640307302271  6.1395548026532074
 39.6000288134228811 55.5314666582026604  9.3534720774171181
 39.6450879445093065 55.3340910217080904  6.2310596147531392
 36.5581584791692293 60.0300308099259823  9.1245454993770903
 36.5089369038118505 59.9250004669504932  5.9979605601647208
 31.9867833115343707 47.0233299340569886 10.0776018494229689
 34.4017153816474632 51.9772332979550669  9.6405846628359360
 31.4219307963980725 53.1369866275824521  6.5347577286886462
 33.9658770338681677 58.2621486269737048  9.2665431389984132
 46.0256659730304634 43.0461641317333346  7.2651275221337270
 31.5767291982780911 53.3428623565519260  9.6521178956139124
 34.7720637213297792 45.4007757789802113  7.0045508783855022
 37.6574215093220630 44.2549597977325391 10.2073569515623639
 37.6447656167218625 44.0146754719372169  7.0909752340708900
 40.4969443674903999 42.8503161764936351 10.3185530072139215
 40.5092501041843889 42.6314751845537856  7.2014523293214019
 68.0972540661143029  1.5088157718574096  5.9661641335432929
 43.3682643423156620 41.2500021845630940  7.3194249643678075
 46.1812736689723664 40.0121533881544806 10.5546978118131829
 46.2239004957324013 39.8682354334548066  7.4353625965970771
 34.8212314507454792 45.6453076730828329 10.1207322457659963
 31.6580838320557092 49.9606653683146646  6.7413832203167994
 31.7844547948387408 50.1881307451976753  9.8577211711484605
 43.1654978695843710 44.4226986537263144  7.1103502889118948
 45.9494381618039611 43.2149133431513803 10.3836636425291644
 40.3000934092920104 45.8012712198641765  6.9630466777637245
 40.2745632329819827 46.0409640471879769 10.0805079824901664
 43.1102500383599363 44.6318807850919868 10.2279941243977337
 37.4427312711322884 47.4362523183070337  9.9567164013573777
 34.5452582202199494 48.5690133564537803  6.7606583732136540
 34.6135679718493918 48.8172627300914854  9.8770152439651362
 37.4273679831608206 47.1831275390470211  6.8399490670636114
 45.1531125003191676  0.5567582171976949 17.2299261606437604
 42.0900620927785880  2.0895279784448104 13.9968255078942398
 42.1861774543316486  2.0610656795228453 17.3532767852858143
 39.1693367793839471  3.6046253429841224 14.0822362702108617
 39.2176183905392080  3.5648229791912329 17.4400857855712736
 36.2473548695682126  5.1184702078752320 14.1308157251008204
 30.3983348847836865  8.1432389120967947 14.1158725584060694
 33.3240022599306371  6.6312763448899510 14.1420340789953798
 33.2776334366207251  6.5733544740636765 17.5004586663194885
 45.0109457837566111  0.5734321434528478 13.8756107422284884
 30.3070437973293139  8.0788625277820625 17.4738417477817087
 27.4687915144414134  9.6551213635356898 14.0546334246028106
 27.3377889485727081  9.5853684336946650 17.4114879554111788
 36.2480567655936383  5.0686756115247533 17.4892739449924051
 16.0581211193190043 63.8906515873793168 17.0737731496703802
 21.7468946526189946 60.8365085962978043 13.3626847611357338
 19.0168641583002014 62.3835280752541550 16.8946931450735676
 18.8064616306206354 62.3690726206810808 13.5468692217623214
 21.9693661665297313 60.8735267948627765 16.7080577105589967
 24.9162177627374000 59.3589947442916355 16.5325367222726776
 24.7014505231251960 59.2949229562536573 13.1893382073020113
 27.8589410514588920 57.8391558475016012 16.3869002596692255
 27.6707954855808431 57.7460616628592973 13.0448868512553560
 30.7979023198441801 56.3154442965620703 16.2876922555774826
 30.6530726653353938 56.1922192735373187 12.9457724243652610
 12.4233422008453847 20.4804443311911371 17.1191891759579171
 12.5109385025211246 20.6235037599526692 13.7666219773311056
 15.3635712366224677 18.9589317816531171 17.1483759838972354
 15.4815588325508688 19.0785969068819874 13.7952157537338902
 24.5330836796809670 11.1700357478295196 13.9652719922285655
 15.8760165161231637 63.8936735227622847 13.7228040015150370
 24.3730510158144718 11.0938788532926385 17.3201241011752565
 39.3717890888762128  0.2630399968915798 17.4139568628223138
 21.4152838175215301 12.6052035215322817 17.2131495567816337
 10.1812923600541225 63.5967787128679944 13.9808962346286805
 10.2813388130594827 63.5991483788964658 17.3373470762484736
 39.3201095442522757  0.2741517052296271 14.0561732963535420
 18.3062817488227765 17.4382318987378113 17.2104832911656622
 36.3993121925898748  1.7901425096865380 14.0956662748106520
 36.4033679124161083  1.7663881266309611 17.4538380136076512
 13.2482809279634388 62.0956114214009460 17.2247873725793532
 33.4777315365072212  3.3054546484788534 14.0995189570628092
 30.5557323264678296  4.8207223384849360 14.0667190438415002
 30.4657879329157808  4.7752370982235952 17.4240079364980716
 27.6316062012411656  6.3363131173635372 13.9987542299185996
 27.4977469707742905  6.2806697155909932 17.3545491805441010
 24.7028680214868821  7.8538267050992427 13.8999250093763962
 24.5331142383843215  7.7870598290530513 17.2540443324344075
 33.4346329123132335  3.2702598185125149 17.4572586252357880
 21.5888350050706848 12.6920161681852246 13.8600628487649047
 13.1022264930620000 62.0790979089992945 13.8708536199435777
 16.0277424608962633 60.5578144255136905 13.7305660346975298
 18.6345227834760863 14.2241369018997617 13.7571601666862460
 18.4652862644516311 14.1196385126420214 17.1086225723571701
 15.6716546158222432 15.7654179189845056 13.6725829706279960
 15.5213924536886090 15.6384980923449515 17.0230709638236455
 12.7015317831261729 17.3115301027515116 13.6190289861689493
 12.5815298009834198 17.1602473663581563 16.9692672564794513
 16.2117675000473369 60.5910033471339275 17.0817705751969022
 27.8377584840713403 54.4022010085089462 13.1471157840478430
 24.8659935978947786 55.9525211398659721 13.2621466214726951
 25.0702539472313504 56.0580399193930887 16.6061389667999642
 21.9066714220730141 57.4962931678298332 13.4087002066083389
 22.1227965702258160 57.5738501672868352 16.7548898686280303
 18.9613361286126398 59.0308596671014527 13.5712403512026878
 19.1701424358945083 59.0840261969620073 16.9195204594091493
 28.0133517736719035 54.5364340750668504 16.4901988659317702
 18.4467059313282284 17.5362387245959894 13.8571334167061373
 21.8177006838056151 64.1723145527170118 16.7030061090386184
 21.4053112478640415 16.0017405888342630 13.9413965345725455
 27.0068252184018682 16.2111939036176125 17.5334554072837498
 27.1213835115295687 16.2631590081184605 14.1752461565124275
 29.9751845892381397 14.6992124011807928 17.5962700681842996
 30.0614557862898906 14.7555724192671462 14.2368005644310092
 32.9492844170922083 13.1892628332857669 17.6253022444290721
 32.9963070642660270 13.2520972953504792 14.2652203290392343
 35.9250859719864124 11.6810782401200353 17.6132784405092231
 35.9280318976598423 11.7493390591211551 14.2529533927883332
 38.8997675926478266 10.1738539747663399 17.5583984308378618
 38.8569681890282510 10.2447938497381159 14.1992277362801520
 41.8721620765967089  8.6672106871511616 17.4624519672216394
 41.7840942318274813  8.7383757540293079 14.1046462004717856
 44.8413046499167294  7.1603419010877900 17.3276392152049681
 44.7103883057387890  7.2298458315647531 13.9725049928896734
 47.8068871101209893  5.6525848110984311 17.1579096354025822
 47.6373166593427797  5.7192814169729989 13.8058435033507205
 50.7681015238871751  4.1429699233074846 16.9588024118733678
 17.9886364652125827 24.0878758495357914 17.3816161246492094
 15.0930523155449201 25.6948066469922445 14.0081715471677306
 15.0462721037576674 25.6088753502149622 17.3651830397289189
 33.3261556903309568 61.3489764061832830 12.7164099399356250
 33.4307643823848863 61.3944692617874210 16.0576161704803653
 30.3346939475630641 62.9038672979290894 12.8198326929246189
 24.1735295058497783 17.7796622378135183 14.0947469726597472
 30.4947236377935269 62.9186781869237137 16.1613750319603113
 27.5558482096023418 64.4396293501774267 16.3218804443452470
 56.4521478956600617  1.1535054632365929 13.1782272189906902
 56.6721609077066972  1.1177773998281808 16.5218126820470381
 53.5040175216459986  2.6835333558714316 13.3952927838763873
 53.7236575238762342  2.6317891246724243 16.7411928038427327
 50.5671952392583393  4.2044029646760475 13.6102222592094186
 27.3565181583673578 64.4524561352314862 12.9798327918470680
 24.0463148997154441 17.7252662325054509 17.4518675568097237
 21.2173006383579548 19.3075195358281206 14.0140648974388800
 21.0936175629673173 19.2418241360356355 17.3697901522529037
 41.9388424862772666  5.4176801096299210 14.0405311022594130
 42.0310795225884704  5.3633228683588312 17.3972737355916607
 39.0156610544888522  6.9293609146751356 14.1329425049443813
 39.0610868694688094  6.8680581782095738 17.4912271685808420
 36.0909913293882596  8.4393664472832128 14.1869833729998902
 36.0891918483706888  8.3729952217956765 17.5461874112608385
 44.9986888136217971  3.8578159888175043 17.2659347103127416
 33.1639207977972745  9.9476872221592938 14.2016771087560230
 30.2332420744968502 11.4546857329145499 14.1778258668170860
 30.1431373360544903 11.3860709681373589 17.5364740969792408
 27.2979406570573744 12.9631544859709535 14.1186434139602017
 27.1734420405389479 12.8951545054035961 17.4761293459199152
 24.3559183989792238 14.4774979497724861 14.0344283159056626
 24.2100262239590158 14.4066704670037051 17.3902564167618081
 33.1161422536912369  9.8789735178014748 17.5612499741279535
 21.2545357224679208 15.9208757425491445 17.2958204384948289
 44.8615407394601178  3.9047194547470019 13.9114414369416437
 47.7860133320549920  2.3893679587124166 13.7490085373665689
 18.2551002284501180 20.8450499348470544 13.9481541639041406
 18.1471699810767291 20.7615472201607716 17.3035131364506967
 15.2882215523637175 22.3880199913212650 13.9089504519591447
 15.2051045663473765 22.2828338693951373 17.2644704221121437
 30.4910237904005008 59.5451245399644478 12.8562557342259502
 30.6455932257189296 59.6178112592984490 16.1979998772205143
 47.9630643172205779  2.3512879724380666 17.1002977764918604
 27.5105504310171121 61.0972950210349879 12.9866991793894115
 24.5444923024053239 62.6431270253750725 13.1598393299844627
 24.7646630130401419 62.6582584740889530 16.5030211705722607
 21.5940898035199922 64.1803339466732297 13.3575777808006571
 21.7656680700155292  9.3760892512797387 13.7809212128673160
 50.7153072029335803  0.8690170884094286 13.5600414599098595
 50.9228465628755274  0.8433262296152126 16.9082942874039972
 27.7067782301613406 61.1400225513507749 16.3284881110414766
 21.5746204659083070  9.2952858490393062 17.1329443652116069
  7.4673318871132270 61.8011904060950741 17.4175380532876645
 18.6234117663040415 10.8070131933264353 17.0079832208120720
 -9.8163446353368808 64.2195620301652070 13.6823017270013576
 -7.0616652070705186 62.7179059991078276 17.1981216062115934
 -6.8922845915568276 62.6991611982425638 13.8454360206531106
 -4.0967545031212866 61.2122399997484550 17.3332892920261870
 -3.9716275349035577 61.1816106644132489 13.9780945872773863
 -1.1284394550659713 59.7079830343266167 17.4325397517711629
 -1.0511778495035666 59.6666242341149626 14.0755241465912384
  1.8417189040359765 58.2040938124211138 17.4942186993403404
  1.8707876089003523 58.1530352510049866 14.1359244271445128
  4.8132038979889646 56.7003749336586935 17.5183756638966770
  4.7949492692046114 56.6411504160616630 14.1593287459120738
  7.7859349926379799 55.1967448436005625 17.5046541923158152
  7.7213563022146499 55.1306202701032362 14.1457061739858574
 10.7589905682820621 53.6929512499356818 17.4542100564651754
 10.6507636138940907 53.6204601977793445 14.0962708086736797
 13.7297336143201640 52.1877300235049759 17.3713452789579570
 13.5849947515909282 52.1077986863641343 14.0155164573540141
 13.2429100123833017  7.3305887457596848 13.2165361582523602
 13.0454391573336572  7.2270126631130882 16.5603630766995771
 10.2670811932051294  8.8829081935104153 13.1169189684886902
 10.1083453164775836  8.7478444379893858 16.4605525327585198
  7.2813719332152065 10.4361954864145190 13.0695875508150898
  7.1736011710888494 10.2708486265039394 16.4131686922007631
 -10.0223710459907167 64.2251925610474785 17.0314878243018697
 25.4067290171900169 45.9752583125400065 13.6368605583242104
 22.4383955143003710 47.5211294891163121 13.7073452632840205
 22.6009836673177595 47.6516219887474861 17.0572151634881131
 19.4777780236066071 49.0606274675765945 13.8039033236608439
 19.6516060994898432 49.1689485903733257 17.1555083116837004
 16.5265412027024148 50.5892886234909085 13.9125634638792413
 16.6946695642542515 50.6802559547558360 17.2664052144898825
 25.5457490432748102 46.1301479761241566 16.9861100682195314
 15.9861929560601048  5.7101950804021300 16.7003930782873589
 19.3108307325252468  0.9062041381189347 13.4979360915251920
 16.3671394456100643  2.4407876460071383 13.3099798713191380
 -9.8682643655014832 60.9223197182771870 17.0649306482963716
 -9.6680311519973845 60.8832230251556936 13.7152524496767843
 -6.9061221449893404 59.4144690865461058 17.2411850035342411
 -6.7437644701221000 59.3663854160425402 13.8881500709942038
 -3.9397424669934940 57.9086164287561189 17.3840524900149589
 -3.8212398721245746 57.8525043390509808 14.0283363942463613
 -0.9695397535471023 56.4040511058312148 17.4895816217557289
 -0.8979943274338206 56.3411769145333636 14.1317277727193726
  2.0033623376850644 54.8998656827612166 17.5564208116399989
  2.0271997159852404 54.8319949804894478 14.1970643263077854
  4.9784101700194370 53.3956019534024264 17.5838266356006265
  4.9551320642846672 53.3252125779543249 14.2236340041356186
  7.9541924755240414 51.8906866975663661 17.5713540650594631
  7.8860941490320569 51.8198720113923699 14.2116822809862278
 10.9286085325126567 50.3846984898409360 17.5213600463180370
 10.8206230287527614 50.3136371143200947 14.1629904957163024
 13.8984603695962807 48.8769450049839662 17.4407818821533347
 16.1358721166731058  2.4078547245454121 16.6543847693001474
 13.4085007628541408  3.9856858934173904 13.1404284691862774
 13.1954568352834816  3.9241503197810048 16.4831871967916648
 10.4348557187226554  5.5371750482605648 13.0072063410223002
 10.2586452737784892  5.4438494120297145 16.3495375334241864
  7.4490086562140663  7.0924463912389086 12.9262608646190618
 19.0823628609925322  0.8954215489673738 16.8442439594563815
  7.3246059143214746  6.9661247995558195 16.2687712003883362
 22.7623015227874710 44.3332710169668971 17.1712737294521247
 19.6647640853359533 45.7497594092142847 13.8950182986814657
 19.8150750967757006 45.8523769890977277 17.2482730008168268
 16.7082059691865439 47.2819918073753911 13.9887745610767880
 16.8611714967855555 47.3669527386867841 17.3436697500388952
 13.7605150987041966 48.8023043554489107 14.0842689072286014
 22.6284578875036075 44.2083855731497408 13.8191104417700767
 16.2062898854543143  5.7839261035137524 13.3550637297862043
 18.9315563198691486  4.1975663562355043 16.8645289890019967
 19.1553005656275488  4.2462502287466748 13.5174601510526902
 24.8634700851946988  4.5274910584811323 13.8533606373257001
 27.6538251232944745  2.9779916758654057 17.3185585353361553
 27.7869822560260928  3.0084728062862069 13.9634238123340904
 30.6209887730113337  1.4728095052994290 17.3976042781698936
 30.7076822837472996  1.4910525650121573 14.0407267683155705
  1.5305128601763123 64.8078971501371939 17.4402173034246566
  1.5693577292644616 64.8136544094703879 14.0823517699677865
  4.4986936676315690 63.3044391440468814 17.4467303669006526
  4.4905967283592156 63.2974829396694858 14.0886226020585656
 18.0609903478777873 24.1518969528301923 14.0243646000169555
  7.4115720174236026 61.7813854413275507 14.0597306589140523
 10.4363533014540888 60.2978628677416921 17.3516052983900764
 10.3325262873899053 60.2651883342797632 13.9951575436059290
 13.4040507227750378 58.7949107577483900 17.2507812459604217
 13.2559822134590100 58.7474926164607325 13.8964520760502293
 16.3680845228007676 57.2906413416455678 17.1222439412007432
 16.1853417369914254 57.2259051376198471 13.7702857273931514
 15.8570635142632490 12.4466122365450627 13.5496062719768631
 15.6785219507156679 12.3231632874889137 16.8976747902776800
 12.8881413576247148 13.9934276142146246 13.4697571463427348
 12.7381748605107834 13.8440239758672874 16.8175426480971701
  9.9118623445729508 15.5418581947484551 13.4304253282385631
  9.8001425041247607 15.3664634780554010 16.7779487954188298
 24.6893974553586801  4.4837299990060000 17.2061641890018997
 28.0121700149868396 51.0678239008494543 13.2830217103518304
 25.0388689796872370 52.6184322503061566 13.3696188250137169
 25.2271275606832610 52.7538124390136716 16.7148458128961011
 22.0755623183830849 54.1633765260389097 13.4896395663552475
 22.2799006117181833 54.2718117056086413 16.8367568155352956
 19.1242009180060748 55.6988734289448502 13.6289085502586413
 19.3269691643355372 55.7835179438394420 16.9785988429787764
 28.1699128273401556 51.2308787522285982 16.6276507125270712
 21.9330905311606017  6.0508065501336015 13.7182251711182683
 21.7307569089002257  5.9907695459724231 17.0689988521311875
 18.9913659732565918  7.5808368727344089 13.5733734007033675
 10.5947730260719055 56.9963315376325212 17.3931130285725679
  7.5638168420858829 58.4524330162211001 14.0916843296446928
  7.6241629926240577 58.4995297341472096 17.4497473208764688
  4.6409976458406588 59.9665747812399417 14.1115218138343916
  4.6541240558075900 60.0030157603423149 17.4696527302863807
  1.7191491292767067 61.4815533862915871 14.0951753676854992
 10.4881705742961522 56.9382106741131437 14.0360083019139150
  1.6849952686023209 61.5066235781041470 17.4531558541691680
 -4.1208271063502782 64.5149948765935761 13.9555624215600513
 -4.2509802235448753 64.5147970521681486 17.3106748402636228
 25.0169054343079473  1.1947349671383836 13.8337643174500844
 24.8434616776804376  1.1811725763128038 17.1862756963148442
 22.0909104519935617  2.7173848696452727 13.6835468901139770
 21.8840162676344754  2.6882773563585252 17.0331931616911376
 -1.2013484685434661 62.9976560012165194 14.0433742714396619
 18.8170856403763054 10.9065720453947108 13.6580636642474591
 13.5641354999266337 55.4930510788857276 17.3032363505676372
 16.5293867161045860 53.9878565907241423 17.1880306229074868
 18.7790650935795149  7.5004222038408148 16.9220603190094891
 16.0362342432958584  9.1199607929351334 13.4385272159219209
 15.8337138314310142  9.0141032507119085 16.7853082426657529
 13.0692352414145141 10.6669056914276865 13.3305882418912489
 12.8928534621703079 10.5328255727932145 16.6762284034052861
 10.0926115482734513 12.2180786144808753 13.2627890621341908
 13.4164624645561688 55.4224125102220810 13.9477915103678693
  9.9555647046082427 12.0549425879316114 16.6082705997481597
 25.3859528342013654 49.4445943462207396 16.8459101964515270
 22.2535101567829798 50.8388989936448965 13.5938320543966391
 22.4399018098346232 50.9647157223773846 16.9419648170076336
 19.2968634140413364 52.3760736107060865 13.7111529567776085
 19.4882375192963160 52.4792496483207458 17.0616394109676790
 16.3516844906723868 53.9027416123818810 13.8351637640892520
 25.2196047941947263 49.2930415695783282 13.4991070237604998
 20.9333099729259615 22.5668426498836787 17.4278393745579834
 53.3564494612549893  6.0189518149245522 13.4708696724715544
 23.8832222841257362 21.0481884360734632 17.4958554155572408
 31.7563834046872095 36.4445304961317547 17.3042817774389377
 31.7317763622035223 36.2812882498274618 13.9491155449839912
 34.7089999442984052 34.9255108513892978 17.3645702578898060
 34.6961116866094912 34.7643782470632985 14.0083747175289073
 37.6686854506938360 33.4051999758984763 17.4276764514842135
 37.6554294593330141 33.2600652744091434 14.0703219152776828
 40.6344001050026975 31.8827252451773084 17.4781565592593324
 40.6125588230461716 31.7640988885742566 14.1196640370580688
 43.6047992935977220 30.3577456487465689 17.5062554409593965
 43.5703530974590194 30.2735802026869116 14.1473186822741184
 46.5777209222561766 28.8301693253717204 17.5065793391246878
 46.5295686335912819 28.7865758670176568 14.1475499432902865
 49.5510280817486901 27.3008062646776146 17.4766481778035789
 49.4905817286001337 27.3015539751438716 14.1181640139206408
 52.5237859079340126 25.7710332117766576 17.4166834579187650
 52.4538512772054020 25.8174045790230444 14.0593623341935103
 25.7060367325923131 42.8111827985320659 17.1242577322182079
 46.3922160780755775 32.1444197111277035 17.4411114212998726
 43.4093635458341538 33.5541418496191710 14.0442985130936435
 43.4213535016321757 33.6726244612871000 17.4015554835221700
 40.4464317261028015 35.0467136338578413 13.9847347719721462
 40.4545427037307803 35.1983668218170678 17.3408831431544677
 37.4825613456927442 36.5461735883122358 13.9125916648042356
 28.7626909475357344 37.8127507192588084 13.9090827655898686
 37.4937755752225002 36.7219093882045655 17.2675189345314841
 34.5398036754592255 38.2431255205634884 17.1948532488960808
 31.5445984910199400 39.5801041700314826 13.7868367273543537
 31.5923726860397593 39.7641325438233793 17.1390431028595671
 28.5712210803514743 41.1179753186316077 13.7620663496524571
 28.6487013358512179 41.2871977968911494 17.1134645421002922
 25.5982415562643375 42.6629942202813481 13.7725382159783827
 34.5156372233716056 38.0558922953057177 13.8410579313824122
 46.3730128816100873 32.0660870392020101 14.0831786692747798
 28.8097497604661079 37.9653012814553961 17.2633021092535301
 25.8662874758029879 39.4884240138253659 17.2524880418414170
 49.7991565915750840 20.7381390862522181 14.0591238785349830
 52.8888718522239856 19.1498325044300444 17.2723384412959966
 52.7557319983350652 19.2503213302161917 13.9182162795366509
 55.8551216955742476 17.6251628118857084 17.1038948381212350
 55.7164074113311543 17.7605926402637984 13.7530879914433140
 58.8175771534997196 16.1010266222398393 16.9191846893386568
 58.6818416424388545 16.2664816940733985 13.5712801089558717
 23.0830911992939640 37.6856397285829985 17.3658611961381517
 23.0173507186442450 37.5918589396083220 14.0094667662281864
 26.0265354222733016 36.1632381944547561 17.3649214141728017
 25.9864116623205241 36.0486482723874957 14.0087948141885761
 28.9719336581807916 34.6418144843948284 17.3947617566874335
 28.9544765574246945 34.5115648123353509 14.0381394164106919
 31.9225244262896055 33.1230665406172875 17.4472563478356939
 31.9186438771373169 32.9870602896758740 14.0894026616204524
 34.8807320284371443 31.6050535235493335 17.5064497913599624
 34.8760765208750811 31.4763681066775902 14.1480945822166380
 55.5684011965242917 21.0490822596464717 13.8753867689149608
 55.6769999162942639 20.9324014076137104 17.2285096943601488
 52.6046394993529418 22.5355829622631276 14.0031272517936678
 52.7076482809512754 22.4597940429084026 17.3589834312530265
 49.6443916421596256 24.0211860456751616 14.1049604690628083
 49.7363555276827114 23.9874571762464441 17.4630422893726056
 25.7918830745669432 39.3543808000250053 13.8983313904436105
 46.6872421137385700 25.5065976480348837 14.1764311033506729
 43.7328114282479845 26.9933088316116034 14.2148839678198051
 43.7892126070387846 27.0411735062179517 17.5750203391581827
 40.7804548116946108 28.4825242731428752 14.2203596319971801
 40.8159790927824986 28.5649442257266877 17.5803677060448464
 37.8289518756795715 29.9759845229261650 14.1958296441127949
 37.8458257320964080 30.0860775823482527 17.5551501115699473
 46.7632960111720948 25.5149437731815176 17.5359248233178526
 49.3647856326109675 30.6141107011659095 17.4553020059094948
 49.3375660312626394 30.5807177810266850 14.0968569412652549
 52.3378116142203780 29.0830850708664173 17.4415932383602694
 36.9716189865582194 46.4379950386197535 13.3178184086722027
 39.9342031120648642 45.1286620760357380 16.7710165253609169
 39.9573557338006822 44.9177752113365258 13.4234500517217707
 42.8860755901124406 43.6036119233319539 16.9054026133577402
 42.9377605204227990 43.4111577218061129 13.5565814841380128
 45.8450781832397425 42.0765155911579498 17.0495780523748515
 45.9126160200347258 41.9140698918797483 13.6980449883727644
 30.9524416398854427 53.0112760524599551 16.4213402306603875
 30.8209406485825852 52.8488041378358062 13.0785348322743928
 33.8901127790339558 51.4844727174964021 16.4103838332895116
 33.8124661582258526 51.2983449789319721 13.0672056962479761
 36.8284628474467510 49.9578066011456627 16.4588070364520611
 36.8060723050624503 49.7565234994688979 13.1151733260785619
 39.7693413590996556 48.4328493186365208 16.5607795871628269
 39.7977413800720328 48.2266057977421454 13.2157589264044066
 42.7156068291302660 46.9082182588742924 16.7041277616862693
 42.7839166740033008 46.7104251784957398 13.3575479411250768
 36.3269120701610504 59.7914965715627318 12.6823883549367640
 36.3649016640674603 59.8678660092750903 16.0236717320629225
 39.4842106496821401 54.8867900295818458 12.8511579111101710
 39.4522179780476208 55.0387847044821612 16.1931595957136949
 36.4834183538041756 56.4337254557242076 12.7830983379499852
 36.5163720000483991 56.5650427597558405 16.1248022607717978
 36.9892336605589165 46.6528171786733168 16.6639950722239369
 33.4836768211617226 57.9887027067305851 12.7852809074501135
 39.6399714458110708 51.5496493375892015 13.0204289159236239
 39.6089595551454181 51.7358968764799059 16.3633451480072800
 36.6432032896248643 53.0883244245865669 12.9319596063014970
 36.6708688825352311 53.2619228020832196 16.2743022103657751
 33.6457943574472580 54.6373872111700933 12.9062264548519874
 33.7342592812390905 54.7889433144561053 16.2480262712703585
 33.5814003856499568 58.0922397085629214 16.1267953132165047
 33.9829615923851875 47.9721317871365187 13.2547178017315836
 34.0486399662577313 48.1781859203291134 16.5998194383700870
 30.9949651601490750 49.5170312801922421 13.2425535004069985
 46.2075514819556687 35.4569372095028967 17.3408000141936078
 43.2503222306802968 36.8361155787637529 13.9084361076956977
 43.2398659420094020 36.9853175591595971 17.2632605025545374
 40.2819451867548395 38.3316257304533821 13.8191151371144887
 40.2774852957817089 38.5116086397864663 17.1724277024830130
 37.3104864246857844 39.8358811606018364 13.7284404140633107
 46.2176222314920508 35.3461724154074375 13.9846192411299697
 37.3216990159569022 40.0354457833028263 17.0807186799162309
 34.3733827979974436 41.5577314024016928 17.0041858901038516
 31.3582932409930137 42.8847212082572682 13.6089841381663810
 31.4301163270434962 43.0812305738235111 16.9582249751572469
 28.3811349121090899 44.4278205797333428 13.6027782801274011
 28.4882666089407088 44.6062302945690021 16.9515852138818595
 52.3031348284285187 29.0969850893723354 14.0831752151416296
 34.3356887030717104 41.3528813463343283 13.6532828204912615
 49.9196833730120204 20.6746978330043305 17.4163513801513297
 49.1783951391273177 33.9267877348583156 17.3985303512030711
 28.3285454857825769 47.9209899507187984 16.7858197196852714
 31.1097495980562151 49.7049324163723298 16.5870946829711272
 46.0639931109761420 38.6283145924367020 13.8547196093544258
 46.0248217917530908 38.7676741157851197 17.2088062592278348
 43.0931870288764785 40.1210149478394058 13.7435832936483262
 43.0610541828084195 40.2959354768184923 17.0955723210841910
 40.1188182731047789 41.6208427775205152 13.6288865679015903
 49.1851655713993594 33.8599248604670606 14.0408188464250081
 40.1036015283826899 41.8218007752405612 16.9791628389238873
 37.1534635095675512 43.3456606501468471 16.8757206066657659
 34.1576741137367534 44.6575145519381635 13.4542517727357485
 34.2098544679915406 44.8693903329095747 16.8021141283508655
 31.1745823162635496 46.1963028895614372 13.4238711094299354
 31.2691528089961572 46.3949450009886633 16.7706577381319271
 28.1939252618177036 47.7435965904762512 13.4396321329684660
 37.1401075394730142 43.1319541029592415 13.5264606121662805
 46.8465480263761265 22.2250242657843913 14.1698545841012962
 46.9478379389191360 22.1992294410021991 17.5289997103536024
 43.8972639459595726 23.7124859038294851 14.2455469141445672
 26.7547023580665169 22.8534671784402619 14.2253562527063941
 29.6359304134056067 21.3412367713226061 17.6524380032919197
 29.7048084535823556 21.3396446780537516 14.2917461192714264
 32.6056143754724701 19.8268797701636466 17.7002798647547586
 32.6474820092554339 19.8355519179189663 14.3388491489825860
 35.5811622000619678 18.3133160314262220 17.7130364918156431
 35.5859358202371467 18.3373244762574537 14.3516806278411782
 38.5593697255873877 16.7998796375997621 17.6827083409035346
 38.5228397479739968 16.8419027874378990 14.3216503059778280
 41.5366244493985235 15.2865416924141044 17.6068278459969747
 41.4585340267791835 15.3461792772096448 14.2473648802352244
 44.5105860781536720 13.7739482739916426 17.4880729028607185
 44.3940337582745386 13.8496920057417761 14.1302778584950754
 47.4801772182526634 12.2614830904235994 17.3301676999318097
 47.3298252717121315 12.3511253271178987 13.9751915127988635
 50.4455794791081971 10.7481346367626998 17.1388569880137069
 50.2672588911155103 10.8499201542072843 13.7869874320185719
 20.6375208654084226 29.2198454791683773 14.1231317998297943
 20.6155538495631809 29.2230831134681424 17.4821330719577617
 17.6694132352745932 30.7624419008511438 14.1202018043662036
 17.6719414339498080 30.7440423458106338 17.4790210879309242
 65.0804313511003159  3.2358784632377118 12.7591817284017814
 65.1905061922360574  3.1567971100486321 16.1005226316451271
 26.6744833258850882 22.8565692604520336 17.5851420781060632
 62.0930260724851024  4.7790895695280575 12.9196249969317360
 59.1190535177847494  6.3115478366389715 13.1222863694685241
 59.3092930463138970  6.1986847300777015 16.4646905610484389
 56.1579968700365413  7.8329879156825823 13.3462347072724938
 56.3607176506935659  7.7170906486514754 16.6916188789524078
 53.2085087615241434  9.3445600957024908 13.5734608043249718
 53.4060945791749404  9.2332742956147111 16.9217044791967695
 62.2522087336601757  4.6787317725461728 16.2608498539200426
 23.7963458709189624 24.3793063219776442 14.1589024842424678
 23.7212501877386259 24.3740465607815935 17.5174669085594310
 20.8324887555175877 25.9156112969838226 14.1076229819244823
 44.6790613875331815 10.4651928476693605 17.4061764462893827
 41.6239433656522095 12.0481740586558441 14.1786814592007406
 41.7076017857089099 11.9742117889079811 17.5374845224342835
 38.6922344149835027 13.5485205080741959 14.2676438773687195
 38.7323919698571899 13.4840760810003921 17.6277794763538331
 35.7588855527826510 15.0475346952477516 14.3133818562681441
 44.5548610666019798 10.5456488144716101 14.0496829422803771
 35.7551652144018917 14.9945766581499935 17.6741559353436237
 32.7782623952809331 16.5056890071498934 17.6762034359440108
 29.8850781225608522 18.0493121719561564 14.2779320703824002
 29.8055459165915515 18.0182745761832734 17.6382741388082351
 26.9401433356679654 19.5589381961613356 14.2128984366658457
 26.8401173316725590 19.5322363832484314 17.5719362760539859
 23.9866538136062815 21.0795991988976290 14.1378507804109006
 32.8234927017504745 16.5466275446238704 14.3153609500138117
 23.5606507440428246 27.7018321317642702 17.5147433175248928
 47.6463628840967743  8.9557239300014135 17.2384002094331414
 50.6095510222778486  7.4445978955597960 17.0393751806005262
 20.7739535186626156 25.8943794834212433 17.4658094937910278
 17.8655859251716862 27.4576270375854286 14.0823953469322465
 17.8303534302572153 27.4157994179007716 17.4407924003220920
 33.1726902759499396 64.7130720211160195 12.7071114123291160
 33.2812724410115521 64.6956493443797598 16.0481893031917977
 62.2417672173836252  1.4245251099963041 12.8415022542719406
 47.4859558386243137  9.0407223663546201 13.8850184870721378
 62.4032599301593152  1.3792200450936503 16.1827028330182294
 59.4633445161598431  2.8991947181167443 16.3689905341441566
 56.3044823220687647  4.4982659054802685 13.2434204725226952
 56.5186582222298313  4.4168780238440970 16.5875677688891940
 -12.5976439478085602 62.4047689381430004 13.5172171872793996
 53.5672735795471340  5.9317095844855929 16.8174047713299331
 50.4186695151480251  7.5323741465703282 13.6893625901351488
 59.2658904791970187  2.9666863662260274 13.0268646675924948
 21.0260687059376252 22.6116570566235424 14.0707402991095503
 23.6036958935128496 27.6799176049124966 14.1560063169283534
 26.5657744111168732 26.1485092273561044 14.2102989766102006
 38.2035584629253648 23.4425729751584377 17.6973932295989123
 38.1770704775925722 23.4111775920252292 14.3361303866937462
 41.1802260312351578 21.9245394451697351 17.6690208115870959
 41.1199436233504727 21.9196394954400731 14.3081581488588956
 44.1562966719662029 20.4046849480119796 17.5988447001818926
 44.0630449766459620 20.4296776875967225 14.2391046607801250
 47.1298146662955375 18.8841891246535454 17.4880171372609645
 47.0076694981296654 18.9404524435264783 14.1299753087862250
 50.0999435829430624 17.3633131787397268 17.3406772907938063
 49.9553603243254045 17.4505946618070915 13.9851585385847201
 53.0663690993210366 15.8418487310836351 17.1632407097860096
 52.9070071692614334 15.9589025141816752 13.8108919538666441
 56.0288319495502378 14.3203997096320368 16.9640192286852312
 55.8639413111053216 14.4636865741437468 13.6152911687348794
 58.9867561997571030 12.7992409333051089 16.7540161036287927
 58.8277110542001864 12.9622356703205561 13.4082750613195483
 23.2424047598350363 34.3585006769680135 17.4373297618785372
 43.9735966296009053 23.7232223882297610 17.6059512144591821
 40.9497072505606639 25.2013078683391285 14.2838801766773553
 40.9983248223299981 25.2454346124269051 17.6446002534595259
 38.0029714061633683 26.6932560147551570 14.2853964616805822
 38.0242601801927051 26.7650602985917487 17.6460025414647852
 35.0552635892072004 28.1906561889726284 14.2548833808359632
 35.2335914099123144 24.9065795117065107 14.3250523540823202
 35.0542290803556682 28.2826810277256975 17.6150422428229589
 32.0907176003536776 29.7997767152084521 17.5619316394123999
 29.1453830852084508 31.2144213170182780 14.1444526433252360
 29.1355128963203676 31.3172170420360771 17.5031965526362754
 26.1807467862419152 32.7456094263647941 14.0997897081282826
 26.1870888357840350 32.8365888207295882 17.4576172659355073
 23.2134024426447496 34.2861736323125612 14.0795472131559727
 32.1038722344096641 29.6965369429077448 14.2022027703491673
 35.2293188989259605 24.9592558561109854 17.6865889248268857
 32.2870002634417546 26.4085580219688367 14.2830869330978985
 32.2608432648394157 26.4753482517625649 17.6438603451708076
 47.1695969544999798 15.6502859320202479 14.0617341833467240
 47.3078448375576386 15.5711006815086055 17.4183789792737862
 44.2292123634993501 17.1431811851536153 14.1980416660930864
 44.3358840991147574 17.0875635851651992 17.5568590630041541
 41.2899962461709862 18.6355240522627241 14.2942387948818297
 41.3601615169314911 18.6041391457406213 17.6545249248641305
 50.2756180135913553 14.0541653614114388 17.2441475403752271
 38.3507139057191466 20.1282017641602060 14.3472615428204193
 35.4107267335520177 21.6227826881960290 14.3572299483188655
 35.4053530703293831 21.6355590533598452 17.7188484427776984
 32.4684419427293491 23.1221402396073614 14.3288630641805277
 32.4328162273943192 23.1507078512207762 17.6902726358753242
 29.5209619110915753 24.6295156450451174 14.2739615565997102
 29.4673695832638742 24.6662068933879297 17.6347310926143734
 38.3823299727719913 20.1201376779814005 17.7086381245358382
 26.5105464675488385 26.1828861084043112 17.5701030283788491
 50.1120380263919429 14.1554320854829410 13.8904465378523376
 53.0584714895598992 12.6578917471322683 13.6913090631757708
 29.3343945553013583 27.9207093364152463 14.2242082711846809
 29.3006536970213780 27.9919455693143213 17.5843765706335731
 26.3741872176828949 29.4456128194153557 14.1679751655453909
 26.3483392568399957 29.5096523299063165 17.5269284852709788
 23.4091107347946377 30.9821192750408763 14.1290544155573787
 23.4012924788441055 31.0303185866544950 17.4876851377017957
 53.2390915936732085 12.5363396858050784 17.0417853533190247
 20.4414490207403148 32.5244067631416698 14.1171739390837967
 61.9458836565924713  8.1222092505707266 13.0450142063871244
 62.0979075854351166  7.9784569100405172 16.3868000218986971
 58.9732759088127381  9.6439405671164042 13.2538611288399846
 59.1505819089857070  9.4989145114363573 16.5975370462055913
 56.0113863755411785 11.1551452873823251 13.4746857656069601
 56.1975335216965348 11.0180635419734312 16.8216884845453478
 20.4572414795135273 32.5518176944708202 17.4758847559711796
 -12.8247267788509678 62.4323404205291510 16.8636888869833008
 -1.2837740218782130 63.0103243040277832 17.4002269942302590
 -15.5376608548779078 63.9344490689081724 13.3087512864116491
 -26.9210155331624961 56.8165303399139674 16.1758260585718325
 -26.8263598010197697 56.6915836507163746 12.8341920316451130
  0.8020631479149242 23.4369616919946822 13.7740996178531283
 -23.9822629573206854 55.2919803061428397 16.3460142709472329
 -23.8376334748150889 55.1562506205123100 13.0043400298288354
  0.8049428471523009 23.2382748189317105 17.1263630470471462
 -21.0379047274806652 53.7689922656432842 16.5555253663673412
 -20.8612569258821416 53.6319395395085365 13.2122896930221643
 -2.1669571706106283 24.9388336106705886 13.8640577784224579
 -18.0875278132468580 52.2476375775380575 16.7837485823208468
 -2.1537915368200120 24.7574352102885129 17.2176240442325152
 -17.8968973024259981 52.1182206766254410 13.4372033753308937
 -15.1306881176776216 50.7279546280962705 17.0113750974600073
 -14.9432216611074615 50.6128144167063923 13.6612081342685983
 -5.1340198751056372 26.4332576501444620 13.9471303998268166
 -12.1684657389358826 49.2101592630522475 17.2225832020800311
 -5.1181659120573606 26.2803253892115514 17.3018138939909250
 -11.9964645578871973 49.1130857832313126 13.8693398706878579
 -9.2008567848895737 47.6941518852491910 17.4064848849246694
 -9.0535984088682735 47.6176328856228821 14.0502552695383578
 -8.1009790908274937 27.9223835144393497 14.0139116275885893
 -8.0866880324298762 27.8063062634122531 17.3699619087229316
 -6.2282188275500632 46.1789464059454957 17.5545800161895400
  3.7564633839698423 21.7212347344479326 17.0424041133691055
 39.3298849109756574 58.2376583638593530 12.7226445284747793
  3.7741101733249600 21.9240911640662901 13.6909570529273115
 39.2991248001056022 58.3415164984467296 16.0642659919476145
 -6.0445577126192234 42.8614710907504275 17.6019523198901027
 -5.9462554411299946 42.8381660269144646 14.2421404817337560
 -17.1537483529910872 35.6546203936534525 14.0290134018969646
 -3.0681357102275357 41.3451855539473527 17.6822363686433199
 -3.0017102514857519 41.3489227574127725 14.3210437699685933
 -17.1913748924165404 35.7075290834029317 17.3869908648795821
 -0.0911680035426049 39.8306930708217024 17.7212888185416624
 -0.0578084936568772 39.8583044225219041 14.3593039209340159
 49.0335477555349257 37.1401549326513631 13.9518820651093858
  2.8842843330405441 38.3174455859669365 17.7200339011240118
  2.8858070812121484 38.3644162865318989 14.3579771107917313
 -6.1128701210724570 46.1248565781692008 14.1959029763351623
 48.9929831536697691 37.2379584483357462 17.3081142855123673
  5.8309999430725092 36.8649969848570933 14.3222246561760205
  9.7262856240914193 18.8568383990138351 13.6051145082765785
  9.6420955598763705 18.6820898984372761 16.9547393438775131
  8.8213946434070944 35.2941700811316750 17.6242600798097122
  8.7812141011323650 35.3571676368464622 14.2634078192688865
 11.7779652098819767 33.7808495155018349 17.5591713014638486
  6.7493204433991556 20.3963559669004439 13.6306447248270590
 11.7386106492762323 33.8363697628210929 14.1993945151281036
  6.7012298826847720 20.2028769294793022 16.9809812435689444
 14.7270311387421380 32.2635547494767820 17.5066455679176833
 14.7022735425560125 32.3027418443942693 14.1476932891941711
  5.8560227423055391 36.8054048014614636 17.6837495041299384
 -11.0685289710023760 29.4080958993245787 14.0590005197212129
 -3.2518346402750997 44.6651490964433151 17.6621503472067225
 -3.1724184739228618 44.6335434714827883 14.3015529735127327
 -27.0727051229329980 60.1195433933899182 16.0725352978804139
 -26.9778533466315515 60.0459279731200937 12.7311098918159651
 -2.0061277703035088 21.6508683168398264 13.6767198282115281
 -24.1374920850754968 58.5957335518940567 16.2226070771857209
 -23.9864630212870686 58.5003253565055559 12.8814231189131316
 -1.9790350920231861 21.4474227537169320 17.0269258551210072
 -21.1976894979786969 57.0731388435382812 16.4225723282844989
 -21.0088845997870486 56.9653434868297239 13.0806676146565142
 -4.9784355847505175 23.1491751577353533 13.7876894032821031
 -18.2521884307876441 55.5524668726927189 16.6511209634265356
 -4.9389837479378205 22.9695972827602191 17.1393793264305678
  0.9744889617472157 19.9283256046309916 16.9198519429567114
 -18.0446797549002049 55.4415582771379221 13.3067128239114609
 -15.0932446007630858 53.9274439328983277 13.5395717709444305
 -7.9483512605196802 24.6409705418263698 13.8904860473091567
 -12.3419471085666856 52.5181839116457780 17.1120259720386656
 -7.9041210369144856 24.4952574115549062 17.2444544805073718
 -12.1511982394590206 52.4198103654423520 13.7610074528832538
 -9.3776890543178197 51.0050382761556236 17.3129243437642302
 -9.2133348269590236 50.9171869014859411 13.9584405621124734
 -10.9172348363039724 26.1283137213971273 13.9772606154522592
 -10.8732867578440278 26.0231709516824452 17.3330502004778282
 -6.4076066919813242 49.4933724727536699 17.4809206127904524
 -6.2773592942899832 49.4186830563865129 14.1235903047285003
 -15.3004182889981006 54.0341377001696017 16.8871002106305248
 -14.2185381000493614 34.1768844061302417 17.4402669894983937
 -29.9788989118536904 61.5993472477128421 12.6477455561784140
 -30.0063877189001822 61.6443377122785350 15.9891321025999407
 -11.0582890534625840 29.3346047063107918 17.4163739625903489
 -0.2736328879452662 43.1522935241175674 17.7266207494290207
 -0.2321532394952918 43.1419416016711708 14.3648010313560306
 -14.0359939730000551 30.8922315235413798 14.0791974978663372
  2.7043767623903063 41.6402485027409810 17.7473547920046713
  2.7083971226914558 41.6485137486553469 14.3850393069945017
 -14.0313042349322252 30.8644270400577447 17.4378307272374116
  5.6796989521755119 40.1287900830143798 17.7275963768260034
  5.6501002312574951 40.1509404263468497 14.3654238443629811
 52.1522600113736772 32.3757482844025262 14.0730504696360246
  8.6498534414934891 38.6180689490192606 17.6759465592072331
  0.9696247839597120 20.1429101566396724 13.5706443716237501
  8.5956574426808601 38.6470396940503491 14.3147272725352064
 11.6121317022077566 37.1063366308642202 17.6078411536400772
 11.5480791912507605 37.1325285147793309 14.2475635935903124
  6.9309523648810050 17.0863199647485580 13.4362558696646346
  6.8616292180494680 16.8887642706006247 16.7837848230254565
 14.5656170314241713 35.5908817986621031 17.5421903840234314
 14.5081938810705040 35.6043296605721551 14.1830048137458302
 17.5128279135699465 34.0721839546818046 17.4951731420800769
 17.4734616061874810 34.0665614349042798 14.1363076351022148
  3.9208132766234192 18.4096077974082810 16.8339934240264029
 36.2155748203249956 63.1703787007885893 15.9809391879001286
 36.1728566978683048 63.1567021811793055 12.6398118745554520
 52.1508862610416060 32.3954730453563329 17.4318899914974175
 55.2699405677033582 27.6132107794555708 14.0424949141933855
 -8.8920310506780513 44.3272233009593961 14.1237215850336248
 -14.1870229923377025 34.1709282918734232 14.0817670314281465
  0.2899926088602425 33.2938065363257394 14.2316885518286291
 -5.4517188711095494 32.9947007743748699 14.1718418188961479
  3.2408479737273552 31.6728437821118014 17.5477076927544502
  3.2418837053365039 31.7957429911316360 14.1886955768299696
 -5.4852202235254035 32.9085815768976531 17.5312277636209082
  6.2029994140765075 30.1601191592452622 17.4870068516667239
  6.1970274981552853 30.2890847458013255 14.1286520579856294
 -8.4119573379030133 34.4813081192138000 14.1613001690548010
  9.1568941158157244 28.6462913489971847 17.4256633836000319
 -8.4586174891795878 34.4329431840826672 17.5204304969563154
  9.1582422727025374 28.7690033706013253 14.0679212386988866
 12.1033467743598422 27.1287501312631036 17.3813346522611276
 12.1246142577293501 27.2354056691890811 14.0241597937799600
 -11.3742302589194573 35.9660485597089234 14.1206698368353241
 42.5505930705712245 50.2109302526498738 16.5055616197154578
 -11.4323435104173967 35.9600445942727163 17.4792432911518851
 42.6314597460875291 50.0228674079000086 13.1610826015395919
 -23.6568141876240858 48.6865432283858866 16.6841110129953627
 -23.5413397487919909 48.5087054126985606 13.3379777151105579
 -14.3380473696347437 37.4503632118972263 14.0504499696165421
 -14.4054813210173087 37.4889844923727367 17.4079490884286550
 -20.7015535333355629 47.1615394308939742 16.8790166366286840
 -20.5676914100414514 47.0053725295892590 13.5310431637845667
  0.2732952473464136 33.1873892699147319 17.5915733353611792
 -2.5140616677773591 31.3866647966602557 17.5129605352660995
 -2.6612958320968239 34.7860757457958201 14.2476133303268195
 -2.4942004266254210 31.5050324340999879 14.1540246740749431
 12.3181022746585622 23.9310045531403084 13.9037283271308905
  9.3480805987597098 25.4691575939276014 13.9312764841239556
 45.6693702909531254 45.3828304798254933 16.8708523653481031
 45.7628084391104792 45.2062745359914402 13.5220802068848975
  9.3207759931705976 25.3230608936056178 17.2865261506879264
 -20.5255935296918679 43.8557571622695548 17.0415229219915254
 -20.4206729784707406 43.7103649257414375 13.6905734985749259
  6.3813763360549096 26.9963694065651900 13.9848523438526176
 -17.5599879415597329 42.3278730027113639 17.2022581547044631
 -17.4533207053757948 42.2197249458831152 13.8488202325934502
  6.3722075091546904 26.8394891527386825 17.3409309754977627
 -17.3039894608203433 38.9353415209297538 13.9530382930458838
 -14.5912560951355186 40.8002637691879855 17.3435616521703082
  3.4198146850849009 28.5089689883286965 14.0506056289605965
  3.4161115185011282 28.3531197256600187 17.4072656485001360
 -11.6196273039501712 39.2734074319362563 17.4584738970362352
 -11.5281477039275089 39.2464659436195973 14.1002276201674626
 -8.6460554439028687 37.7480143295175665 17.5422804598750730
  0.4621286385177378 30.0105010433572836 14.1111923671793065
 -8.5700929076102241 37.7609294775435558 14.1824330508440042
  0.4534713480774224 29.8680459795022948 17.4689759917219440
 -5.6715257531259837 36.2251394792374057 17.5922022086557028
 -5.6145113361103318 36.2745554904469358 14.2317186279521533
 -2.6978766694250669 34.7048527720980786 17.6080066278686864
 -14.4892086431565428 40.7321377527471569 13.9874669913816767
 -17.7401882761373955 45.6361433267151142 17.0723846124337939
 -17.6014286814407583 45.5095575660521661 13.7214940529396294
 -17.3768450903468263 39.0182986294573340 17.3091555031520947
 11.9416498980197598 30.4546968558196021 17.4825815534656392
 11.9311922531461310 30.5373401287629527 14.1238765500914845
 -2.3293215537209857 28.2229310075826270 14.0250656649052949
 14.8870295748571646 28.9359383452707952 17.4469463556663413
 14.8974757373089712 28.9996553467638840 14.0886412088386166
 -2.3324053978725643 28.0707456715244810 17.3815066608406141
 42.3902741677866643 53.5134121006185808 16.3246825985738191
 42.4799580855624725 53.3501803075628089 12.9821490503403147
 -5.2916949075162618 29.7145584030932710 14.0764754716915181
 -23.8221716898902010 51.9889003877456659 16.5042648818714710
 -5.3004190041623040 29.5933958672559498 17.4338343707762142
  0.6309365727846029 26.5515974889590076 17.3121075584673534
 -23.6894707862217722 51.8252675428197378 13.1606887928765985
 -20.7142470191622081 50.3117418839452810 13.3666151661532613
 -8.2555840531419022 31.2020425553035565 14.1048562332458776
 -17.9164895779527811 48.9425533711312326 16.9286355104613548
 -8.2718719932541696 31.1190424094888485 17.4627010488840710
 -17.7491650357779989 48.8079865137497322 13.5800218965946389
 -14.9550730263064224 47.4202429027341168 17.1370663544291766
 -14.7917649861391105 47.3105275695036269 13.7847315455630621
 -11.2210980775165119 32.6870303775249198 14.1070303985667103
 -11.2450278149766998 32.6469943331762096 17.4654403526630375
 -11.9891871402977177 45.8993702167309365 17.3246026233746910
 -11.8398763676832353 45.8174834512355957 13.9690520194711176
 -20.8725525758645212 50.4654689442134554 16.7121311915378783
 -9.0187482057808595 44.3796996081474617 17.4816682704677362
  8.9689318562105331 32.0648728954602475 14.1800749167638891
  8.9905028817407366 31.9700455714175149 17.5397141746458196
 -14.7748144729171074 44.1107599383500713 17.2511170802367637
 -14.6403845874324556 44.0181407538786189 13.8968257411526270
 48.8832002865096911 40.4229916175580897 13.8334894266898463
 -11.8057046545280180 42.5866014606855856 17.4056952228420059
 -11.6834976471337004 42.5297064890430079 14.0484176421219971
 48.8099022835804348 40.5476151497557566 17.1875700386221908
 -8.8332386443253412 41.0639011790561810 17.5286292203363274
 -8.7301504480037266 41.0424867965320814 14.1692111341772655
  9.5378563100860418 22.1653479667272855 13.7747986654408283
 -5.8585700768252753 39.5430898750663360 17.6155393628806500
 -5.7796590537428667 39.5551842720271694 14.2550036945241860
  0.6329152108674670 26.7254107020904144 13.9568550495248971
  9.4822760390360354 22.0012400698938393 17.1273756744996106
 -2.8308848628626535 38.0669111646365295 14.3035469213456832
  6.5657097097378090 23.6992052599098777 13.8166035758494452
  6.5383170606536325 23.5200493282389225 17.1698000247950446
  0.0914727430641662 36.5086144308183265 17.6762353213618901
  0.1165475691372531 36.5760715697789465 14.3149901514377031
  3.0633894741193903 34.9945292361485585 17.6530538079605535
  3.5973952123233812 25.2189251491152824 13.8824873569598743
  3.0636203166751934 35.0806288450119581 14.2920945546169857
  3.5881983570425215 25.0358896184663990 17.2365108681668815
  6.0307102540398088 33.4822337046920921 17.6027032033455164
  6.0134516590082523 33.5782869324660709 14.2425162468658630
 -2.8830194892732424 38.0246420321754002 17.6647053525088431
 -3.4326848086647437 47.9825231656839222 17.6098727344756725
  3.9490736651518565 18.6216768874312564 13.4854482522173793
 12.2637913828335261 23.8035436068054480 17.2586938622773971
 -0.6321976424470592 49.7875301270824977 17.6365437794917064
  8.0571164007228582 48.5198229031538304 14.2737983873621044
 -0.5747326993404510 49.7219437030823812 14.2761424942130031
 -1.6900170201935389 15.0506905373103610 13.2599434009742758
  8.1269596974582132 48.5790609285598762 17.6340615065373996
  2.3464337297738229 48.2796296740251947 17.6935371096213601
  2.3592437021593939 48.2242875763378578 14.3321400009241042
 -1.6448248141360344 14.8376095603060651 16.6046867279907957
  1.2983496166474622 13.3169558512929189 16.4906128681509863
 -1.3302973653387666  8.2350403123396276 16.2215740165390976
  5.3251372042387457 46.7711291478147757 17.7064964566794529
  5.2948490915169684 46.7267110624903665 14.3450021277737179
 -4.6726023438756137 16.5637311180009625 13.4056804621929206
  5.1497133905051058 50.0862977988605493 17.6519320754958962
 -1.3808755085328346  8.3953184118534132 12.8799577444507651
  8.3017086330222885 45.2618955293813414 17.6779966851993038
  8.2328885705885835 45.2263606281144632 14.3171767637091847
 -4.5939706244835907 16.3581483493577444 16.7520577256319072
  5.1223996503826301 50.0212479059312827 14.2911626318383824
  2.1901851575808888 51.5223956630285329 14.2677553187756665
 -4.3733971939484011  9.9292354280238726 13.0215723818187481
 -3.6085337400916591 51.2953375592805116 17.5358030380228520
 61.9390207128009749 11.2781293224319370 16.5477877086818310
 55.4196471527677303 24.3325570493152803 13.9735021666842556
 61.7998695529357818 11.4515933671781980 13.2041422692642882
 -12.5086944190145228 55.8243796603366391 17.0070392773489871
 55.4951279629600904 24.2417749078706173 17.3292170118671400
 -12.3021854867745315 55.7388657513780856 13.6584916789720037
 13.9414309758375268 45.5020348341018988 14.1411915705833184
 14.0679774010141703 45.5610028601003947 17.4987089373671552
 -3.5068716798965585 51.2211559535342786 14.1772121358736296
 -9.5476079624077599 54.3124652845584635 17.2156327256895239
  4.2902272930991954 11.9847485715471311 13.0806127644949903
  4.2376197867502361 11.7945247588427442 16.4238290289303919
 -6.5808245619577415 52.8032952810331366 17.3940060420604858
 -4.2706411477372042  9.7567997572277534 16.3637372155657985
 -6.4377965786826099 52.7230848494722224 14.0381415023278162
 10.9959511981068978 47.0146738623333533 14.2202208124633120
 11.1006968567867972 47.0707239641390487 17.5791956421035458
  1.2985647428983378 13.5238936852755884 13.1467287859895201
 -12.4500449636556976 59.0678610844096923 13.5735748346589737
 11.2729101591165222 43.7521671693708214 17.6164778836074163
  2.1719730228710747 51.5923292348948266 17.6283163952589810
 11.1760951544423861 43.7199604652202964 14.2568964832218796
  7.7688665328281319  0.3780995706461175 12.7868569771670320
 61.6537074268407252 14.7655758647600592 13.3834207495876054
  1.4596578657106898 10.1942706366531777 12.9543933802940820
 -21.5027463905124101 63.6786743530873238 16.2783139179641019
 -6.5930835508083048 56.0398320665690903 13.9555408665321021
 -21.3075820746131974 63.6663436186585159 12.9367811358142735
  1.4540692785787594 10.0138051763450555 16.2964528472143719
 -6.7466409343089246 56.1096806164859458 17.3095917394958363
 61.7748984848338978 14.5781927534126066 16.7293514168441853
 -18.5648433118779046 62.1593509499385348 16.4742646853903132
 -9.5198857290189345 57.5518178911628056 13.7785717550728730
 -1.5345960807181824 11.7308329354938028 13.0572861807861358
 -4.4297530903215918 13.0567724159319987 16.5499573381523781
 -15.6209651454421703 60.6429221202088300 16.6958934855019301
 -1.4857264226694598 11.5359702730980356 16.3999973585280436
 -15.3883957739164536 60.5907222053153589 13.3515431072829980
 -9.7105338105665471 57.6181193379717698 17.1291694335513043
 -12.6693366960116069 59.1292205935767896 16.9206240176623197
 -18.3402849350123773 62.1231555203523129 13.1317200093499977
 -3.7775666991529380 54.6033999028499224 17.4553105975266583
  7.6216228895515954  0.3611034906628725 16.1284696673069767
  4.3905257167256790  8.4901052183265033 16.2507469028335763
 -7.6489861137897774 18.0656084284441008 13.5669981696644282
 -7.5501915899967411 17.8806799408193378 16.9151827360969307
 14.2362086798228926 42.2408733559560901 17.5372870240393510
 14.1270550166239026 42.2033981506832490 14.1789189712253076
  1.6065204528745118  6.7115242481690389 16.1368787881052178
 -3.3415927428496239 47.9230783136411631 14.2501616567258420
 17.1906352079989446 40.7254047347696897 17.4593367164272237
 58.5354247144595732 19.5598859611029994 13.7272285490355603
 17.0856791023554848 40.6738209696094728 14.1023588642494957
 -0.7394722796504174 53.0252632045744221 14.2029627394876936
 -0.8043684835958085 53.0979097897721957 17.5623445390641280
  1.6178149526637284  6.8499645678894732 12.7952068777639099
 58.6433513776417783 19.4057687894613800 17.0781395321582323
 20.1385963768468663 39.2064356820254503 17.3989319155148898
 20.0496823591827926 39.1348653944858142 14.0423335801464670
 -3.6668486690717437 54.5312267777280368 14.0982438077276200
  4.6889081487170303  1.8847506181231972 16.0413476971626210
  4.4553953029253162  8.6469706062364775 12.9085709821690475
  4.7740681194606678  1.9347328455369144 12.6997416989801053
 -15.2412942978052435 57.2540361610669777 13.4323794061874437
 -15.4636088014097943 57.3393568025196387 16.7777277760029087
 -9.3690829949420760 54.2287903352678171 13.8631195119037258
 16.8951938178076624 43.9774829962458611 14.0540005052797401
 64.9308044899940171  6.5890619690287346 12.8679255369249681
 11.3604364820887263 40.4265789469407650 14.2666511638516091
  1.1349579719674618 16.8395521637798566 13.3571144522379974
  1.1388762005590247 16.6215386870665505 16.7034967117101587
 14.4020506812309783 38.9171877417286964 17.5524377094052539
 14.3162353091463750 38.9043378026779649 14.1935204841050506
  7.6114220599902760  3.7383994331360118 12.8285038498344992
  7.4734133001583087  3.6629509787277374 16.1705068087099235
 17.3525306656467144 37.3996817241697030 17.4884605371741912
 -1.1786133499282165  4.9342729858424859 16.0845344155190091
 17.0267568234550914 44.0483356803866215 17.4099950827712924
 -1.8472849516275829 18.3561015362182118 13.4714375314616319
 17.2785659841557333 37.3701827296272526 14.1303674371850967
 -1.8091414102765457 18.1411937844404463 16.8186852683641632
  4.6167676922789997  5.2958389635247967 12.7770994624439265
 20.2983746200626705 35.8798168320086361 17.4477424186267278
 -1.2284355844483794  5.0453341673189298 12.7431883716384888
 11.4436682667811347 40.4304528187513057 17.6268080884071381
 10.4073209902676442  2.1413119326042973 16.2864665698956941
  4.0810323686562020 15.1009528793176511 16.6232691178760170
 10.5962286581559475  2.1841298761874715 12.9447317735381962
 55.3105430153644946 27.5525109385786777 17.4001579578270871
 68.1259188406957890  1.6329636585651390 16.0016151389826362
 -0.4545035831308256 46.4720663609690519 17.6957635557843318
 -15.7733827733743794 63.9451504055132247 16.6527883252133933
 -0.4049795789585638 46.4287160111016490 14.3345230516218844
 68.0790300919388613  1.6839554417955858 12.6604458636175075
  7.1085507019767853 13.7672423925268568 13.2448351100990500
  2.5245303894397813 44.9616472245042331 17.7368369073621110
  4.5405868030853682  5.1870368891265617 16.1189570955858628
 13.5664349081399358  0.6352532149276341 13.1109219683388929
  7.0192880547142229 13.5782355882942216 16.5898787446312923
 13.3440250813208454  0.6220466390723228 16.4532842920712454
  5.5023095674587550 43.4512533927341593 17.7341534914978354
  5.4711701117438905 43.4376719858707858 14.3721772486849719
 65.0394826873240390  6.4569385938688635 16.2093986929294935
  4.1213460368658286 15.3091591511768286 13.2776792039352678
  8.4763122590127562 41.9408919639917812 17.6933975386515066
  8.4126027393431517 41.9362166500004889 14.3322421992793512
  2.5324843372914940 44.9342079765557898 14.3748051416610139
 20.2450831156534861 35.8293890103289172 14.0899436525341599
 -4.5223308420188815 13.2544521253372771 13.2058434914189657
 -24.1368527789471941 61.8559300744429450 12.8057119417561811
 22.9230762677412763 41.0108861081300944 17.2759419286498570
 -21.1571933472764968 60.3111238643675236 12.9843516453007837
 -7.7976472179309662 21.3560470839377423 13.7394642334133277
 -27.1303808190738991 63.4089153756892898 12.6842922884540741
 -24.2884633367532849 61.8985064801500116 16.1468363369517789
 -27.2218413700226129 63.4220503467168584 16.0257319979964841
 -10.7676328068386837 22.8461985565123626 13.8650548985535575
 19.8558938705618893 42.4414267010351409 13.9763554875554714
 -18.4110857000880159 58.8567314032237974 16.5436230852949997
 -10.6908980674657705 22.7132885813406844 17.2187255251048619
  1.7559815012057782  3.4097680496012668 16.0263499021721323
 -4.7639128078673822 19.6622222441871877 16.9529496180116261
  1.9040157358408119  0.1076462534402557 15.9757323591004194
 22.8219364621101910 40.8990266706127770 13.9215358333244925
  1.9267411891549524  0.1267546566109866 12.6344653259217843
 19.9774944201952600 42.5310178800833683 17.3312706041589628
  1.7730684903194227  3.4923723456502973 12.6851170495299765
 -4.8247101845694464 19.8604316373358678 13.6040375199622954
 -7.7249864140472653 21.1864926072272119 17.0904716069910485
 -18.1919350715450392 58.7770966944798161 13.2004791181997749
 -21.3522099515219281 60.3765256077779924 16.3259965203968811
  7.4210919921087601 25.3107534149539788 15.5896871999064253
 -0.1633274997119905  3.3677853717781039 14.3454789903480080
  7.2449806950174951 28.6191825048276911 15.7429687878420559
 62.7566806171495841 13.0655783614511307 14.9273347377327745
 37.7008035891506950 51.5585570863758136 14.6792427275853488
  2.6527981050670442  5.1596321216660472 14.4032326220691047
 43.6351699648368410 48.5080051641722321 14.9491112671956632
 40.8286265436755116 46.7210237111572582 14.9965216086052457
 -7.5588960808901815 36.1548582766411002 15.8773468791694068
  4.4634055500243521 26.8273835237141967 15.6536237818018229
 50.9057190829312916 19.1055108556107314 15.6681614439851966
 62.9096892778789112  9.7542467162057722 14.7487826525113412
 39.2371578705025854 21.8253587312685262 16.0217183522584534
 42.1966975424655004 20.3207002344489567 15.9701767383621345
 34.5742341402510718 56.4180874031299524 14.4771298581043926
 -6.5548899399805469 16.3700332414287502 15.1196308560455712
 40.3563071253198515 56.6686495749633252 14.4544280673430396
 43.7956162140049301 45.2042548897468777 15.1470436640356976
 44.9830292522452737 22.1168474462088938 15.9054574465449914
 -4.5943021784545452 34.6500355028389961 15.9036854540670305
 47.9443614698372969 20.6111692174634804 15.8039776165538228
 21.3153036485830398 34.2419698202479097 15.7764209324196312
 45.1556496220692978 18.8157659151694396 15.8761230485063347
 42.0218140823550925 23.6223379580135067 15.9684180723303744
 24.2713506681610980 32.7100724406003636 15.7839853180676517
 40.5110838355879608 53.3457173013768085 14.6064019658704982
 54.0292416418967392 14.2973078277172156 15.3799570642410774
 33.1424077440849487 28.1439717626176673 15.9347501391380799
 -0.3146046281384821  6.6970776006405996 14.4579329005960293
 -16.4584543037502939 40.6730792384531270 15.6085236671344738
 -3.4343275321923787 11.5459314653410416 14.7533590048554188
  1.3283790402161855 31.6390737792526551 15.8637115931613959
 51.0714472738848571 15.8047627967196949 15.5745593238847544
 34.7330723910812580 53.0938745940636352 14.6239973681372568
 30.1851086063240466 29.6588676339435935 15.8754361354738229
 -13.4913445918539043 39.1661190010992684 15.7274625654924876
 36.1008474312866809 26.6342070763124106 15.9781601447011052
 -1.6319598767882078 33.1448451225725762 15.8981532907828740
 34.4188069684689779 59.7476492370416068 14.3780405657447758
 56.9879249565201818 12.7873625010726713 15.1683338074331324
 40.6684671904406798 50.0297313972917124 14.7917644392093486
 -19.4258650902376893 42.1814198161051479 15.4669656905264148
 -3.2814045882188134  8.2287336203841015 14.5775999110736922
 39.0607716029380398 25.1277236126648944 15.9918603168199382
 31.7667272549023814 54.6334040151432561 14.6325299657940331
 27.2280199573457615 31.1809872172215385 15.8198671114097085
 48.1138615796862581 17.3106635361356140 15.7424072692596528
 37.5426367654186137 54.8792461146486446 14.5083293758566700
  4.2874032142589682 30.1315493037278159 15.8076485047677249
 37.3874391239528023 58.2064021468565187 14.3794021173457196
  2.4985145399353357  8.4868209125614804 14.5401809461501870
 10.3778932761783214 23.7855773505817147 15.5470707921379763
 -10.5247591383626329 37.6601865691993254 15.8181918197452962
 59.9480033714404712 11.2735580053511573 14.9523577839443220
 46.7623957282324838 43.6915722733330298 15.3093534362330352
 -0.4682560391690108 10.0198789211142447 14.6194267880434463
 29.4788849870408711 42.9037911480809129 15.3298315802746998
 -3.5897698084091636 14.8553085734210875 14.9540758874276616
 -3.9118626326947910 21.4579588287818162 15.3628596577375962
 50.2321638303295828 32.2932966300914401 15.7517687401266464
 26.6959234019508038 41.1237393335248882 15.4861742669526983
  7.7688413587431437 18.6888019322246102 15.2275870320702786
 53.2021240014111285 30.7858629083453543 15.7601252873378908
 56.5063010211534476 22.6870473179806424 15.5822235138102307
 -6.8783722858800775 22.9675986760073734 15.4817367205423437
 -16.1223851353348593 34.0812421152929446 15.7428369992342247
 53.5380279731835174 24.1940799707501455 15.6919071112019761
 29.3052787213277419 46.2176151040231815 15.1568014988500241
 50.5702263833198558 25.7010367222199001 15.7762571584323226
 -9.8461345972796082 24.4756898472767475 15.5889023741432009
 -13.1523060063237747 32.5741970956275821 15.7712849585075610
 47.6029686164491324 27.2079207710594204 15.8311063397724752
 32.2664281463613918 44.6828843855642646 15.1636568928538544
 -10.1825501485951850 31.0673597293351698 15.7720919602151195
 44.6368027381828725 28.7149698407285072 15.8547310181270404
 35.2289346296720893 43.1539532987064618 15.2138995019950638
 56.3400595923894230 25.9830362089457694 15.6773573489425448
 41.6719071734679858 30.2222962377451125 15.8476416181104138
 -7.2138983408173312 29.5606429199047227 15.7467690328444512
 38.1927767252638333 41.6330512777640180 15.2996351745554851
 38.7091120012005874 31.7305190476570083 15.8134054319982997
 29.6542073221009588 39.5907789446266420 15.4947792651993606
  4.8093070753088307 20.2155366447738487 15.2738973448246522
 10.2013977534906051 27.0985333490205598 15.6880120997646451
 32.6135204196856847 38.0635562057853960 15.5359768554372213
 -12.9832727782945998 29.2786706735033633 15.7413953415378600
 26.5199623129387518 44.4387591928394770 15.3431142279281616
  7.9393705936958154 15.3747293925492219 15.0364233039071795
 32.4390681413077431 41.3722816905989035 15.3555157704179521
 53.3707186690565507 27.4901685625550982 15.7427455945451840
 -10.0132930334326460 27.7715281213638043 15.6968912517965844
 35.4001698156545430 39.8483662498058138 15.4153215036169495
 50.4013920005960330 28.9973935425713449 15.7814422138906512
  4.9784147243971724 16.9059116550549398 15.0661854280331369
 -7.0447540485590716 26.2641369677983896 15.6295492968030825
 47.4325216693544576 30.5050389249631522 15.7917970014889892
  5.1442459842340300 13.5922010035725407 14.8626084248229908
 38.3627578739097075 38.3318741872351509 15.4967763906381730
  2.0166018643503878 18.4298282968020395 15.1393688742862231
 -4.0782564404222867 24.7559616393395387 15.5439654977386148
 41.3272809347247403 36.8195753923009832 15.5828296138162958
 41.4986159817531188 33.5210879097592027 15.7318575206154101
 -1.1138213641689674 23.2465181306315785 15.4474354703211567
 38.5350361602651077 35.0312403961253622 15.6703357720115743
 44.2938472671345664 35.3098194217573678 15.6591848725329132
 -0.9467875842109221 19.9462736057849135 15.2436931282549502
 35.5736185195873773 36.5445704520859067 15.5998922937813642
  1.8488463328382023 21.7341286519434753 15.3521644129135186
 47.2626323264248356 33.8014715591276484 15.7170510040181419
 44.4647382435315066 32.0127940177218520 15.7743278536986917
 -4.2476875362487556 28.0536851630503463 15.6974631625465673
 35.7484948107515095 33.2411704869662472 15.7590597954834521
 41.1582998744772937 40.1182221980560882 15.4049747637433718
 -9.6817227487271840 21.1791453935061895 15.4522701210919511
 -13.3218139384029453 35.8697903098483692 15.7663118690061719
 40.9919421312239152 43.4180176850556521 15.2058039928937578
 38.8845053627334707 28.4294056230667138 15.9216657896106017
  5.3061154330138125 10.2732823684473225 14.6768917147112212
 43.9590586450489056 41.9043916802969889 15.3389664713531531
 35.9243668757495840 29.9376808465889113 15.8865740756962257
 -10.3531530631726891 34.3633757856289606 15.8126580457402621
 32.9656608008583163 31.4498514742495949 15.8315894542505102
 46.9267362589750192 40.3938090502343314 15.4714175946977406
 -7.3853704935310160 32.8574284534835641 15.8297711016506124
 38.0258181158321165 44.9365589745536482 15.0889546404011590
 30.0078947533040150 32.9681970533717106 15.7727887689506314
 27.0503306007282234 34.4944947772081392 15.7290622623632821
 31.9296783715754025 51.3122344585975227 14.7885516859966781
 -4.4198000589734256 31.3515966172809222 15.8184333094248206
 -0.6243692358919714 13.3350842255625768 14.8149675985197131
 24.0937260402329159 36.0260288627217307 15.7122279283781996
 -1.4567985116302047 29.8451059721189402 15.7807789326227290
 34.8950902733098260 49.7756246613433291 14.8052257127757354
 59.7932625186725133 14.5799759144108076 15.1218394131716902
 37.8618651021810280 48.2444865331466204 14.8774069252078434
 56.8301539415285077 16.0906077858001879 15.3186433753609599
  1.5041019035301160 28.3374947484890143 15.7224041749877621
  2.3411669029317057 11.8075896392713826 14.7188701826343316
 53.8676169920557228 17.5986453454875580 15.5039224636140176
 -16.2909553755866163 37.3768513503830704 15.6913144348571088
 47.7737749589920639 23.9100800739124537 15.8347680698613580
 32.7892246125217781 34.7562351458603729 15.6967927706690134
 -1.2839462033963345 26.5457713268651396 15.6289281892957028
 44.1252276635008300 38.6067979577003797 15.5124673751145874
 29.8306781572613708 36.2788979344688727 15.6442521378130142
  2.1806253063431660 15.1215690866357075 14.9236005163018906
  1.6777181948257889 25.0361617975954900 15.5496202088421551
 26.8728999918267029 37.8089745357989102 15.6164964147374281
 47.0937960370161477 37.0974022657995874 15.6090198943094745
 -0.7837444938813244 16.6433225410120897 15.0284552438765235
 23.9161040374032297 39.3419449140786881 15.6210338363996701
  4.6375449713040862 23.5222823780228474 15.4731822490666993
 44.8097409809086145 25.4165258099513274 15.8987370817399079
 50.0633053963098220 35.5889564129307985 15.6875119502265825
  7.5958049809594108 22.0005568378206391 15.4153018143935725
 56.6696450240973277 19.3898607676046133 15.4603241710921750
 29.1341594916749962 49.5331533055720143 14.9857982603794806
 -3.7489593712664036 18.1585373087814297 15.1624402127447642
 53.7038024370914755 20.8972014595236715 15.6106837819232638
 32.0963426226251585 47.9957959193351158 14.9704652450231706
 10.5534704952114975 20.4716775877234376 15.3893958796797055
 50.7383815188699003 22.4038357732171249 15.7373436437039143
 -6.7149046904476597 19.6699800708076857 15.3088555503620380
 49.8954483914023257 38.8848386624524167 15.5912262872987508
 35.0604606041340361 46.4626171879641916 15.0064366085035008
 59.6350956397663552 17.8812221710548265 15.2933310289731281
 41.8464371308082121 26.9228229840701339 15.9272759251559481
  9.8463311810172431 33.7198664743777030 15.9001187945008837
 13.1571880687288161 25.5705177286494241 15.6579367858506870
 34.4885251567006605  1.6768886340233946 15.7742044659769771
  5.7710021717297932  0.2858697647354513 14.3736980671192800
 37.4332840289462609  0.1671956566808820 15.7618318039060838
  8.3189763808603026 63.4966837964580293 15.7137747841199413
  2.8047725961910239  1.8271282206535702 14.3219264974648848
 11.2632458339001573 61.9867363967802376 15.6293978278417640
 -23.3257787489361625 63.5865185147492369 14.4960425069298875
 21.1376458535660525 37.5583269563076527 15.7272994999552349
 17.1534410991377797 58.9622270250542186 15.3650802377390274
 18.1818657301053221 39.0885637522370288 15.7729403350661244
 20.1013803937882329 57.4441338668746866 15.2067633680126999
 15.2259217514293912 40.6137904482442309 15.8417622687668356
 23.0526210750969369 55.9200301795872790 15.0533258712841747
 26.0079046933623985 54.3883222339029402 14.9228509416099318
 14.2079282536218230 60.4758656032282929 15.5104886435834004
 31.5434475788832351  3.1872019154011135 15.7507155192464072
 28.5985763738172558  4.6981870371670729 15.6907264416430170
 -20.3695154027424152 62.0521963507886127 14.6747192405274163
 -2.6837913073019113 52.9615107361540467 15.8450741324426954
 20.2647329007654875 54.1296574164615265 15.2822810745022952
 23.2182493178130329 52.6036721710243498 15.1532102728184377
 -5.6338420525249449 54.4670829215477141 15.7129955352905952
 26.1746248469587428 51.0702904801423117 15.0501255664716229
 -8.5812186873580565 55.9752032607125258 15.5441959023977905
 10.8981210757247364 13.8394629834240330 15.0542505212961526
 13.8541782496511701 12.3034175114048629 15.1179080086267383
 -11.5265611031842319 57.4868091458912858 15.3442675545258176
 16.8082418826368070 10.7709407187106780 15.2189338353780759
 -14.4717621667446945 59.0025721691063794 15.1211114361080661
 19.7590323006869681  9.2447165638397735 15.3442791376870336
 22.7070074215011708  7.7250020749238182 15.4765721566094747
 -17.4186591268333899 60.5238674005041801 14.8904892702038474
 25.6531042840140628  6.2103114154701231 15.5968552769979265
 12.2698704703382440 42.1310399040640675 15.9209177598263043
 28.9668735275644913 52.8510676766388485 14.8300725618956886
  9.3128416374820695 43.6409209221848684 15.9918987950265041
 10.7273763023358768 17.1563487577355076 15.2218548482842078
 14.0548218394615798 63.7927285361705643 15.5007183559313155
 16.9989951323068667 62.2793722179301596 15.3404982385075410
 -17.2663382470328806 57.2025571433128661 14.9784335230400050
 19.9444220229344218 60.7619445874451216 15.1629870221165497
 -20.2182654122587984 58.7262115394266075 14.7478277223273277
 22.8929172161643706 59.2387772688814778 14.9851554773138531
 25.8462245035205243 57.7089941499335239 14.8263495432083179
 -23.1748266694560563 60.2562464052395583 14.5448383566633961
 28.8043509101880026 56.1728174917026948 14.7037426148051367
 -26.1366639848364173 61.7918090653224681 14.3908492055572399
 13.5098926334946139 18.9387448718065450 15.4011930784556110
 16.4645426916978614 17.4053813225707827 15.4505382223644734
 -29.1029497980845875 63.3317642579772553 14.3039929774415118
 19.4184422035645525 15.8753745398386101 15.5294539155593530
 -0.0128735891219230  0.0341053691170406 14.2930191273222142
 -14.3175058659043817 55.6852098247846286 15.2147058094076453
 17.3139595485736244 55.6480289088170750 15.4208333932816348
 43.1698483552853816  0.4641470239963221 15.6314335961983186
 40.2256401801238184  1.9740084916197598 15.7268428760825838
 13.6835459582110275 15.6216785688127562 15.2583419518726995
  6.3554880062731254 45.1467228242094123 16.0363713826550267
 16.6379995598811625 14.0884132676377956 15.3327782352535760
  3.3979747478726661 46.6501904441242345 16.0423626202665091
 19.5908483362499410 12.5603679128689851 15.4340674217071196
 22.5419765486620065 11.0390381703384133 15.5475594699152460
  0.4406755700442315 48.1526797186281641 16.0047947894164579
 25.4918606815466262  9.5237017679211391 15.6545736689505777
 -2.5154970475030560 49.6552598448870128 15.9228681343160101
 28.4405383178097466  8.0122151281631595 15.7390967403455644
 31.3881877665844229  6.5022730378382034 15.7912411831886690
 -5.4693537799036909 51.1588218530999654 15.7980805020874886
 34.3349140678834956  4.9927840454915389 15.8069906236761586
 -8.4206575225398002 52.6642659617843520 15.6341946511072081
 37.2807562366282639  3.4834821206823428 15.7853642664922216
 -11.3695902188312967 54.1726527369911253 15.4372687909755602
  0.2689697160240765 51.4575027033785091 15.9371096757808726
 14.3653584172583138 57.1611630665681645 15.5505307779257187
 11.4183874642228727 58.6714421871418068 15.6569831848586034
 14.8734231246309534 47.2335716914291268 15.7549934944631502
 23.5626446258514619 45.9731413527595976 15.3949223825801713
 11.9181041005731476 48.7447510445523591 15.8420784559935530
  8.2683689059486021  8.7350176554365433 14.6952161033806910
 11.2271792082213722  7.1964510598457689 14.7729535250663684
  8.9629570859311283 50.2515451760457026 15.9039328781175051
 14.1819180244599607  5.6609011422172744 14.8996549661825508
  6.0082028879322698 51.7562772316783182 15.9300423350925104
 17.1310163570454392  4.1306127015351377 15.0603273876432233
 20.0761831860557258  2.6071184927011553 15.2370295707194430
  3.0546591824905458 53.2603991356104771 15.9164129380064718
 23.0189733588938914  1.0893574584576453 15.4083171388588962
  0.1030729828876926 54.7652918678261358 15.8624384003682533
 -6.0975730385224960 64.4146026313090090 15.5566673996088678
 -3.1548439239902892 62.9028618271959203 15.6728330882825091
 20.6071508432758677 47.5034285930077687 15.4782166599886253
 -2.8458082689591895 56.2717097276519098 15.7691382225204606
 17.6531574194517589 49.0264950987860431 15.5811367293374747
 14.6995841874326736 50.5416073900612375 15.6867539277326227
 -11.8307765971901038 64.1251475999606271 15.2367989693569790
 14.3372272416938653  2.3357217774601371 14.8483147017682597
 -8.8882785015936783 62.6090562629067833 15.4232037401203712
 -5.9459410354590911 61.0963811299192585 15.5828283889878705
 11.3846701159622050  3.8700759322920892 14.6882675404754970
 -3.0020414743156123 59.5859802148881954 15.7086977727666852
  8.4263570493432347  5.4083993317844055 14.5755197876774112
 -0.0561941709960991 58.0774258546062043 15.7973873915153806
  2.8917129672094579 56.5699863654052919 15.8482968820696009
  5.4639738870528971  6.9486126317067853 14.5243823964885674
  5.8415892451008435 55.0636563591805412 15.8613466545734845
 23.7388611146745312 42.6577154130942802 15.5136781151344110
  8.7932747550175723 53.5579220828404630 15.8367067955917182
 11.7460467007906075 52.0513602533528612 15.7763541961525391
 20.7829952014097934 44.1892974271525532 15.5745500177076313
 17.8281493317584321 45.7154616535475213 15.6595768969410170
 22.3716521704351976 14.3517764306285844 15.6254784721282167
 -0.2105532894307196 61.3927964634041459 15.7530772965461754
  2.7348558240744194 59.8835837490003371 15.7965960577230344
 16.9729800938405084  7.4521961823310781 15.1233006236314136
 19.9207320342686565  5.9272163618973979 15.2745726536432453
 18.0046586501869115 42.4028093693686614 15.7251169868904626
 22.8652997119278609  4.4083258181234077 15.4271778639058450
 15.0492140465344679 43.9246382190811104 15.8084255412948895
 25.8087825456858724  2.8936269386950841 15.5620987096138759
 28.7521019752300759  1.3813756265235193 15.6670207907625549
 12.0932107132629376 45.4383439640169655 15.8930355845100610
 -0.3627677274602416 64.7096352651018520 15.7367567262927750
  9.1366463280854990 46.9463083942464721 15.9596931119345946
  2.5818266445215254 63.1995353174798780 15.7702006080233605
  5.5268981935463515 61.6900201871126725 15.7684683850492160
  6.1801485843053401 48.4511415130875704 15.9935671338079342
  8.4722972920175330 60.1807570958338403 15.7309014492952794
  3.2239532539808780 49.9544017379844689 15.9866829109361479
 20.9601153107678293 40.8741694422949777 15.6591114161054339
 -5.7922138999962831 57.7799334349869298 15.6375937129713805
 14.0209356076391991  8.9834963571301980 14.9932267014864209
 11.0649018146120870 10.5196938052638735 14.8993729346792616
  5.6816441113866949 58.3750814908415805 15.8038561079517290
 -8.7363179386198695 59.2907690768506725 15.4706783795322558
  8.6296574967680719 56.8673408868531922 15.7744477537525025
 -11.6795613457474285 60.8047873411524691 15.2741718745030113
 11.5790622479729439 55.3595935238033974 15.7094132536893696
 14.5294612112122596 53.8501991081689226 15.6137289461138060
 -14.6233541310320305 62.3235639895868871 15.0592368007945883
 17.4811344277937728 52.3367295977062525 15.4976006916085787
 -17.5696605176124194 63.8487320422204050 14.8449824180657721
 20.4339773300708032 50.8166501129122636 15.3772592123807286
 23.3887081766824494 49.2882845917755290 15.2714410132341332
 11.5381165597910194  0.5415930535538779 14.6540510775622010
 26.3457262318316978 47.7539345104455464 15.1945506458473840
  8.5810145803110505  2.0785413647308340 14.5065328726294602
  8.1061251185245720 12.0570387342106962 14.8538792343200008
  5.6186173996003728  3.6187927965152342 14.4196752535104871
 25.3243000665272078 12.8346833974381216 15.7224310873982009
 18.3592162892327089 35.7732625269600533 15.8004063667921244
 28.2761877810030811 11.3228860889463174 15.8018788855319059
 -4.9479630775265955 41.2494198068238731 15.9617452754152449
 42.5399677044615032 13.7130545977659022 15.8723304048095706
 45.4925505830943067 12.2077296109426410 15.7350276766926314
 -7.9088184616478285 42.7529223188697003 15.8650299940794586
 48.4435499484105563 10.7010044057376899 15.5616013063473648
 -10.8692599748157068 44.2574264041899710 15.7304573120637343
 51.3932999895778622  9.1921011459188691 15.3576812431288587
 54.3434064133752557  7.6798540089912724 15.1322182047520233
 -13.8291416266208014 45.7633443141569103 15.5625912781212676
 57.2950490064044118  6.1630141761328927 14.9001799888947382
 -16.7891486551219273 47.2715574552307061 15.3696218529465867
 60.2503892262566225  4.6395359790600619 14.6802738721615569
 63.2102584830700920  3.1098165448919133 14.4928447994677647
 -19.7503544030578837 48.7824075832919775 15.1616324653211940
 66.1747383228373280  1.5742850191855962 14.3584024988855692
 39.5849394480609860 15.2181166078876693 15.9685159226824904
 -22.7132154347806186 50.2975690018178909 14.9522916892851789
 -1.9871457690310366 39.7465537370782869 16.0186273641061305
 33.6711303933763233 18.2281265879415990 16.0268145600529728
 60.4000915229420343  1.3142374153772463 14.6048825327574647
 31.3012631057826241 64.6193865595936074 14.4411218151169027
 15.7582066848005891 30.6716361718602890 15.8005449071843866
 34.2664805903055125 63.0805363446748828 14.3367846154349987
 12.8023428367975267 32.1992069238793022 15.8401367643573447
 15.9355294015860895 27.3556560709368490 15.7403443077800951
 18.8908618018675050 25.8238831375550077 15.7523331834301477
 17.2842827614769021  0.8073811998437316 15.0381680733536882
 21.8464608270490004 24.2932412244600613 15.7943550964577160
  6.8896813136302457 35.2321667608872033 15.9648401957294048
 24.8025969784690865 22.7672287330712813 15.8582084330642896
 27.7585715330041367 21.2484875286068480 15.9306776157975456
  3.9316489369238421 36.7390699400004763 16.0148923201753348
 30.7146021681892840 19.7360632237910174 15.9930626847699795
  0.9728444272825862 38.2435433606111275 16.0354351932460801
 36.6285089437175770 16.7228256512735989 16.0201629934852612
 -25.8326973841381395 55.1364271955437744 14.5955689553109487
 18.7140348784361699 29.1406402365600847 15.7898851772135735
 -25.6779228522238121 51.8183381829781027 14.7603466416901234
 -7.7336869807285700 39.4531959488036179 15.8887447014090935
 60.0999853101592620  7.9599612875515211 14.8005791720439728
 -10.6969848616522025 40.9580837938164848 15.7898389145429228
 63.0605691678237505  6.4352858588014685 14.5994445063685845
 66.0248076510786319  4.9043580760541268 14.4415784097935589
 -13.6607132524809831 42.4637646271210158 15.6580683516189065
 18.5366703316039008 32.4572383910731546 15.8060742478440233
 -16.6247388447288813 43.9710198861305201 15.4990665345928349
 21.4926692201548271 30.9255031751924712 15.8046413288178016
 24.4487724728690985 29.3947830055474455 15.8335374189140552
 -19.5893133811252298 45.4801671066547470 15.3204151061622991
 27.4054318926489842 27.8687808982634628 15.8854825588557702
 -22.5545801183676957 46.9920909200551193 15.1319914662845978
 30.3619834732440133 26.3505417372639599 15.9481193502088345
 33.3193331740696266 24.8385099707446138 16.0025623257953313
 57.1427194922324446  9.4783984983329539 15.0239706346884745
 21.6696556272598428 27.6091828369506764 15.8107684536522939
 54.1880434500076476 10.9914457195202147 15.2511942436716463
 51.2344773706725789 12.5007247913979427 15.4664831937648017
 24.6259290696330169 26.0803221980968800 15.8586045054239797
 12.9799016537532435 28.8853799860049456 15.7601761580857076
 27.5822733077921889 24.5580947173379300 15.9229596238925293
 30.5387464014524568 23.0430331968162356 15.9876220908906266
 10.0240855721550624 30.4100535761346116 15.8070887516378775
 33.4957718646712692 21.5332815498695247 16.0330720429997449
  7.0676751827388715 31.9262288051487850 15.8696965464571367
 36.4539105979241427 20.0270184341233559 16.0440167008832084
 39.4123390983968704 18.5222589390719889 16.0121461873393933
  4.1099550901733179 33.4354162356956053 15.9294015083623144
 42.3700181683413959 17.0177150783899940 15.9354170178417700
  1.1511006583617620 34.9411012264071061 15.9690182747428295
 45.3261649570294267 15.5130240131704777 15.8157253300921639
 48.2807178534531971 14.0076361732618508 15.6574490042162076
 -1.8089714105408210 36.4453750658638427 15.9779894776941553
 -4.7707338378243787 37.9491413152657842 15.9517142388786883
 36.2776141733656985 23.3308547615746349 16.0309437936905361
 57.4455666289801670  2.8421868220883559 14.8101180729172217
 54.4956752069805859  4.3632265077691770 15.0363822852351365
 31.6081997515523270 57.9592925409749640 14.5158096584264520
 -8.2541446686868003 49.3577773048859427 15.7278115450836875
 13.3341846941427562 22.2549800989283817 15.5366861252387825
 16.2890628489746732 20.7222961296682975 15.5617751033154867
 -11.2071220913411036 50.8636558666540637 15.5420609954321840
 19.2435801276386620 19.1909417713428070 15.6188184529193119
 -14.1589156573734805 52.3729247304146170 15.3280501341209678
 22.1982623831094230 17.6645430665985934 15.6979445444216239
 25.1524943298106507 16.1448652400916046 15.7855403376099748
 -17.1109094071318282 53.8863538183260360 15.0961077882036800
 28.1065202522113502 14.6314953759086919 15.8635194183755956
 -20.0652026695742052 55.4050444412827758 14.8621573650552214
 31.0604239564818165 13.1226949769466081 15.9145740809580687
 34.0139660225672102 11.6158694130247611 15.9278001870972830
 -23.0232085817279284 56.9301366472261563 14.6457201091967786
 -5.2991266533960060 47.8538611523228283 15.8773512930688980
 36.9656285198314052 10.1094926025107412 15.8996405466314528
 28.6464540630523778 59.4981704049113418 14.6186552054189800
 -2.3420258240577896 46.3513740699221586 15.9856896439380627
 15.4032384675184328 37.3010424512848147 15.8521509194570118
 31.2275931862669225  9.8141027462497252 15.8505379404643811
 34.1773472633850659  8.3061761060543802 15.8619159225409980
 12.4471116463934024 38.8221845223842408 15.9219525631628187
 37.1256229425437638  6.7979975862899140 15.8343380877279749
  9.4904671631778079 40.3349805596596696 15.9937831788441756
 40.0723947832097949  5.2895630787419865 15.7680090835095950
 43.0177450643007688  3.7804688083930400 15.6638198957474248
  6.5327659774066067 41.8420788262134025 16.0482555556174269
 45.9620748620192288  2.2703818016304385 15.5234056928049551
  3.5748339316395050 43.3464922903890155 16.0698623882371407
 48.9062871287325933  0.7582316278267778 15.3513402211017951
 19.7920858926354057 64.0816816662470501 15.1575851456330071
  0.6163205970066762 44.8491682257040125 16.0500567800035796
 22.7386345119630349 62.5601234172318854 14.9577598321894527
 25.6896822882255904 61.0324058337625033 14.7715968479530950
 -22.8694361035533902 53.6099925431474205 14.7857558745015094
 -25.9853502168069888 58.4614530470720339 14.4679347712439590
 42.8633481611966758  7.0948997200915640 15.7213551138189480
 27.9336170566869200 17.9397037399073085 15.9095104977798556
 -5.1246132426537363 44.5509776561480706 15.9353616386284660
 30.8887399807196878 16.4295528796601431 15.9664659030572835
 -8.0829475312754724 46.0542796885508636 15.8090684233372034
 33.8444549495097746 14.9227238734023437 15.9882433386546818
 36.7996559126365170 13.4173737857219475 15.9672932453056831
 -11.0397486071652313 47.5589632630386845 15.6445857447498611
 39.7532705234279646 11.9119046708407925 15.9023879826493868
 -13.9957677339298687 49.0660387396718676 15.4485863447935650
 42.7045671616453433 10.4058244103721513 15.7953070172949133
 45.6536577259803877  8.8987976046360711 15.6498692871366867
 -16.9516343273275645 50.5762198691808749 15.2308813567887800
 48.6012512973901565  7.3901309102619237 15.4703241225976829
 -19.9091087603907653 52.0902338987906077 15.0041556925056323
 51.5479808408026514  5.8786627368831903 15.2622762174153443
 24.9782941544609400 19.4554620881944302 15.8329022046526902
 39.9156323449520514  8.6025184788995315 15.8302392981034323
 -2.1653474862606390 43.0485279752972829 16.0201386018513610
  0.7942091968733754 41.5461769888186367 16.0619219900508732
 -28.9518657289126260 59.9979847870446434 14.3499975092170704
 45.8095972095131216  5.5859755204862429 15.5756534058107174
 15.5807529154646041 33.9869370031412004 15.8381988132356639
 48.7547407454087534  4.0754195124607326 15.3968379685701890
 51.7000302422359255  2.5615333756092080 15.1922432060415016
 12.6246507081005106 35.5115914434568083 15.8947547991630564
 54.6462356200303887  1.0429301556812927 14.9753009223818392
  9.6683738797019103 37.0280699780199498 15.9632093097363157
 25.5371900538505159 64.3573310165739798 14.7654731799991215
 28.4923926732819517 62.8257864785335585 14.5839780483333374
  6.7111381428624011 38.5372876993974316 16.0248511136931775
 31.4532198979018531 61.2885531070425529 14.4495261733190521
  3.7530992759258344 40.0427871945712539 16.0616612389854794
 16.1125673114283998 24.0390735017788444 15.6598407233520067
 19.0675018150278675 22.5072190927029041 15.6945616019070204
 22.0229137788658100 20.9782828116889100 15.7559943843696360
 37.2349218415154581 61.5386602468279946 14.3050526877235420
