Se W 
 1.0000000000000000
    38.2766516488035151    0.0000000000000000    0.0000000000000000
   -19.1383258244017611   33.1485526996713489    0.0000000000000000
     0.0000000000000000    0.0000000000000000   24.7171056087856371
 Se  W  
 532 266
Cartesian
 17.5417267427591348 32.2375724874328213 17.4783428943941530
  1.5775993254804510 25.0290068197560487  7.2521459156494341
  1.5608000246684939 25.0000145767124877 10.6063798323784031
  0.1438971866496331 22.0159560536662973  7.2319507631222582
  0.1438971866496483 22.0159560536664891 10.5860596638068039
 -1.2900845407982562 19.0040707879155555  7.2515807854164365
 -1.2719160827846783 19.0307995744453038 10.6058885260370541
 -2.7275395315040476 16.0082948612214047  7.2938472239938239
  2.9933122371607768 27.9893434305765680 10.6541688356785436
 -2.7030841836826940 16.0392523838114691 10.6506643453826797
 -4.1551754435926052 13.0433599984760882 10.6879784872460650
  7.7621899866242989 31.2387566167403605  7.3442926153831829
  7.7717562260624264 31.2314198542193182 10.7047856624495594
  6.3291290463727989 28.2674506611044052  7.3237561319994109
  6.3127278781067648 28.2473046092389559 10.6816849033940766
  4.8984642263442018 25.2833557214780988  7.2834710048565539
  4.8653631094253740 25.2646866676082062 10.6391112320832821
 -4.1711388616155736 13.0300758388579325  7.3289877995509443
  3.4692572036226110 22.2800340814318822  7.2515807858411883
  3.0149311809875763 28.0267074406893393  7.2974265965970551
  4.4592717696789990 31.0055094182641007  7.3377437159702730
 -6.4970832075269875 21.4969687343154128  7.2974265962445939
 -6.4539155544696785 21.4969281846699047 10.6541688369063881
 -7.9267115505635388 18.5109750171706544  7.3207400546556238
 -7.8942000032209467 18.5173091479383594 10.6789253446593460
  1.1437989368876211 30.7577987623496689  7.3207400547490531
  1.1330286825016429 30.7264758697459897 10.6789253440360170
 -0.3063476541388830 27.7697048486582254  7.2826675339760545
  4.4450716251709528 30.9843771223472366 10.6963872695429192
 -0.3099074100971764 27.7253727016584186 10.6384135228105148
 -1.7334175235924625 24.7346645525043947 10.6058885294171414
 -3.1823323903318244 21.7510531437475549  7.2521459183312320
 -3.1488247201808375 21.7510006439087888 10.6063798312630180
 -4.6138730152993697 18.7491581865141264  7.2826675338420719
 -4.5737003715928823 18.7682414196901100 10.6384135242813613
 -6.0450589123605676 15.7657708683300584  7.3184493329568117
 -6.0185499937901055 15.7853149285180283 10.6766582375616199
 -1.7474811015100253 24.7637632902299707  7.2515807851158325
 -5.0303190162712843 24.4805001811907204 10.6391112366058707
  3.4370251657177562 22.2824040335011446 10.6058885361562538
  2.0197162529665174 19.2968529390377448 10.6063798325260734
  1.0085144552602285 10.5585192353932236  7.3309317500919953
  1.0011987991600388 10.5464359047573311 10.6897491397900168
 -0.4474010515327459  7.5789342642574313  7.3070326163888222
 -0.4511199514302096  7.5386558621645960 10.6643354484127748
 14.3722575546804823 31.7129779678169506  7.2739420557081278
 14.4149481697714563 31.7198772339397941 10.6293887310253243
 12.9423739293451252 28.7223876536617340  7.3070326158794119
  2.4559879907677793 13.5579176859832913 10.6816849032491490
 12.9791155006010843 28.7393061916655626 10.6643354482160415
 11.5238329327224580 25.7593186963005039 10.6891331921826911
 10.0834157525292838 22.7719653245187637  7.3289877988327534
 10.0639296233243929 22.7791479703524473 10.6879784891920337
  8.6511943857624445 19.7812554422539435  7.3184493329588882
  8.6210142736813768 19.7944408083109487 10.6766582378159818
  7.2146041735761646 16.7790943821309568  7.3207400547521440
  7.1928628787356867 16.8040831429951467 10.6789253446570633
 11.5134039306495861 25.7470637519707175  7.3294945512515257
  2.0364246239755586 19.2678081961379846  7.2521459191445690
  2.4652343981723051 13.5336408315111729  7.3237561326412353
  3.9138435868863897 16.5241919849121359  7.2974265965079432
  0.5962647832556406 16.2646803792113985  7.2834710042056452
  0.5966474652872983 16.3026813142261560 10.6391112352913400
 -0.8532024263346116 13.2792228042623375  7.3185075143865248
 -0.8457078523646643 13.2975787437623296 10.6767058782196074
 -2.3096221348255379 10.3041205359399441  7.3294945511782226
 -2.3042235420707882 10.2889612829268202 10.6891331922375041
 11.0623076171225403 31.4695908619744316  7.3196545268627649
  3.8922948774102384 16.5615965439290349 10.6541688364383216
 11.0997844811349786 31.4714925741779936 10.6773322692635020
  9.6481421987584408 28.4931611030139429 10.6897491403475051
  8.2086799324748405 25.5208090833054300  7.3185075124349392
  8.1890359356621580 25.5181216049367201 10.6767058783691677
  6.7824027564922709 22.5330495070055932  7.2938472233751037
  6.7433650808359955 22.5387496990948328 10.6506643470124054
  5.3519122306865574 19.5290051258199462  7.2826675337557774
  5.3152993435487703 19.5542540413174208 10.6384135229259886
  9.6340198991563248 28.4934549822096486  7.3309317483247671
  5.7713914773814015 13.7839553556693541  7.3377437168885402
 -5.0630374502494551 24.4998320606316256  7.2834710045032116
 -3.6231716651614874 27.5065237932019926  7.2938472235031684
 20.1405956201641096  0.3276639093201495 14.0295705163069542
 20.1433276738747757  0.3309678136535682 17.3886084756463148
 30.9338515143951156 11.0454611416432886 14.0081535882236476
 30.9429430001571824 11.0450473783395058 17.3694646430875288
 29.0567118612002844  8.2981744754904057 14.0237438438791031
 29.0796853081275302  8.3007810125703934 17.3827536373734830
 27.1785289436982751  5.5643733079914872 14.0341246029459956
 22.0092127077389321  3.0540307471987682 17.4026027702415753
 27.2014145083394432  5.5540019880298139 17.3930540140313212
 25.3235489276651258  2.8115501514897021 17.3874952107944303
 23.4495221985265054  0.0761639380393585 14.0214835865831109
 23.4584985151013328  0.0797193880295178 17.3825424062549452
 32.3895692857514490  8.0555936623325302 14.0198947046592259
 32.3814382752870884  8.0734035432891087 17.3787440897786922
 30.5160725096116430  5.3219696543325981 14.0322454111882529
 30.5075106673924026  5.3297995292833793 17.3909024791707800
 25.3083336346309302  2.8273132638902077 14.0282215006066728
 28.6395829995243005  2.5888988974583111 14.0298210962207222
 21.9915125905662237  3.0775915518806132 14.0448679453281073
 23.8546241880223526  5.8147803618283973 14.0630412899146009
 24.3022400007868384 11.5243055746820495 14.0872816854763663
 24.3424352480182904 11.5313986250899827 17.4428477806292044
 22.4220195584768902  8.7999421354551561 14.1052964829893810
 22.4555965261038715  8.7831246802546499 17.4597701036729660
 20.5496437200216349  6.0755803904784456 14.0888258415813947
 20.5653723592773652  6.0405606453852618 17.4443504196664385
 18.6886334903962990  3.3383116577576675 14.0515092699576094
 23.8882877240986531  5.7889998285989099 17.4199170736262730
 18.6879513531092449  3.3080861536200956 17.4086150964476687
 16.8257745320268164  0.5837392152750057 17.3811081960361875
 29.4945614809464836 14.0374490915608181 14.0219435216265822
 29.5021285798704511 14.0304413368216760 17.3811081961746332
 27.6125186609927660 11.2807259216009399 14.0386144441044287
 27.6478290079868785 11.2826998749584231 17.3960747839204366
 25.7310200757803074  8.5432252955330874 14.0610336472916337
 25.7737151812247660  8.5337922208294437 17.4175282000088352
 16.8356269746054963  0.5867886379190120 14.0219435186793699
 -3.6085893373795725 27.4698660791380291 10.6506643456691190
 28.6287967936002978  2.5817025700230509 17.3891690399381886
  7.6227074827874111 32.9858386498511464 17.3803697905665295
 -8.7720902356327457 29.9966838732869192  7.3294945503536759
 -8.7879178304073573 29.9995881816812613 10.6891331925506901
 -10.2108427947674034 26.9958939435956360  7.3309317495709641
 -10.2176494378083387 27.0082711531665147 10.6897491396125375
 -11.6524287951121437 24.0021908704122247  7.3442926155093211
 -11.6508580922058176 24.0141438582091595 10.7047856632648646
 -5.4805853301679601 30.2458269975932552  7.3289877989326708
 -13.5227812939217600 26.7762645121420917 10.6773322688226280
 -5.4770626198784083 30.2253601921541382 10.6879784873030275
 -6.9116365247904792 27.2321678127580817 10.6767058782801918
 -8.3626718844028485 24.2467766689464099  7.3237561323135552
 -8.3370243075210873 24.2426458652004939 10.6816849035095629
 -9.7989716875616057 21.2584033873039608  7.3377437160375685
 -9.7735705091156806 21.2566718486278923 10.6963872700418001
 -2.1744439136782350 30.5008418513017610  7.3184493329454590
 -2.1707727207102012 30.4681124244566384 10.6766582365453662
 -6.9237859456585600 27.2478362731027559  7.3185075131241764
  7.6304202174507321 32.9884803582452975 14.0184610053694652
 -13.5023959312918809 26.7447594510810411  7.3196545269263567
 -12.0632813184552905 29.7465462426785940  7.3070326159210222
 33.8436033495209472  5.0680029367451409 14.0597365285704594
 33.8171266855833537  5.0961411516422590 17.4164702121543478
 31.9672265578581758  2.3430572536263128 14.0628163839914944
 31.9332457115301800  2.3491178620660644 17.4193215088105831
 10.9516945474805354 32.7558648521725146 14.0447366986832272
 10.9182929167645693 32.7467198933187760 17.4022826713140653
 35.2788865141778842  2.0838290327211557 14.1050604563052140
 -12.0963039880419903 29.7699061089228820 10.6643354492198164
 35.2487633083832819  2.1005541044689320 17.4594665886245082
 14.2227970624493150 32.4984455236674705 17.4446961966880210
 17.5597423912613522 32.2488740901581181 14.1244881033188143
 -0.0093675346111745  1.8381854700455285  7.2387627169034516
 -17.2539323696894193 32.2375724874730807  7.2387627167145139
 -17.2719480181217619 32.2488740910642377 10.5926175129760107
 -15.3681503168436393 29.4895666291049992  7.2739420560825891
 -15.3954705640429648 29.5230881546011119 10.6293887316210824
 14.2625374042478992 32.5104470163171442 14.0889651684992465
 26.2116865119950759 14.2809603017480597 17.4086150959542287
  5.7601904441044001 13.8068191900688113 10.6963872675179310
  4.3107934259376472 10.8023044487398483 10.7047856625560094
 15.1059475067395752  0.0797193880411400  7.3345632017802629
 15.1149238236228900  0.0761639377630412 10.6956220224471057
 27.0456801010796895 18.2851349089812594  7.3359974143249520
 27.0479654454370788 18.2750777315576052 10.6951620885016592
 25.6174148547742462 15.3102690070041749  7.3084905122757462
 25.5915798674075710 15.2945655060954895 10.6655963383559129
 24.1897330325474691 12.3181374746124046  7.2727551891193221
 16.5729334316202035  3.0775915522603001 10.6722376624760340
 24.1515407240997035 12.3142490033123089 10.6282797665288964
 22.7283621618769303  9.3305430904881970 10.6118091271488542
 21.3230592972300919  6.3016860740755778  7.2742578285053883
 21.3091044372576555  6.3400427018872092 10.6298239226625526
 19.8764946681150363  3.3080861528119767  7.3084905124238508
 19.8758125305726310  3.3383116577428664 10.6655963385062016
 18.4211183481466030  0.3309678136164542  7.3284971327008526
 18.4238504018718459  0.3276639092201096 10.6875350935002444
 22.7597149899750804  9.3098733104427822  7.2573355057217608
 28.9233631268699618 15.5384353105602617  7.3284971326741495
 16.5552333142044859  3.0540307477654958  7.3145028385327180
 17.9990736617640827  6.0405606447882318  7.2727551881303256
 14.6761582979021341  5.7889998293975395  7.2971885359730813
 14.7098218324477923  5.8147803615133062 10.6540643182375128
 13.2408970943195428  2.8115501514477383  7.3296103972157196
 13.2561123882376979  2.8273132637562912 10.6888841088317275
 -7.3349131096784106 32.9858386497662792  7.3367358196478589
 -7.3426258442048074 32.9884803583013095 10.6986446021797050
 25.1806603025671052 21.0256137786844057  7.3476409652892452
 18.0148023001412696  6.0755803886433783 10.6282797671433293
 25.1764728887551570 21.0175334391422268 10.7089520179972002
 23.7195517379406269 18.0235424238418673 10.6784911649328222
 22.3015989599958395 15.0662307631320598  7.2742578282696355
 22.2753585759191068 15.0349671832032961 10.6298239201737754
 20.8690283069447915 12.0599107497297293  7.2388045740991158
 20.8512385395640933 12.0500205980460819 10.5926486238682180
 19.4357951208847410  9.0454886583804530  7.2388045740730664
 19.4361248822488655  9.0658401249066056 10.5926486168904486
 23.7389164054685615 18.0531351047701172  7.3210308250081662
 16.1424264636401702  8.7999421355840788 10.6118091267778638
 28.9248583650415867 15.5424532906534072 10.6875350930418627
 27.4688096527675789 12.5645483528976420 10.6722376620441892
 31.2169042106358816  7.0644361112473852  7.3279365690799807
 31.2160651110196099  7.0514968195834919 10.6872845114374027
 29.7763393690686975  4.0633736908975280  7.3262031293619039
 29.7874011603896101  4.0598738560912455 10.6848601973762385
 28.3372723984198096  1.0687027704553684  7.3383615208355124
 28.3567617136917747  1.0705660500259240 10.6972109043921151
 -3.7620190361618748  7.3196737206629274  7.3148229371589943
 -5.6153260893317869 10.0461747706474895 10.6986446021808277
 -3.7532379883888032  7.2861745812373950 10.6723689109942104
 33.0927920013673571  4.2925937855814542 10.6542892252704746
 31.6335014669575365  1.3139913305006281  7.3006353965314554
 31.6711082095089189  1.3051309769434880 10.6573690794573537
 -1.8947550507346236  4.5820263679266979  7.2724094128762289
 -1.8852784774060705  4.5416094776889517 10.6281404397166632
 34.9435742626562771  1.5719511702327476  7.2576390200141008
 34.9731202028760251  1.5542262450597684 10.6120451523152930
 33.0705529342633540  4.3189917560926974  7.2977840997784122
 27.4980639685341011 12.5610000028935946  7.3145028385327180
 -5.6168946699387021 10.0541750492621862  7.3367358170221504
 25.0445057087991536  0.8286543042901388  7.3476409659336879
 26.0690487715472479  9.5661887634265668  7.2971885358029445
 26.0298904076990176  9.5824519758441546 10.6540643176081442
 24.6347025614510855  6.5609644920420509  7.2995774088781955
 24.6051857253476740  6.5932230020745139 10.6560719594218263
 23.1911356129346871  3.5634804822348056  7.3210308251402632
 23.1751899324994781  3.5950471159449844 10.6784911644890901
 21.7386714901826146  0.5837392152496398  7.3359974115073046
 25.0396016365148881  0.8363208804518039 10.7089520192653129
 21.7288190474141167  0.5867886375494539 10.6951620869581774
 30.7971270186074300 12.8025888001965420 10.6956220255615921
 29.3652264334362023  9.8119409382460372  7.3296103972157196
 29.3439675307124368  9.8172362127546737 10.6888841093024247
 27.9291262637594926  6.8144357225816883  7.3240515951668002
 27.9087016553988576  6.8290695421695311 10.6829810054765186
 26.4894812510470850  3.8144159822322408  7.3343519705353213
 26.4802518534493245  3.8356148394737977 10.6933617665816367
 30.7985360668834076 12.7930373564115794  7.3345632010538067
  4.3219303684489940 10.8069206738572259  7.3442926161404687
 16.1088494959117128  8.7831246802538949  7.2573355060055516
 17.5418456056459533 11.7939160530759644  7.2388045745194143
  6.1830077467217963  8.0734035428311088  7.3383615198063792
  6.1748767361697707  8.0555936618328143 10.6972109043809045
  4.7473193363373491  5.0961411529992970  7.3006353965903648
  4.7208426733249311  5.0680029372435556 10.6573690803538348
  3.3156827138697507  2.1005541049565544  7.2576390197405338
  3.2855595075918855  2.0838290326793962 10.6120451518254555
 19.5874120567754346 29.2268101872693613  7.2576390202760415
  7.6305945077693540 11.0454611416350765 10.7089520184735072
 19.5879893246784356 29.2612601840508866 10.6120451538497598
 18.1566575681059561 26.2636644232474090 10.6542892252010759
 16.6941155943445665 23.2531767791055550  7.3279365686273001
 16.7057408995410874 23.2589197438368629 10.6872845120519315
 15.2405455055428956 20.2758243713772011  7.3296103972157196
 15.2465891153165671 20.2547659844777854 10.6888841071686187
 13.7933717510651643 17.2842847100186141  7.3145028385327180
 13.8049259493959724 17.2571755564585665 10.6722376628734317
 18.1449157888081629 26.2312058417061422  7.2977840998995962
 12.3527595104490988 14.2809603017478395  7.3084905114169896
  7.6215030219694597 11.0450473785206729  7.3476409640117906
  9.0623174422697161 14.0304413372798447  7.3359974125061065
  2.8717798741541651  7.8335178476700946  7.3196545269577005
  2.8546883742046649  7.8001110750430360 10.6773322696464437
  1.4275843226750466  4.8453235631914557  7.2739420563423600
  1.4122139519794583  4.8049027721934170 10.6293887315155686
 17.6949914642424986 31.9721102035645366  7.2387627157595977
 17.7137867638310738 31.9820614102882210 10.5926175126668856
 16.2614493008210204 28.9673962687336157  7.2724094124775114
  9.0698845411977995 14.0374490922501671 10.6951620904526656
 16.2917130675258903 28.9958116666100452 10.6281404402430226
 14.8488297223595751 26.0058287273475237 10.6723689099581858
 13.3834993394120279 23.0078544618900160  7.3367358187407881
 13.3896434933377186 23.0132130322466502 10.6986446031682920
 11.9421854593532473 20.0265587165839420  7.3345632002381018
 11.9346181909761597 20.0205627232431880 10.6956220225461784
 10.5021875580797168 17.0299123371085308  7.3284971328199884
 10.4979602661216944 17.0291982611882702 10.6875350944049767
 14.8242091385846049 25.9814745466481121  7.3148229363278405
 17.5593056110834631 11.7834547384970083 10.5926486180375292
 12.3792766337376037 14.2664382974526500 10.6655963382378438
 10.9519273621455167 11.2807259212635991 10.6784911657282642
 12.7907308406451445  8.5337922216239583  7.2995774089465515
 12.8334259464374920  8.5432252955838095 10.6560719607119641
 11.3630315142284459  5.5540019878954796  7.3240515939301352
 11.3859170774400198  5.5643733084262630 10.6829810057420165
  9.9356492285122364  2.5817025701869012  7.3279365694468783
  9.9248630228890047  2.5888988973849374 10.6872845115738748
 -10.6304985447387619 32.7467198939371045  7.3148229371589943
 14.2622060216459303 11.5243055754629555 10.6298239201972820
 -10.6639001738631940 32.7558648520824036 10.6723689101413690
 23.3150305830075411 23.7731557500950998 10.6972109049782489
 21.8724270687337707 20.7841184669385513  7.3343519703764652
 21.8586830183898222 20.7655261460339595 10.6933617663365403
 20.4212356315198598 17.8045587491376907  7.2995774088006726
 20.4080573609317000 17.7628671645776350 10.6560719600488092
 18.9781045468251506 14.8063174714034584  7.2573355055038009
 18.9758804058523012 14.7688302351436338 10.6118091265573078
 23.3263888885166395 23.7572091478139633  7.3383615189978659
 10.9166170149626947 11.2826998746959752  7.3210308254655692
 14.2220107759577683 11.5313986246318478  7.2742578286583139
 15.6578623387991556 14.5406173411869375  7.2727551882016312
  9.4847607135152732  8.3007810120323100  7.3343519708704479
  9.5077341609429649  8.2981744767050358 10.6933617661905096
  8.0569353548586982  5.3297995291069427  7.3262031293622671
  8.0483735127673324  5.3219696543001378 10.6848601987329879
  6.6312003099432300  2.3491178637070309  7.2977841000261252
  6.5972194646124631  2.3430572519033754 10.6542892253026054
 -13.9350026897825714 32.4984455237886323  7.2724094135950210
 15.6803260080470288 14.5094860670554411 10.6282797653155079
 -13.9747430299789546 32.5104470160595866 10.6281404410263569
 21.4547181525713349 26.5261815490975863 10.6573690798615619
 20.0133943093045161 23.5061422410007665  7.3262031297281078
 20.0108943599357936 23.5174719517028237 10.6848601983762723
 18.5545112549484905 20.5308777503417339  7.3240515954942111
 18.5520502986641382 20.5058726111430545 10.6829810062960373
 17.1014619632659368 17.5441268684767415  7.2971885353620021
 17.1069567893115355 17.5020831249799684 10.6540643181047479
 21.4658482291796773 26.4891829781390413  7.3006353964293247
 26.1851693887801851 14.2664382976804074 14.0515092703175490
 -0.0101471841903654  1.8169326591500834 10.5926175103109053
 28.0622584640288650 17.0299123371634380 17.3886084763292459
 -6.9268097992689244 16.7790943821021656 17.3963655556582921
  0.2971619079244404  1.8381854699596614 17.4783428919330497
  0.2979415594720707  1.8169326594401209 14.1244880974693992
  2.1825494252761821  4.5820263692267895 17.4446961969706891
  5.7648569928577000 30.2253601923159962 14.0291271217810181
  2.1730728508511192  4.5416094783225054 14.0889651695621101
  5.7683797033904352 30.2458269971819789 17.3881178091611943
  4.0498134097561191  7.3196737209370690 17.4022826713140653
  4.0410323611589511  7.2861745806174882 14.0447366978119792
  3.8963837098475227 27.4698660796455805 14.0664412619233286
  5.9046890432224801 10.0541750490570543 17.3803697893960667
  5.9031204626049449 10.0461747705467328 14.0184610059293195
  3.9109660372900854 27.5065237934915245 17.4232583850239777
  7.7659099552068760 12.7930373565965763 17.3825424059356664
  7.7673190030946362 12.8025888001500707 14.0214835872480563
  2.0212118960637215 24.7346645521303401 14.1112170797877585
  9.6410828952002898 15.5384353105314972 17.3886084764362856
  2.0352754757748701 24.7637632902464979 17.4655248224829016
  9.6395876570481231 15.5424532907432535 14.0295705163114484
 11.5187659214619238 18.2851349093530651 17.3811081956988680
 11.5164805770682932 18.2750777316127149 14.0219435196726447
  0.1438971866497117 22.0159560536663754 14.1310459527511476
 13.3837857194372614 21.0256137786145665 17.3694646441077047
  0.1438971866497545 22.0159560536664216 17.4851548449764849
 13.3879731331799121 21.0175334392260282 14.0081535877671222
 15.2380571341343618 23.7572091476069716 17.3787440887402944
 15.2494154390054408 23.7731557498418802 14.0198947047281326
 -16.0039186942660656 28.9958116668850394 14.0889651702892369
 -6.9050685062500250 16.8040831430945552 14.0381802641300037
 -15.9736549274328308 28.9673962689185203 17.4446961965559488
 20.4077884523960478 26.2636644232066665 14.0628163833201238
  3.5913258192948603  1.5542262444911281 14.1050604523419736
  5.4938930881854731  4.3189917560132036 17.4193215092362017
  5.4716540210679057  4.2925937854707445 14.0628163832066306
  2.4585670947480733 30.4681124247799602 14.0404473721643797
  2.4622382865346757 30.5008418508052586 17.3986562755364780
  7.3475418114200357  7.0644361114768586 17.3891690405692003
  7.3483809114288823  7.0514968198391710 14.0298210967425803
  0.5977017830785664 27.7253727015210529 14.0786920890303957
  9.1992195889981367  9.8119409383134393 17.3874952107671206
  9.2204784914909119  9.8172362128911939 14.0282214993214556
  0.5941420279865046 27.7697048483238937 17.4344380749610650
 11.0663820557922286 12.5610000033696529 17.4026027702415753
 11.0956363695139686 12.5645483520117249 14.0448679451828689
 -1.7319218813338113 19.2968529385406100 14.1107257764908045
 -1.2730056521912978 25.0000145772230624 14.1107257766594074
 12.9728661546566499 15.2945655068237709 14.0515092696324579
 -1.2898049524951527 25.0290068205367469 17.4649596904202369
 14.8255296167571462 18.0531351025819120 17.3960747837877179
 14.8448942821459866 18.0235424228188990 14.0386144439111629
 -3.1492307931800343 22.2824040336121101 14.1112170794027794
 16.6920189534444106 20.7841184664369258 17.3827536376186913
 16.7057630041643570 20.7655261458790648 14.0237438428415473
 -3.1814628286499689 22.2800340815233220 17.4655248239911778
 18.5510517122682224 23.5061422410498366 17.3909024795742759
 18.5535516619527883 23.5174719517000064 14.0322454103097627
 -5.0275049704570218 19.5542540379002112 14.0786920885682267
 -5.0641178577136587 19.5290051262562123 17.4344380750176242
 20.4195302331878850 26.2312058413174896 17.4193215086490980
 12.9470311680794801 15.3102690068036420 17.4086150962745556
 -8.3634000118328586 19.7812554425497424 17.3986562755826526
 -1.7486302502395761 19.2678081966193915 17.4649596911315257
 17.1097278713601852 26.5261815490517279 14.0597365286912162
 15.6559446893397176 29.4895666292647327 17.4431635531100042
 15.6832649363295289 29.5230881533309386 14.0877168789849989
  1.5597104572553886 19.0307995744891585 14.1112170794987115
 -2.5839855010100181  7.8335178465784079 17.3974510820081534
 -2.5668939984922776  7.8001110751192773 14.0397733403458478
  1.5778789140724281 19.0040707893173320 17.4655248240917231
 -0.7207200820013333 10.5585192355834252 17.3861738580675862
 -0.7134044256001277 10.5464359046718634 14.0273564686576151
 -0.3088530931609745 16.3026813130856532 14.0779943728575567
  1.1409967996109267 13.2792228043371257 17.3985980947170411
 -0.3084704086961338 16.2646803788925780 17.4336346045306207
  1.1335022262286139 13.2975787437826209 14.0403997300955030
  3.0153339043747329 16.0082948606776334 17.4232583851902056
  2.9908785556446862 16.0392523842933556 14.0664412611445702
 -2.1681936166030535 13.5579176860241457 14.0354207048517399
  4.9016673889555413 18.7491581870427595 17.4344380748909842
 -2.1774400248100383 13.5336408310447815 17.3933494760311369
  4.8614947452709911 18.7682414202665342 14.0786920864161100
  6.7848775814224700 21.4969687345025662 17.4196790130229502
  6.7417099278037496 21.4969281842346405 14.0629367740382829
 -4.0229990526226134 10.8023044485858914 14.0123199460707397
 -4.0341359951122868 10.8069206738285093 17.3728129926264749
  8.6504662584282368 24.2467766690752988 17.3933494757033493
  8.6248186804486746 24.2426458651664340 14.0354207059761027
 12.3840983615244298 29.7699061078689233 14.0527701598931447
 10.4986371682436239 26.9958939435983893 17.3861738595154556
 10.5054438110578729 27.0082711530498543 14.0273564687150341
  3.4701267640412001 21.7510531440210571 17.4649596919988355
 13.8105756674993625 26.7762645113963735 14.0397733411578667
  3.4366190935745311 21.7510006450836961 14.1107257770737480
 13.7901903046878278 26.7447594505070327 17.3974510820081534
 -3.6045005044506251 16.5615965439866919 14.0629367731374817
 18.9770339647429154 29.2268101871329158 17.4594665885254230
 18.9764566976159372 29.2612601841688793 14.1050604557761741
 -3.6260492135265490 16.5241919851870023 17.4196790130292136
 -1.1397899480881752  4.8453235644149908 17.4431635532424636
 -1.1244195787270161  4.8049027733627652 14.0877168773196981
 -5.4723960711205573 13.8068191899414021 14.0207183378399485
  0.7351954241779013  7.5789342654834613 17.4100729932467857
  0.7389143252955196  7.5386558620614164 14.0527701596293007
 -5.4835971043327740 13.7839553555788434 17.3793618918830290
  2.5974165080184735 10.3041205358607773 17.3876110577366418
  2.5920179148498268 10.2889612830153254 14.0279724161999440
  9.0757122035188420 29.9995881816900472 14.0279724168722808
 17.0985977939769569 26.4891829779445871 17.4164702123153567
  4.4589332353363105 13.0300758388666580 17.3881178092858413
  9.0598846096882255 29.9966838734543337 17.3876110583030510
  6.3328532856306774 15.7657708682566771 17.3986562755364780
  6.3063443664724241 15.7853149279456577 14.0404473711700568
  7.1994308979862875 27.2321678117131185 14.0403997299132914
  7.2115803200670019 27.2478362729556949 17.3985980960368671
  8.2145059239414255 18.5109750167183833 17.3963655549220597
  8.1819943759002296 18.5173091492176347 14.0381802643640050
 10.0867660604295839 21.2584033869298139 17.3793618927259992
  5.3181133900356388 24.4805001815821939 14.0779943727164447
 10.0613648826106825 21.2566718490022275 14.0207183393100721
  5.3508318232447989 24.4998320604431292 17.4336346049714308
 11.9402231683372495 24.0021908705523224 17.3728129934892301
 11.9386524652222779 24.0141438582560234 14.0123199427779905
  4.4429698176213952 13.0433599987635294 14.0291271212413360
  3.6208717590011466  1.5719511696683754 17.4594665882840019
 12.3510756927778740 29.7465462425910552 17.4100729932219380
 -8.3332199008290626 19.7944408103243852 14.0404473717710392
 -9.3603478255846344 28.4931611032188066 14.0273564685031928
 12.0749647715528639  3.8144159826489239 17.3827536373510334
 -9.3462255261142939 28.4934549821690517 17.3861738578312490
 12.0841941681839913  3.8356148394193430 14.0237438428139640
 13.9297434603910393  6.5609644919719434 17.4175282000496949
 13.9592602970254482  6.5932230015276012 14.0610336488498096
 -11.2360385593925116 25.7593186968633390 14.0279724163886197
 -11.2256095572740495 25.7470637518692342 17.3876110575107958
 15.8047310317622269  9.3098733109574390 17.4597701035415760
 15.8360838606663616  9.3305430905661666 14.1052964832221246
 -4.1572772517062466 30.9843771222903790 14.0207183391036931
 17.6954177148974985 12.0599107499449083 17.4783010356502437
 17.7132074829321304 12.0500205981131092 14.1244569927313446
 19.5863414752003600 14.8063174690620318 17.4597701037343178
 19.5885656163076725 14.7688302351454439 14.1052964815273576
 -6.0249335047342250 28.2473046089713478 14.0354207048789394
 21.4629840587272653 17.5441268688660017 17.4199170733641537
 21.4574892322877027 17.5020831265518737 14.0630412910352298
 -6.0413346730504172 28.2674506619651780 17.3933494763336682
 23.3239005166759057 20.2758243716021518 17.3874952109448060
 23.3178569066582675 20.2547659849542505 14.0282214988884775
 -7.9012415625074324 25.5181216058783917 14.0403997301268753
 -13.0957049661271796 23.0078544621209637 17.3803697905541910
 -13.1018491201988549 23.0132130321934802 14.0184610060526680
 -7.9208855595575116 25.5208090837236057 17.3985980960368671
 10.2076843083869342  1.0705660485076531 14.0198947043704774
  6.9309445551496118  1.3139913306620077 17.4164702121543478
 10.2271736233291612  1.0687027704832359 17.3787440883611985
 -7.4743956131844786 31.2387566167356567 17.3728129928034747
 28.0664857561198282 17.0291982612758268 14.0295705160904394
 -17.4259923912757522 31.9820614123144686 14.1244880970707136
 -17.4071970909546785 31.9721102037705975 17.4783428927419600
 13.5199403132979032  0.8286543043775561 17.3694646428557355
 13.5248443856308196  0.8363208805914745 14.0081535896218874
 15.3733104089411103  3.5634804819961272 17.3960747836452470
 -14.1271537973139516 31.7198772332465282 14.0877168785101539
 15.3892560878597529  3.5950471161251270 14.0386144438960940
 -14.0844631807744260 31.7129779682495716 17.4431635523846609
 17.2413867247527577  6.3016860742985532 17.4428477805402764
 17.2553415847670273  6.3400427027528989 14.0872816851319929
 19.1286509009708183  9.0454886585266667 17.4783010359905724
 -10.8119901080878407 31.4714925745538459 14.0397733400197762
 19.1283211397463937  9.0658401248778340 14.1244569975476484
 -10.7745132439697198 31.4695908620021818 17.3974510820096917
 21.0226004175660961 11.7939160531218796 17.4783010351405252
 21.0051404111092275 11.7834547384797741 14.1244569953535830
 -12.6913211275536977 28.7393061916358796 14.0527701600623001
 22.9065836847647439 14.5406173409570396 17.4443504204056410
 22.8841200152226705 14.5094860683992604 14.0888258410465372
 -12.6545795557043128 28.7223876534982168 17.4100729928493756
 24.7710742719457784 17.2842847108070004 17.4026027705981114
 24.7595200724604219 17.2571755563059099 14.0448679452826770
 -7.4839618528338372 31.2314198542704844 14.0123199425549068
 26.6222605622112134 20.0265587163921488 17.3825424071424663
 26.6298278310461640 20.0205627233294550 14.0214835834018938
  6.8933378129456608  1.3051309769361819 14.0597365281399167
 -4.1714773964129481 31.0055094188710925 17.3793618927481432
 20.0123957222587272 20.5058726108804059 14.0341246028824109
 14.3747129902622657 12.3181374741528682 17.4443504193951568
 -6.4555707074005007 22.5387496989433380 14.0664412633126101
 18.1563886618285331 17.7628671653624863 14.0610336487707173
 21.8703304279024060 23.2531767796624820 17.3891690391186380
 10.6557443665537619  6.8290695426209398 14.0341246036827911
 14.4129052977459651 12.3142490032122929 14.0888258415657273
 -0.8452343096155551 30.7264758697083629 14.0381802642442626
 -4.5775687356702504 25.2646866671127235 14.0779943764620192
 -6.4946083824551426 22.5330495066043639 17.4232583853926108
 21.8587051231449649 23.2589197440326174 14.0298210956387130
 -2.7271368079298379 28.0267074410045929 17.4196790124500964
 10.6353197584991719  6.8144357226145322 17.3930540139871859
 -0.8560045640854839 30.7577987631067309 17.3963655554171552
 -2.7055178642896376 27.9893434313528928 14.0629367729905450
 12.4953972492183123  9.5661887631027458 17.4199170731925221
 12.5345556129941720  9.5824519732945213 14.0630412894275434
 -9.7761352502788714 22.7791479703439492 14.0291271212050805
 16.2628470620529022 15.0662307615488746 17.4428477805855700
 18.1432103909685374 17.8045587487896562 17.4175281999334821
 20.0099347671484900 20.5308777501689121 17.3930540139389684
  8.7770448616549590  4.0598738557977070 14.0322454101460714
 -14.5364147655935927 25.9814745464707038 17.4022826721345787
  8.7881066533119672  4.0633736910985325 17.3909024781189956
 -14.5610353491863282 26.0058287281218092 14.0447366989956013
 16.2890874469989697 15.0349671832344765 14.0872816852731475
 -9.7956213790048690 22.7719653248867928 17.3881178100112841
 -4.6106698537151853 25.2833557213227422 17.4336346051674305
 -0.0092227345652949 20.1052441243252922 15.8040920154239330
 22.0011398351787868 18.8647796769212341  9.0002320407081147
 25.3185661701924971 19.1123982709881481  9.0212055675889786
 12.5151931690713205 12.3617550726854883  8.9796114897949639
 32.7973346163395121  8.1390462287104821  9.0114630646568887
 -14.2569639977914200 29.8078111325165871 15.7573989673509747
 -9.0658547247355976 32.3072714574771354 15.6972313592655173
 11.0826004808393908  9.3719189322791401  9.0002320394454234
  1.8751822171247901 22.8387062768540439 15.8040920153912303
 27.1940260951807637 16.3724673693719218  9.0082067527255631
 26.6245412651467674  1.9106618419454484  9.0278804304853093
  9.6437889670805266  6.3922706649958814  9.0129071662381843
 -2.8636470719777742 26.0984847324073996 15.7655494799056353
 -8.0594349895350206 23.6101725355717242 15.7219461116289807
 15.3805668595247003 18.3541302394768699  8.9951292615395246
 23.8741175404495536 16.1291999458681623  8.9796114897585184
 36.5367115561896938  2.6512986353598569  8.9262327972512736
 10.7885491052493165 30.8380324749691432 15.7180248549692063
  0.8746811572118709 31.5675682288835127 15.7113918502732144
  3.4538563913300591  0.1811830033083756  8.9262327995949118
 21.0136014499363810 10.1438498698115023  8.9127514116600608
 -9.9300718534391201 20.8638039247477991 15.7049925449924839
 33.2309002789305978  2.3937806083462765  8.9607613256001137
 -15.6850545124371266 32.8012995373071021 15.7903310673324171
 18.1477784349139242  4.1479211239388887  8.9766094897387205
 19.7320238779318835 27.3326762893159234  8.9607613256457146
 13.9444360464378470 15.3581549909977486  8.9766094909849574
 -5.6145844018708893 11.8818827248094401 15.6850037372378495
 18.2853880993099018 24.3369285172465410  8.9996089087972955
 22.4401254691203711 13.1405683242344402  8.9329761508323688
 -3.7545210418693440 14.6293209299272000 15.7153662726627346
 16.8293079103743430 21.3459548225501230  9.0116039785970017
 -12.3764080405312580 32.5477950106639042 15.7413031607617864
 29.9280987921270558  2.1484827474880168  9.0047186600310969
 -0.9880533828352724 28.8320841192262485 15.7384982785085725
 16.6966790483881766  1.1559051312552864  9.0103922416640714
 -1.8879042309899439 17.3700819840920531 15.7655494811635180
 31.3598244935618489  5.1444778296208131  8.9996089091524638
 34.6612866975461102  5.3912441920984016  8.9722555062827887
 -6.1808362994310784 26.3489201650921743 15.7284057027080078
  6.7644312770882831  0.4353757957862043  8.9722555071027035
  3.7560765147216917 25.5768572783707668 15.7670916581447997
 -7.6237315282353517 29.3269962261200909 15.6981521634522476
 -8.4934335882855141 17.8730274486144580 15.7113918499258869
 14.3941731582105650  9.6183413832046085  8.9508182919443371
 -3.3178076672711994 20.3692703768832857 15.7840350651722883
 26.1974979231037928  7.6603761385188704  8.9867541446312469
 22.8937342769078178  7.4073116913269645  8.9508182889162935
 12.9614515746173193  6.6306659140458315  8.9867541439628607
 19.1289164307012385 12.8771505070977010  8.9127514024407741
 27.6309798200323407 10.6515259553509818  8.9951292626165742
 -1.4342679230711946 23.1039177595342338 15.8040920142770176
 11.5197557358463776  3.6523935290871559  9.0116039783717170
 -9.5012083220067964 26.5864158408997362 15.7064962061405939
 -2.4381157907261799 31.8227239353580984 15.7005020178822097
 21.4573583214256729  4.4083604444476974  8.9796114901561168
 10.0760736860844435  0.6757046310902348  9.0114630645253815
 29.0711661033235345 13.6325584116371790  9.0103922412495976
  4.1830886938247192 31.3163452228545758 15.7049925450078529
  0.4486779858475271 25.8372232350235187 15.7840350622171890
 20.5587615978894576 15.8736623880320167  8.9508182884845038
 23.4535965098059833 21.8529609402736789  9.0278804315770298
 -11.3736985973684472 23.8451754663788584 15.6992492269833406
  2.3222393105367636 28.5738115968461130 15.7408104941949922
 20.0080798142898963  1.4116015863221447  9.0082067529066787
 17.7041511521912476  9.8783150843498735  8.9127514033014563
  4.8837448756101178  3.1728585628191137  8.9607613261080452
 19.5861234525483354  7.1445498168497323  8.9329761509401475
 15.8204201111710088 12.6141973192336039  8.9329761506639951
  8.2014564402642076  3.4179091150865224  8.9996089072268983
 28.0627855679961122  4.9063936633331009  9.0129071684265440
 -10.9419627427681529 29.5624811901153848 15.7155634025636761
 -4.7460233996790242 23.3637445035393725 15.7670916575182201
 25.7544545516523229 13.3932393454681282  8.9766094893835007
  5.6261952469233547 28.3231418731511546 15.7219461114496593
 29.4976053866256933  7.9009671100401304  9.0116039784105446
 14.8351223539210615  3.8936592664083687  8.9951292623784695
 21.5958588006711310 24.5950152291949529  9.0047186599005009
 -12.8185710687930925 26.8234568189954601 15.7180248547942440
  7.4868455590864116 31.0758768864367951 15.6992492270996706
 30.9389875098727778 10.8881221183623218  9.0205100489959502
 20.1400944975444460 21.6006511327018131  9.0129071662367899
 -6.6245433691797810 20.6235278999433369 15.7408104950665102
 16.2754797188279987  6.8823085241079234  8.9493759636821544
 18.6877195348511300 18.6082734089150783  8.9867541445317105
 24.3225549581645737 10.4045873936344631  8.9493759647059914
 -7.0580064397944930 14.8764832819035124 15.7005020176686649
 23.3186595422373806  1.6658320741453827  9.0212055678095169
 -4.3039073650526651 29.0854028358209682 15.7153662726095131
 17.2486343574887080 15.6124195427193779  8.9493759638226216
 -5.7532269654994241 32.0699840611347966 15.6850037375342453
 -5.1930675899651195 17.6275940710648023 15.7384982777582874
 24.7629287183491016  4.6626168520402889  9.0002320405216523
 13.3860167968703525  0.9105424899615897  9.0205100483653542
  2.5916293467732441 11.6334721728427475  9.0189534452949651
  6.3227114400684687  6.1558174856964074  9.0047186592329425
 14.6903284819477502 16.1291999448177172 15.7374941187432036
 -10.0714636885245969 25.0873997616907580  9.0189534455714924
 -8.6367898503035914 28.0836325522097496  9.0106094023630572
 12.8099914700677822 13.3932393453526597 15.7404961210089773
 -7.1990511858263719 31.0758768866354949  9.0178563815554238
 10.9334662027214637 10.6515259545159839 15.7219763471873613
 -13.3735193470492906 24.8461774687910939  9.0198742499791376
 -11.9345152568942243 27.8433298076777227  9.0015422058002130
  9.0668406352394619  7.9009671099208001 15.7055016295826828
 -10.5007547326983790 30.8380324751698041  8.9990807541117324
  7.2046215274187144  5.1444778291605813 15.7174967000710257
 -15.2370955115000495 27.5929389662686191  8.9758024474369495
 -13.8044778469030103 30.5915401355619494  8.9597066402565311
  5.3335457415719985  2.3937806086761606 15.7563442820678876
 -17.1109601086445267 30.3315585986439018  8.9267745415086583
 23.5911852918113176 24.0845646012337227 15.7056425459504627
 -18.9944286377509428 33.0654736202237132  8.9053616019918636
 -11.5117085541076420 22.0960013748933228  9.0321018725463098
 16.5633061871489140 18.8647796763748126 15.7168735696557054
 -3.8952943204217174 31.3163452227453689  9.0121130652661119
 -5.3384008735925885 28.3231418735058611  8.9951594972274833
  9.4932799185221732 13.6325584102038206 15.7067133680539666
  2.7259101639823622 31.8227239355438911  9.0166035911084155
  7.6254585122855119 10.8881221184665957 15.6965955600908025
 -7.7626496193040300 16.6072724826414451  9.0057137574338970
 -6.3250181587225267 19.5881899699798190  8.9786073310552812
  5.7671114050644583  8.1390462291628367 15.7056425444773335
 -4.8954484907096276 22.5793014463849175  8.9515561282424194
  3.9031593241008071  5.3912441919524383 15.7448501005565173
 35.1105896319174136  0.1811830038301766 15.7908728135956249
 -3.4682821429402027 25.5768572784405137  8.9500139532873355
  2.0277344662970824  2.6512986351062637 15.7908728153564137
 -0.5868867826956500 31.5675682285187733  9.0057137569563395
 22.1434949644097117 27.0726954720343045 15.7448501000404306
 -9.6400194166770916 19.3486609442925399  9.0166035909423350
 -8.2023255924320075 22.3331443956990192  9.0017393359331273
 20.2790579227894021 24.3369285174533516 15.7174966994510719
 -6.7709265507569256 25.3268538693004324  8.9886999063669233
 18.4243515244205298 21.6006511327479984 15.7041984408295541
 -2.0344449361371910 28.5738115970818782  8.9762951123543413
  1.2758477558396915 28.8320841188282664  8.9786073302714495
 21.7351381119043765 21.3459548224274798 15.7055016302083601
 19.8767264858033528 18.6082734091146627 15.7303514642825597
 21.3158116635066115 15.6124195425882739 15.7677296437791856
 20.4166675874546542  4.1479211237945872 15.7404961194980384
 19.4355295915154862 12.8771505072880803 15.8043542039934177
 22.2889663035894614  6.8823085234394794 15.7677296446162014
 24.1702728643796583  9.6183413832974374 15.7662873216040165
 17.5508445728228537 10.1438498694938346 15.8043542048116397
 26.0492528528002261 12.3617550716319791 15.7374941191434008
 15.6707117454424729  7.4073116906952459 15.7662873219245245
 27.9198828979223208 15.1152465069209807 15.7088988558373490
 15.2457864789450657  1.6658320738910124 15.6959000416713561
 13.8015173046581747  4.6626168520416460 15.7168735698969790
 17.1070877004421504  4.4083604449036615 15.7374941175746486
 11.9399047568076959  1.9106618420728221 15.6892251765807504
 18.9783225689174415  7.1445498158616108 15.7841294571702129
 20.8602948702051201  9.8783150848381585 15.8043541986161209
 26.4856221398417730 18.1108519191241655 15.7067133666412957
 22.7440259116459806 12.6141973198981052 15.7841294570027895
 18.5563662077215312  1.4116015852663180 15.7088988558532172
 29.3550027019013697 12.1210851170455989 15.6959000414508090
 23.1838791621740192 18.3541302393952392 15.7219763474620624
 27.4818455414270097  9.3719189325676400 15.7168735693714154
 33.6807011467433384  3.1728585626615713 15.7563442822578406
 28.4883723361769867  0.6757046309910432 15.7056425440592555
 18.0056844243276082 15.8736623872940559 15.7662873216467094
 30.3629895820937037  3.4179091147800760 15.7174967015332037
 16.1243205526126694 13.1405683260768971 15.7841294575149895
 32.2417345820623282  6.1558174851885523 15.7123869480289624
 25.1784292251968580  0.9105424893393846 15.6965955598260187
 14.2418910642431094 10.4045873942818918 15.7677296447811841
 31.8000147446779984  0.4353757960208000 15.7448501005806367
 27.0446902862634602  3.6523935287828273 15.7055016298105343
 28.9206570547763562  6.3922706649775387 15.7041984409629478
 30.7959147637080015  9.1356926786360297 15.6892251770876392
 10.5016604540200387  4.9063936636708814 15.7041984407854223
 21.8677669736117615  1.1559051310258048 15.7067133682000755
  8.6363472299708253  2.1484827472631087 15.7123869493326023
 23.7293236685931888  3.8936592659771523 15.7219763474620553
 25.6029944471540851  6.6306659132745382 15.7303514638018598
 25.0427812957218379 21.1006508534333292 15.6965955598608904
 12.3669480989248193  7.6603761388863658 15.7303514638866559
  8.9245842238040183 28.0836325524996049 15.7064962061590823
 -0.1608836127974292 25.8372232350457729  8.9330705460249042
 -1.5873878442166132 22.8387062769640252  8.9130135964773434
  8.7812279625331264 17.8730274486207961  9.0057137573512502
 10.3592580613132981 25.0873997615246083 15.6981521632963830
 10.2178662256721022 20.8638039254095915  9.0121130650927519
 11.6614929703754893 23.8451754662773467  9.0178563815554238
  8.4901199663635367 22.3331443951501143 15.7153662730803383
 13.1063654417659556 26.8234568190485696  8.9990807539875828
  6.6128125321950817 19.5881899710326977 15.7384982775703453
 14.5447583710368900 29.8078111330345230  8.9597066402449510
 15.9728488857715103 32.8012995365405899  8.9267745411599826
  4.7339956197404947 16.8505286641108043 15.7408104940296631
 -0.3085889637596136  5.6485168917169783  8.9597066402522110
  2.8649313023618062 14.1145537523095239 15.7219461113537644
  1.1364496992419646  8.6420571641794375  9.0015422060112922
 24.6200099760696531 15.3581549910880870 15.7404961212003105
  1.0083156579389168 11.3778197678157884 15.7064962066737390
  4.0423154145915348 14.6293209298586397  9.0017393357663842
 -0.8486553263289311  8.6420571636464114 15.7155634022300355
 12.2223096285768840 27.8433298074668620 15.7155634027481437
  7.3458008125852237 14.8764832817092092  9.0166035909448308
  5.9023787752542480 11.8818827250979293  9.0321018723436328
 14.0922722197454391 30.5915401356057011 15.7573989684142184
  7.7685312585166715  9.1356926787828527  9.0278804303071620
  7.0587209235520554 25.3268538693875342 15.7284057006404865
  9.2094433202745218 12.1210851168802911  9.0212055696199300
  5.1832428640267718 22.5793014459852373 15.7655494798727656
 10.6445631238470551 15.1152465066772734  9.0082067529065739
 12.0788238818635456 18.1108519193594795  9.0103922421330349
  3.3008212407662820 19.8413745486687496 15.7840350658082258
 13.5216647265461347 21.1006508533971200  9.0205100490176751
  5.4808619628497528 17.6275940708048964  8.9786073297762812
  1.4216384437119778 17.1072663795919730 15.7670916586049614
 16.4209510576467892 27.0726954728247797  8.9722555071076773
 -0.4461930647189134 14.3720941274664913 15.7284057018028527
 17.8561010863031839 30.0668338212534074  8.9262327971344870
 -2.3038349735982888 11.6334721730267052 15.6981521632415753
  1.5698027824160190  2.9150100245460622  8.9267745427337601
  3.0045846575113790  5.9071341852090882  8.9758024476250782
 -4.1637674361998096  8.8944192347218429 15.6972313585653271
  4.4515618095045371  8.8944192339611572  9.0198742487217896
 14.9732607304787635 24.0845646023233790  9.0114630647618164
 11.3704199264821177 16.3724673690729183 15.7088988556636338
  6.9123377424643886 20.6235279002080745  8.9762951125065058
  8.3472293635519446 23.6101725359188990  8.9951594951614169
 -2.5771369292334256 14.1145537524175175  8.9951594987112689
  0.5963833377914917  5.6485168922995479 15.7573989689387801
 -1.1338440704001735 17.1072663776731098  8.9500139512278931
 -1.2820084087398265  2.9150100259877281 15.7903310669105910
  0.2970171077583879 20.1052441244424180  8.9130135962178283
  1.7220622965700390 23.1039177605290682  8.9130135992166934
 20.7083449360520326 30.0668338229577294 15.7908728161110634
  3.1514414456211437 26.0984847313003776  8.9515561285862972
 18.8324221429820042 27.3326762901235583 15.7563442825148154
  4.5917017382942129 29.0854028345381366  9.0017393353305231
  6.0410213388609861 32.0699840613005520  9.0321018695426378
 16.9685872202778825 24.5950152290441082 15.7123869494876764
 -5.8908803446499309 13.8677190126344225  9.0121130640150060
 15.1108495123963014 21.8529609404479110 15.6892251763608659
 -4.4462012463352396 16.8505286662366984  8.9762951125925365
 -3.0130268677198107 19.8413745478788393  8.9330705458716100
 13.2458798519107681 19.1123982712533511 15.6959000419000620
 -4.0307502248441685 11.1268158080173496  9.0178563815513790
  2.4617135225504625  8.3863788669271884 15.7180248548249946
  9.3536490980078728 32.3072714573814039  9.0198742489274206
  4.3185445980641006 11.1268158075569943 15.6992492268348691
 17.3987544820241204 30.3315585981213403 15.7903310666309711
  9.7890026948460651 26.5864158409881171  9.0106094028976464
 11.2297571158245990 29.5624811892746742  9.0015422064361204
 15.5248898846199097 27.5929389659239810 15.7413031605139224
 12.6642024139825047 32.5477950110574739  8.9758024474516453
 13.6613137198751726 24.8461774690486834 15.6972313587692547
 -2.1739191502720132  8.3863788661592462  8.9990807540146065
 -0.7205212846185175 11.3778197678256987  9.0106094021188685
 -2.7167902835397939  5.9071341844813086 15.7413031632714375
 11.7995029279229442 22.0960013750766109 15.6850037367224893
  9.9278137899107328 19.3486609439336306 15.7005020181952588
  2.1756986051949312 17.3700819837126090  8.9515561273795718
  3.6056020400620472 20.3692703775423531  8.9330705429409143
  8.0504439922847055 16.6072724833206316 15.7113918514722037
  5.0338177730962563 23.3637445025090997  8.9500139519354818
  6.1786747183841983 13.8677190127200625 15.7049925451201950
  6.4686306728952623 26.3489201656997345  8.9886999070501759
  7.9115259015128006 29.3269962261662194  9.0189534453061366
  0.7339874386945231 14.3720941266466866  8.9886999068136841
 -18.9944286377515006 33.0654736202240684 15.8117440088665973
