Mo S  Se W 
 1.0000000000000000
    71.7957537719842946    0.0000000000000000    0.0000000000000000
   -30.2364411639580197   65.3462645662669246    0.0000000000000000
     0.0000000000000000    0.0000000000000000   24.4856654507443388
 Mo  S   Se  W  
 533 1066 986 493
Cartesian
 30.4308096724622317 65.2100830322006715  7.9450331204877900
 19.4197295062616746 58.8485377422348321  8.8095611688350957
 35.8728360030401419 23.8416201049970446  9.6708046898104421
 24.7474932058740009 17.4811266404959333  9.4551990026241519
 11.1154921027826106 57.2823768189830389  9.2560757711404928
 19.4256642620217193 55.6706336755193760  8.8582515831392374
 24.7723023606649413 20.6708520764618164  9.4668263779250221
 44.2065151568977797 31.8158587563800133  9.3294295398902651
 35.8490785823499678 20.6431739306703257  9.7138961378734159
 24.7969324246337841 23.8593662681889498  9.4532551596885881
 19.4259023672028128 52.4918856254033344  8.9336968881001404
 13.7569628425738575 30.1931207233163441  9.3515793750338254
 24.8211571145242331 27.0468027765100238  9.4155488425320950
 11.1071977009503158 60.4627504021744642  9.2233995078463771
 19.4183240108784574 49.3113554753700001  9.0181662336145241
 24.8446892895003515 30.2336482753344349  9.3555048456368226
 35.8263580128687309 17.4453780062458499  9.7180607753832629
  0.0280221026252787 54.1460714382145127  9.3931454124765921
 24.8669919017450454 33.4186719051383392  9.2747701116188725
 19.4042744703244985 46.1296841167212932  9.0990381566089393
 33.0046900863517720  6.2882404629366970  9.4861684579261798
 24.8875889780422774 36.6013315398107792  9.1751068649368666
 35.8059905127029907 14.2495829946153414  9.6867201202365596
 19.3868032140647415 42.9471633658767971  9.1711007624565344
 -8.3715250881281875 20.5864113153451775  8.9445482050227483
 11.0979862809489429 63.6432654608134385  9.2303128667468428
 -8.3633182029412918 23.7896674849528189  9.0994346978933009
 19.3664838919232665 39.7637539963225706  9.2314992216207354
 35.7896324819721343 11.0566803747517390  9.6248676620615008
 -8.3540784113451920 26.9940436150135064  9.2286288369316729
 24.7250672656572235 14.2913156975646594  9.4187196375453013
  0.0232942741239857 57.3287646543620895  9.3232647156488451
 24.7062676071213438 11.1023121678807897  9.3593768888895958
 19.4103102882078566 62.0258912174909867  8.8018087604302213
 49.6665827974290153 18.9859520844626992  9.4004228729432402
  0.0054681811913420 63.6902272419872801  9.2853787878712026
 -5.5305702982940099 44.6038931611512197  9.4874188619681625
 35.9721117857831487 39.8140654832842742  8.8911956312286176
 49.6542826739731780 15.7858120388225576  9.3489247826068596
 -5.5198977087128434 47.7966227973164308  9.4134838530894669
 11.1072260560369962 47.7309514422020982  9.4595968863265512
 -5.5138465755145365 50.9846937264898656  9.3185591143822375
 49.6424283985252544 12.5904935484286895  9.2637929056207966
 35.9581263942838305 36.6254912468411860  9.1136824599897892
 -5.5133481056009588 54.1691922951551348  9.2216268807990875
 33.0052197451875671  3.1051025038121689  9.4034132977078784
 49.6339681774840642  9.4010092614262941  9.1519734349924757
 -5.5182693806201675 57.3514811583261448  9.1424989747479390
  0.0268921202205243 50.9611997290935648  9.4784441792126017
 11.1178156401675849 50.9175155501132508  9.3931116787838356
 -5.5268686821209707 60.5323815858171770  9.0960984824621942
 49.6302227509646414  6.2167630080224692  9.0303671072917542
  0.0148146646141632 60.5096262759760677  9.2845075402442987
 -5.5367398540252477 63.7127203165233524  9.0908421808903555
 13.7342503217497356 27.0088032866213759  9.2785576387478663
 49.6319686879381976  3.0362161630727371  8.9204973183423721
 24.6918118561495064  1.5475879762024793  9.1274137110040741
 35.9189633962347088 30.2372422566299974  9.4655134199646991
 11.1202232694587480 54.1012442029400802  9.3185668489847426
 24.6890086653849679  4.7306982432437135  9.1972355937085783
 19.4015708689777249 65.2035859412871872  8.8402441111600876
 30.4399041136374926 62.0342378190932635  7.8948405298547932
 24.6931108862682720  7.9153353404012323  9.2816453650721087
 35.8963202976202780 27.0397427377800383  9.5876321825993553
 35.9401033946084496 33.4330439564147142  9.3064900387171079
 19.3453055994466503 36.5807307740269039  9.2778110490482089
 -8.3431957174212474 30.1991267232005569  9.3300927526016366
 41.3268835127759502  1.4774225617651533  9.2779123473957803
  5.5706587246293893 57.3057166688880955  9.3630887628116959
 44.1920282326836471 28.6121593959206137  9.4531780047949709
 21.9230077278512603  6.3300787403919170  9.0881682424469705
 52.4177683898938724 17.3793003585175825  9.2472795958437661
 41.3484411663291596 14.2228977928149298  9.6224671241325819
 21.9316690430848880  9.5153111177668244  9.1733252737776425
  5.5749580663387794 54.1230325156416328  9.4280153224847254
 52.4078919550194442 14.1805038124736615  9.1629391941622753
 21.9472779287846578 12.7014491741377551  9.2480951058033209
 -0.0103370414277033 41.3851579137606009  9.6417804088953787
 21.9675718160100644 15.8880455428068483  9.3069301029825358
 52.3992683981514347 10.9875901832171898  9.0487224811662408
  5.5727321623092214 50.9377292339175511  9.5069784786287208
 21.9907876497966726 19.0750333339801621  9.3475745496847455
 21.9222548478451777  3.1471871430716134  9.0078906591497407
 41.3665532037459798 17.4187877360867773  9.6620972113396633
 22.0143461835156451 22.2613617779537982  9.3681737230919850
 13.8268759448379885 39.7545799624706362  9.4339303311861258
  5.5639949248263196 47.7496356677010070  9.5790018211124259
 22.0382170875783778 25.4470391858961769  9.3681766496482002
 52.3936684462405253  4.6198595392576083  8.7860593121107531
 33.0251854611612927 12.6652986661285478  9.6430081956286315
 22.0614804731887340 28.6317718242832910  9.3481236550185898
 41.3861246060898296 20.6174688061513258  9.6645229725892889
 52.3975207627902861  1.4416652114591419  8.6797012436238568
 22.0843316397691112 31.8158204452260627  9.3094231543416601
  5.5489481804109397 44.5577317177081156  9.6279687940271064
 30.3849213378498320 30.2441813323732127  9.4274691625346669
 -11.1075685660609000 25.3908236168675145  9.1808509151835302
 22.1689118598437602 63.6113801809593724  8.6129629245738588
 52.3940590435269939  7.8012131292613986  8.9160327201706533
 -5.5435218805366366 41.4064767510455241  9.5284643684205417
 52.4274628775548166 20.5823920857351865  9.3005518664701317
 -8.3086752211847923 65.3120283249297842  8.9538267159712834
 35.7799234228440639  7.8681673085700812  9.5406051245612247
 -8.3320261564057621 33.4050842586176771  9.4023963317217358
 19.3231121467625826 33.3972169322122596  9.3084564789654145
 13.7800062648036974 33.3787522075596144  9.4021744702582914
 -8.3213176458879961 36.6103628005860671  9.4423436451078278
 52.4782002373793546 39.8226769414013688  9.0414311094952886
 -8.3102703240569191 39.8137659144207419  9.4470934283150232
 35.7771763272963028  4.6832938185357733  9.4505438124395997
 41.3236279721969311  4.6587549311553902  9.3584158444874141
 -8.2995261459325214 43.0148220200467861  9.4150010651628548
 52.4717426455381641 36.6177757912551058  9.1485988639888518
 33.2031959126184049 38.2172923824459616  9.0200731394489697
 -8.2901487209478439 46.2112438030538115  9.3471901443483816
 35.7807674483555331  1.5010253719615625  9.3759021281175752
  0.0063095941554551 44.5809025528828471  9.6165362892457775
 52.4638991524641582 33.4111564736720510  9.2324011772895513
  0.0192212079458084 47.7730590380066076  9.5588386903607869
 41.3257250607533706  7.8426902570837385  9.4562121053209474
 -8.2803367459030230 52.5880200150616304  9.1423283544671907
 52.4551481301248472 30.2034474668790587  9.2907171162991453
  5.5525990250817943 63.6665296363164259  9.3324449467568744
 -8.2828098413046867 55.7705179013765857  9.0429069378823765
 33.0112815220468860  9.4745094498159634  9.5724070704170732
 52.4459641223746473 26.9957331276910431  9.3217394623521663
 -8.2899020916237554 58.9513206014447775  8.9715102740178541
 13.8041105811699705 36.5664706908794130  9.4293755737841636
  5.5622692981433524 60.4863415649011174  9.3283293713495521
 -8.2997146763310408 62.1315145719330530  8.9402504668509923
 52.4368654265240082 23.7885362337913193  9.3249131067967763
 41.3345508128621546 11.0307514945888911  9.5504319205058952
 -8.2828764266199641 49.4020825496297675  9.2510071580930511
 13.7129056822441857 23.8255716681816665  9.1851198022003029
 35.9808133260659559 42.9983437347299216  8.6452742204018502
 -5.5568472380743170 38.2053768061927173  9.5308313225186474
 -2.8500021170533256 26.9900073752665470  9.2628771181909180
 30.3106537989178193 20.6632382778735639  9.6423497038361674
 46.8655953829963181  7.8182801216070361  9.2416123172620814
 -2.8350671521689281 30.1915233785884354  9.4027538174423260
  2.7060356103005181 33.3797341707862998  9.5491751280256132
 -2.8191280818173832 33.3943022301008199  9.5077792325348316
 46.8641136397702383  4.6350374921841775  9.1322090005237815
 44.2258014980251062 57.3354180814266670  7.6395103051848325
 -2.8027810024924324 36.5962664991881539  9.5743223272347731
 46.9877929059959101 43.0169947188408486  8.7213838359715989
 46.8676897880800780  1.4547996747263270  9.0421429152991948
 -2.7861201539124987 39.7968384169870433  9.6000435930930692
  2.6851446129563104 30.1821146115788643  9.4394180513198727
 30.2860940249899322 17.4678611974519633  9.6460343865585774
  2.7277685222075725 36.5777376843776096  9.6214540701107580
 -2.7703873308381164 42.9947775200731286  9.5859143582913919
 10.9158881486179098 19.0407565547106934  8.9306706542806182
 -2.7567921349637841 46.1890915306592191  9.5361603939247566
  2.6654985543398242 26.9859889973628775  9.2937636536451507
 16.6487390490540470 60.4432310960951185  8.9743855752284372
 -2.7471052433277316 49.3794372861135358  9.4584590859912208
  2.7929090519843669 58.9076485681495825  9.3383786742086361
 -2.7431517175171916 52.5658334058209959  9.3676025796210478
 16.6566100661746930 57.2643786108935302  9.0046856665650701
  2.6486947325605628 23.7923993519081698  9.1149398085297708
 -2.7453654771710720 55.7491087665504637  9.2835990296565409
 10.9329521062704114 22.2228044332639598  9.0823012016239115
 16.6599653351837382 54.0850864668669757  9.0670111860173073
 -2.7522842470548250 58.9305549235403063  9.2244328343949196
 30.2640560578890714 14.2734546820764674  9.6176303530195639
 16.6391200203533387 63.6221840728721446  8.9866779755039552
  2.6347488888015653 20.6023508472883634  8.9062132453484075
 46.8724576561547863 11.0054177338612718  9.3501564625330111
 44.2334652975924598 54.1568069066474607  7.8185225811140580
  2.8010388064681160 52.5425765622896392  9.4689004528680023
 46.9650122504609939 33.4137483614201543  9.2353494380265566
 30.4074779355859626 33.4334091443413115  9.2921396334342461
 44.2407701231668540 44.6075573979903055  8.5437392334917721
 30.3609108005677761 27.0520508590156901  9.5323193022531125
 30.4275550501963146 36.6191298463539923  9.1301689245979301
 46.9534244334742894 30.2091018897290482  9.3543007178522455
  2.7962162470867811 49.3557348345015185  9.5503753079074389
 30.4450185158820297 39.8021675876767489  8.9469336728546018
 46.9412471477908824 27.0036481069635634  9.4428603844014258
 30.4578913148633248 42.9828367609692776  8.7487537310912504
 44.2410039267650461 47.7944910460157146  8.2935273889004044
  2.7849575965298516 46.1654876201081734  9.6159893280528426
 30.4657546156306012 46.1601400924462482  8.5423122710152946
 -2.8626061178974194 23.7905429939900763  9.0914909161835595
 46.9280747104747888 23.7982809744831343  9.4976096831202810
 -2.8872039030968577  7.8508982836985179  7.9065425137407361
 30.3355464495164426 23.8580431634790067  9.6045452579988009
 46.9139692655921650 20.5948369146698020  9.5153931096194455
 -2.8882117088359043 11.0297903577018079  8.1559751054103362
  2.7685637469695261 42.9719440277151392  9.6529994874927603
 44.2383944327513916 50.9770592022282258  8.0443800193274395
 -2.8860490189646621 14.2126988896456332  8.4151543669980509
 46.8988652299763160 17.3942079783131724  9.4948941781538814
 46.9829242439474370 39.8189620040120005  8.9170877456089936
 -2.8809670511160297 17.4003899666714261  8.6643295079575608
  2.7489056383660042 39.7756239654996833  9.6557271680495340
 46.8842118926615399 14.1974968028227533  9.4382560665537678
 -2.8727366010839948 20.5933739768875519  8.8913034806198414
 44.2371303964035008 41.4154611291901205  8.7779727924114539
  2.7991417781413772 55.7260032325293011  9.3918100078964404
 -11.0982522329516993 28.5979295774983875  9.2668265957199996
 -2.7616373244911845 62.1116076230109542  9.2018925775654274
 46.9892880062422122 46.2094012125452025  8.5040295121721865
 11.0219086243724202 34.9687054873686023  9.4860780711761059
 27.6678871799472681 38.2027680021893943  9.0727779766911034
 49.7332306066142920 41.4215643580080908  8.8895367498459681
 27.6846152190694745 41.3830522856630054  8.9148517288029190
 35.9684938487774630 55.7032441359204782  7.7002411008859726
 30.2314375815839291  4.7087712875464849  9.3975643504780315
 -5.6370737540770390 12.6092177463465962  8.3505324219027095
 49.7274979306908733 38.2196137442251000  9.0421578772887834
 11.0454894846348388 38.1589440279653260  9.5203093907366831
 -5.6327960442867928 15.7975836648861279  8.5880265016761932
 35.9780442173974677 52.5285691607185470  7.8926724975541145
 49.7195823199467952 35.0147803310924601  9.1710324910330119
 -5.6267117907230473 18.9915696701397856  8.8069752253076317
 46.9856448243701763 52.5795353516656192  8.0540431997576469
 49.7368993251858811 44.6196125408214286  8.7147176350435966
  2.7745977403975330 65.2696165404921658  9.3441545057859159
 49.7101050261141850 31.8087186790562839  9.2750601129720049
 35.9836244981252804 49.3541184049857407  8.1290874816253034
 -5.6086646370975508 25.3906843301900444  9.1689304126251621
 11.0691186465078406 41.3503493346261664  9.5264245930964719
 49.7000113205471692 28.6020148370433809  9.3518962901041700
 -5.5964860752843331 28.5944192383693370  9.3081281660814685
 30.2347467486370469  1.5258179409062940  9.3258978400239094
 35.9847329964612044 46.1778755652887938  8.3863349082222296
 -5.5839203750264970 31.7984399573863676  9.4172469636452494
 49.6894512347734221 25.3950787858152367  9.3998728996706813
 44.2193982433913675 35.0180889754711728  9.1733276388396909
 -5.5706560100680660 35.0021496537473169  9.4929246389598436
 11.0904088130819662 44.5415559715628504  9.5055348831947946
 49.6785241153152342 22.1893953026587916  9.4168553663480488
 -5.6192136331578908 22.1893510874655249  9.0011972698809437
 16.6565582093798632 50.9043245865803939  9.1428458260320706
 27.6485014286987578 35.0198459572931640  9.2155870874210795
 27.6268378407047841 31.8342397582498116  9.3380466693009296
 -2.7707878552857119 65.2928935054343214  9.2205480042411700
 10.9528229130638977 25.4065850875788719  9.2179522538119656
 16.6450379074431005 47.7205687518604549  9.2146032740922248
 27.4596214013188344  3.1283820073040993  9.2765581674486661
  2.6245788993768122 17.4166793683153500  8.6718897721982415
 44.2299533563234348 38.2184693762839345  8.9884805522837450
 27.4603577113670809  6.3121984155162068  9.3569555683558701
 16.6277704767959733 44.5352303727215570  9.2734963217641031
 30.2458932124212403 11.0815815659532895  9.5611446353044158
 27.4685959920752154  9.4988294209390904  9.4402439128015541
  2.6185955394470319 14.2349520160578056  8.4202238901994715
 16.6075381126845301 41.3503021319974096  9.3167353721790196
 27.4842015154412529 12.6886876875707220  9.5082288796655945
 10.9743984022119125 28.5921625086559530  9.3328600777680553
  2.6260223529741276  4.7045935046232596  7.7163269654653845
  8.3423246081524081 49.3342089769338230  9.5040869311301481
 16.5855750955442041 38.1651513539538172  9.3432977352449704
  2.7838619355981389 62.0886861648233861  9.3210273903959386
 27.5288037384157818 19.0723231987565143  9.5677095530283456
  2.6170448112702007 11.0567170248671900  8.1644323465116830
 16.5627539346647090 34.9800246061968920  9.3521105734550805
 27.5542039205988409 22.2647142632982096  9.5533127391654080
 46.9885341959924219 49.3966659350049326  8.2754350963635730
 10.9975392421062654 31.7793446287827202  9.4232612729677143
 27.5793633033980647 25.4565558396149392  9.5091161408960723
 16.5401691455501663 31.7951412581240227  9.3420036941978495
  2.6193526470749617  7.8804076204787936  7.9223119942402294
 27.6032988190024682 28.6463292277751478  9.4366680258539049
 30.2348373187517474  7.8935854355816266  9.4830766429671485
 16.5172901112133417 28.6110940585250866  9.3127268059582669
 27.5048535996612635 15.8800572523146251  9.5520364594390355
  5.5291852161028769 41.3631689558605018  9.6463013877473980
 -0.0288264859552794 38.1869512703381204  9.6299389707899277
 -11.0893705046798079 31.8052243207112468  9.3263219410358449
 13.6927221331798865 20.6432561925814575  9.0746528127159625
 68.9208319315892055  1.4962247823267250  7.5304798065137204
 38.5870199780497671 15.8341794703682197  9.6926427000298059
 -19.3125892138312345 43.0242610088470343  8.9113559874294559
 44.1255934096203433 15.8074920799990313  9.5714912635936429
 68.9128893917085463  4.6738964959366918  7.6898349627050759
 -19.3099979223581961 46.2215664690365671  8.7587209373364967
 27.6822814304401916 63.6144899890279873  8.1449927913667732
  8.1943641631243374 26.9918294636223415  9.2850949944837549
 -19.3097871843536701 49.4128164691065734  8.5879439706651706
 35.9571052021592834 58.8800363656924333  7.5742431391569109
 38.5694499255371923 12.6395176179251045  9.6414049370730321
 -19.3120579701001169 52.5985438362830564  8.4139726217044721
 27.6916502605599177 60.4391748749139950  8.1269077989315974
 57.9118282022109696  1.4444816286592728  8.2249186158395187
 35.9454561624199798 62.0584279085828427  7.5305222796654316
 33.2253674776925294 50.9316738845293813  8.1030059503647553
 -19.3234444613265239 58.9603301056185316  8.1400460627996374
 35.9347609236361407 65.2369713959276680  7.5743132265749260
 27.7009746638825547 57.2640914727255677  8.1724597514033235
 -19.3318254332053812 62.1396167759787019  8.0793577956616609
 38.5572269322027381  9.4490983689937913  9.5619508575584220
 66.1628209863860377  3.0685926060913422  7.6981563928542975
 -19.3403373507411445 65.3180791810441264  8.0851727268874107
  8.2162840838455153 30.1808466113621066  9.4109310572030314
 27.7075705625838360 54.0893307220318960  8.2727742832952309
 10.8887190885351259  3.1492734091589552  8.1543104608005752
 66.1585251181179075  6.2465203337718167  7.8839170241661414
 44.0961933595948707  3.0558808507496873  9.2157355837640953
 10.8848716089152120  6.3262206095158797  8.2748644684192847
 -19.3167926405264652 55.7802233936958558  8.2576184537711423
 38.5509584956387599  6.2627383226847391  9.4677733632854437
 13.8655413616138450 65.2216731238090119  9.1462474203062527
 38.6944536341180338 63.6631897242658198  7.4491187644440542
 -16.5592741618307819 47.8210517585005448  8.8418669175969953
 38.6917759608312579 31.8285689532500271  9.3815395229348102
 22.1782608727894086 60.4345154269486073  8.5950762932248690
 -16.5595011443691895 51.0102390113892170  8.6915803280714545
 13.8740088772133987 62.0420690102030719  9.1152577876071526
 -16.5622767029484415 54.1945356298416456  8.5439523327194618
 57.9284554151227411 20.5809857954779680  9.0890201079406019
 38.6722790503403289 28.6297206095811489  9.5226497044132028
 -16.5680840857128437 57.3751128509453565  8.4200916518959339
  8.1436612746693218 17.4379229147049841  8.7700849459312611
 57.9212567254391004 17.3780181776766085  8.9765794960274512
 -16.5758901729857975 60.5539693551978573  8.3391774793005098
 -0.1318575172666520  6.2776664880228488  7.7683671829265704
 38.6512621879424074 25.4295821173208942  9.6252436269974559
 13.6744554964665461 17.4621427669090110  8.9511958785539001
 -16.5841407913514907 63.7326017543724177  8.3142551359439985
 13.6454004698307951  1.5647203620405419  8.3475902143061571
  8.1576664995387613 20.6198767543022328  8.9599782959118865
 57.9096930798338931 10.9875846223800799  8.6813629480928753
 13.6412187655901604  4.7432097476908694  8.4313849519029294
 38.6290664426719275 22.2296371024729922  9.6875079548457030
 33.1410691437190081 28.6457293113477363  9.5181438732448722
 13.6413991989428798  7.9216779549187475  8.5496184074655179
 57.9071779150853843  7.8019621798510297  8.5130098960004652
 -0.1244962641153000  3.1008320103391203  7.5793218657659889
 13.6473768409011722 11.1008702456732724  8.6833551314596509
 38.6072207263583778 19.0311989377117818  9.7093355660093401
 57.9079871153533574  4.6217718382176773  8.3538940765282526
 13.6589015702168162 14.2812639188582562  8.8193664177026481
  8.1747636882279302 23.8047411416718724  9.1332117693679766
 57.9147883235835010 14.1798733991683257  8.8397590635465750
  8.1338095206722070 14.2585975251141619  8.5679912467072281
 66.1571463280917698  9.4260873234946203  8.1086834535484975
 27.7099473571730854 50.9146891340563812  8.4129945757983808
  8.2880712235032235 39.7585225988069197  9.5992717594385937
  8.3398848444444127 58.8839126013080119  9.3070735878720861
 -24.8152035418025179 55.7598117882083884  7.8616290508310582
 63.4122859714655220 14.1936489079503918  8.5648413141970590
 60.6616177841103479 12.5891458870639283  8.5984864553702351
 -24.8223320417415820 58.9392338781194169  7.7207484491849740
 44.1105857739774194 12.6129924028015381  9.5076389277641429
 63.4174862646807966 17.3874516752294603  8.7658064081755143
 -24.8318142474606276 62.1192563525662536  7.6517615342323415
 33.2163428566677368 41.4007618237859845  8.8015083699174088
 60.6588774184635611  9.4020560828447621  8.4065145070594873
 -24.8424508638415524 65.2982487940755902  7.6658205788422826
 30.4688693346762989 49.3355259294817685  8.3383854413018490
  8.3465082237267989 55.7029924763565845  9.3570619236272190
  8.1285269603256367 11.0813605853714439  8.3621464519140609
  5.3839121855979100  3.1296401814706574  7.7599370752849381
 30.4666186534803423 52.5097866168854495  8.1534740888304533
  5.3763409280233780  6.3058958231933540  7.9212243849096371
 60.6586198552846909  6.2196713154708032  8.2197841836020054
 33.1856013771015910 35.0300805907871293  9.2161581478328678
 -27.5795443455391798 60.5142198977601566  7.5299139989434138
 30.4597756399363391 55.6840383096825633  8.0070089025917888
  8.3480017084690843 52.5204135846784936  9.4292482428828084
 -27.5902926529122077 63.6938636622583374  7.5059196452675154
 60.6614070952757274  3.0408337227627138  8.0590633085915222
 30.4500796586900151 58.8587839122380458  7.9167408406730759
  2.6356208500172955  1.5269391874057709  7.5709691692815433
 44.0997971738442445  9.4231258254561165  9.4160439304170573
  8.3287821205315620 46.1439641986556097  9.5630181940999996
 -0.1145864460938472 -0.0774240971612566  7.4625241279258496
  8.3099349390114714 42.9518147689273988  9.5961957807886602
 10.8851360312025989  9.5033047291036024  8.4289192280514040
 63.4090810079104230 11.0051538689720250  8.3481989159215733
  8.1285863449467577  7.9053588861919390  8.1675764501856687
 33.2274492786812630 47.7572409405725935  8.3296745160101597
 10.8905734920396036 12.6808976864616554  8.5977682565973250
 33.2187862409706014 54.1056677612718389  7.9078416174216324
  8.2400082193194049 33.3718162792288879  9.5067933876782789
 10.9012728361131135 15.8599313486588134  8.7676367952394418
 27.7065784444462793 47.7390188474400503  8.5762189146194068
 33.2089914515244686 57.2805510631115311  7.7657169744430732
 -22.0586534720047247 47.8117909845030979  8.5204116253271689
 38.5515595774474988  3.0797851870889779  9.3800705485644542
 33.1644027095873497 31.8395553418196720  9.3837720785008560
 -22.0599476215141479 50.9983608992719297  8.3190301398041289
 33.1978303409400226 60.4567428970032594  7.6942995344651433
 27.6977691840579965 44.5617930620381912  8.7469592369691611
 -22.0634876072679980 54.1811379970336375  8.1297579850898689
 60.6668652047405530 15.7828017695284384  8.7780012376272953
 33.1871184436295081 63.6335230926364943  7.7024002255376809
  8.3211662525452734 65.2446047774957663  9.3175987762289942
 60.6800075249290032 22.1855380914827869  9.0698907788507519
 -22.0771683056857491 60.5415489644510956  7.8740587421120187
 63.4146880858929975  1.4643190982419052  7.7885578960815742
  8.2644105433168171 36.5644955549318311  9.5698134934946815
 -22.0862403015128379 63.7206843921133910  7.8451463172181048
 33.2247159903921769 44.5807102896598266  8.5678832419306321
 63.4095911297492165  4.6422487608597951  7.9388712265426840
  8.1405190356488468  1.5522775787154570  7.8909884913808801
 60.6732233405670058 18.9823736474608182  8.9356066704058019
  8.3303623430013136 62.0641141308284219  9.2921788009872444
  8.1329377274514183  4.7291395136705496  8.0037999154916672
 63.4077509616031634  7.8218240592051522  8.1326010279823393
 44.0950886405098572  6.2379044100956795  9.3117900824430286
 -22.0690106183549481 57.3618434518097331  7.9743504224797448
 57.9443046860834556 26.9944610217043603  9.2423319547472929
 57.9362166891440893 23.7869944626569172  9.1777651892898433
 -0.1357424442296305  9.4545090391157363  8.0058653484924012
 19.1579430573077758  4.7435865293562243  8.8634101912377457
 -0.0855797039573601 28.5871911415350404  9.3605480002076593
  5.4017034155213421 22.2031603936766473  9.0287188504358920
 19.1620040137879464  7.9262938412092074  8.9533620742493447
 55.2161287135134273 35.0146055382488584  9.2340668045215448
 41.4725734348881616 36.6209559245615068  9.0913379054378129
 19.1735864759662498 11.1101514381376774  9.0441114196538521
 55.2081570375946740 31.8070226650455368  9.2700203291986050
 19.1901590070792558 14.2944920659205721  9.1265174835319129
  5.3879044155423967 19.0177092277174857  8.8217329057303875
 13.8835835106764307 49.3168312329680774  9.3192907227029682
 19.2103118476393355 17.4787315380788506  9.1978428785372000
 55.1998969007335631 28.5985627543192074  9.2798017125241650
 41.4831476336023712 39.8165826754251739  8.8747155003184979
 22.1058506303314282 34.9992292292117639  9.2529539733671129
 19.2323668425580507 20.6626267627134190  9.2550867704860789
 55.1916854313633891 25.3906579546177689  9.2629037037424062
 19.2554786204299582 23.8467283728056998  9.2956213774517309
 -0.1014749906256050 25.3888636722860426  9.1967246221561147
 33.0676546621810417 19.0557974475658121  9.7002288325648998
 19.2779973505585716 27.0304261650103257  9.3180020919110298
 55.1831015273080396 22.1834543211742030  9.2202515805556100
  5.3726202579424740 12.6575131133165772  8.3598145038420455
 19.3005462525539535 30.2138104847462152  9.3220877683992107
 41.4894192571169214 43.0077400316917888  8.6323295207213189
 55.1748600882237739 18.9783538454551568  9.1523958826572755
 -13.8433069587059823 30.2021243966549910  9.2815082925595895
 -16.5616927973232499 44.6259077277704819  8.9765728957063384
  5.3721997142067632  9.4815184499847671  8.1285464176736948
 -13.8346385153382077 33.4102393690981856  9.2942937470921603
  5.3778164528862691 15.8357974545286790  8.5958346033557618
 55.1670924806751515 15.7766871231097934  9.0588245256146926
 19.1607294420961800  1.5620107632437514  8.7926120558022234
 22.1271067764486951 38.1818163412009639  9.1803620408796132
 41.4054646935380148 23.8176759983969575  9.6269988839535863
 13.8491476989345390 42.9426854884303566  9.4164695288484204
 -11.0799920906463747 35.0117582817197999  9.3566929726205235
 22.1858890387542154 57.2571783399656695  8.6260532786948758
  5.5069447996802845 38.1675638307007645  9.6304339753700781
 -11.0705542640537757 38.2175337780862279  9.3565847259241917
 -0.0480787443746258 34.9872192708328669  9.5791429179620007
 22.1895525131188904 54.0799522788760214  8.6968150999409577
 -11.0622489286535561 41.4211421206528385  9.3248227457230684
 41.4245517503374430 27.0192170403486891  9.5490075402263859
  5.4838757707131176 34.9717807387855331  9.5782637745723687
 -11.0545678174320194 44.6207125297794249  9.2607484227292449
 22.1870902706417858 50.9026064942317191  8.7917784411132871
 44.1764888925451658 25.4083999647085932  9.5413204404469347
  5.4188757687500848 25.3917217044615953  9.2116821490249450
 -11.0481926427083046 47.8154021322054845  9.1660610518022470
 22.1783744418467066 47.7239881838294409  8.8951765320612406
 -11.0450671102715461 51.0042793523673339  9.0499458304319198
  5.4605238762598036 31.7766031102412754  9.4896861048658110
 41.4425634041948783 30.2212263839473323  9.4319123674742595
 -11.0457192293938569 54.1883773190686853  8.9319351827281217
 22.1641523509687524 44.5438480740383511  8.9978838318928851
 -0.0676381512136309 31.7867985311443739  9.4889346625868054
 -11.0507581428160542 57.3693437433237179  8.8339311782573553
  5.4385781717540631 28.5829958236216690  9.3665253142047913
 22.1462234822223252 41.3630182450334729  9.0942766889380984
 -11.0593133044152978 60.5485980224822100  8.7732934757716521
 13.8689955769203799 46.1304967455669868  9.3777257392366895
 41.4586605555862491 33.4221631146706954  9.2784123413646054
 -11.0687007770940227 63.7279469704791524  8.7594207187729758
 33.0447594973939047 15.8595437592146666  9.6874448813637386
 -0.1150343715436843 22.1933392585102780  9.0013284200540351
 44.1600822256123138 22.2059484860425265  9.5909144229633103
 41.4920802139916134 46.1937190525998815  8.3707473443229148
 24.9409795712078441 58.8470970383452183  8.3775719917349303
 -13.8264742110554835 36.6174477880107787  9.2795658514700978
 16.3988157219617996  3.1548381289107090  8.6124872532172780
 38.7394311877430582 47.7755074592241016  8.2244017788031840
 41.4769438545138058 55.7306689993311082  7.6433766982567084
 16.3985775398912956  6.3354182582440037  8.7031639310456761
 24.9479345311433605 55.6711371027260995  8.4390844239848946
 16.4042909804881347  9.5169906071862425  8.8099129540054228
 38.7392202214206520 44.5957097340226412  8.4944403773226824
 24.9503973427121153 52.4950460170511661  8.5402402861686095
 16.4160006844561686 12.6986393482035975  8.9176988929764445
 44.1427047380203987 19.0055120667191773  9.6004551300628140
 41.4671711372550860 58.9091231096471404  7.4966980943152288
 16.4327134521772322 15.8806096939117918  9.0206029657013893
 -0.1326001955206865 15.8149945805339129  8.5289004304484628
 24.9470546170872822 49.3187595972884694  8.6646415449602276
 16.4522445986753176 19.0629669632526451  9.1150117111137590
 -0.1362176886717160 12.6329038128382312  8.2665078910872687
 24.9378918505860092 46.1413990816258632  8.7985687737669327
 16.4730748821957924 22.2456344271975972  9.1974988132289681
 13.8831440871241760 58.8625852855421812  9.1269753668565112
 38.7238060787066729 38.2202255063416985  8.9943770255516942
 16.4948035075101096 25.4279933453943734  9.2642022596773170
 24.9240664876159386 42.9625738639700430  8.9323157601844656
 41.4558817340475869 62.0891222269312166  7.4336272820191693
 -16.5725526571715420 38.2210999279551942  9.1729183225640991
 33.1167054625746147 25.4497760856563993  9.6165504724795117
 24.9074705810609487 39.7827210781399145  9.0594519575656207
 -16.5661512006749838 41.4253670622043089  9.0871707322546058
 38.7095181670495805 35.0257362711621241  9.2044156824260632
 38.7336527914189404 41.4104552186453319  8.7553771090944466
 -13.8321115312899021 65.3217484259795214  8.5573489198905310
 46.9748208337774997 36.6173584511663535  9.0888557613093024
 24.9318967527103794 62.0230126090073952  8.3682220844333326
 -13.8074317222198317 46.2235367246962952  9.0685052765216270
 38.7175558749007465 57.3049362056554017  7.5564194875805830
 55.1522480648488980  6.2079721517782831  8.6465510752051493
 -13.8049050790005694 49.4156958186113400  8.9456102645613349
 41.4901453817313453 49.3749471637318535  8.1044223793197343
 13.8895877080170482 55.6822677959325318  9.1758076343649524
 -13.8125672989135975 43.0248909665101920  9.1667063143092484
 -0.1255005067378777 19.0017988206782888  8.7772140164128665
 -13.8053422573838702 52.6021531558749516  8.8123981255062187
 13.8901025559564602 52.5005804322863838  9.2467869754843139
 55.1541853068291346  3.0292633379394123  8.5131800220092000
 38.7280089196848820 54.1279460018900949  7.7320913554599864
 -13.8085866021242669 55.7845593082856510  8.6894253630569747
 33.0922569045897106 22.2529376672234882  9.6773527747902932
 38.7057722882533284 60.4834218090229712  7.4579436131913797
 24.9237352962342520 65.1990103912140597  8.4154149847457393
 -13.8156217523115785 58.9643428014968691  8.5971667303998487
 41.4849381233646639 52.5533191448724608  7.8541590380430240
 38.7356554602652636 50.9521805613357159  7.9631026841189199
 -13.8244296682007874 62.1429473910157668  8.5510582823284658
 -13.8193696842624227 39.8222809283375057  9.2369446288356727
 55.1596247891833400 12.5808379495311051  8.9382454047359783
 55.1543810730104695  9.3913357474800687  8.7954526785488589
 42.4140375601272623 41.2953525552964678  7.2029789981555981
 42.3833073698438483 31.8919821647427710 10.9043735272339539
 42.3740046779655586 28.6719605634135668 11.0364120085472557
 42.3073748297772028 25.3768563888727741  8.0140963518709238
 42.3196298846014685 15.7954887903576697 11.1769383757906624
 42.3957031466292520 38.1131454582327720  7.4261855334471569
 42.3298226620341111 28.5603105101709431  7.9197478762522824
 42.3080876567144131 12.5861768584561364 11.1184523340199330
 42.2406395067807807 15.8358110620228096  8.0609063226739508
 42.3621262751551626 25.4505652017069970 11.1311752946756464
 42.2212321699336641 12.6581519814508834  8.0024068544888554
 42.2625456652285152 19.0149163790702644  8.0843857615331842
 42.3523792242822879 31.7450927508925638  7.7882237559249683
 42.2852289110907265 22.1954370559539989  8.0692007568345652
 42.3745815411158944 34.9295491423406617  7.6225201535236558
 42.3892980476389170 35.1095450059433034 10.7380622140815039
 42.3916173814968360 38.3226849522972515 10.5412859179486436
 42.3338865254467578 19.0109084500790679 11.2008066516271008
 42.3484726970484644 22.2299812395282785 11.1862309685338168
 39.4417925354247743  4.7113953099789194  7.8426387071925792
 42.4284818851828902 44.4758412812963755  6.9565718587973482
 39.6470869553670440 52.6576383754745976  9.4052946251463023
 39.6523586144162365 52.4318172601431272  6.2856089775726440
 39.6505110563840972 49.4954350011647932  9.6525901028971113
 39.6597176692414166 49.2398816658785847  6.5357128590791520
 39.6519935695824941 46.3205586976392780  9.9185852361909337
 39.6616371331045130 46.0568220077409052  6.8033545174350412
 39.6507046807260224 43.1317880975864796 10.1831050100459120
 39.6559121847872049 42.8775359554386739  7.0688571266807747
 39.6473353465925200 39.9315471063770673 10.4310821069053237
 39.6447402162277811 39.6990372983050435  7.3169188795096103
 39.6400819688999420 36.7233003914349041 10.6535063324475807
 39.6287785018431293 36.5193298448726722  7.5390238279453969
 39.6284952664367864 33.5098884531553196 10.8457376287770408
 39.6098697686689292 33.3381185307091528  7.7303362837114209
 39.6140858578282717 30.2936901600804269 11.0035132141446415
 39.5892367055017118 30.1570790540213274  7.8874486844736129
 39.5971149130397180 27.0746206820619193 11.1240400023411681
 39.5671270257588503 26.9754894007712558  8.0075859567672989
 39.5786074601990023 23.8541938988756748 11.2050548720446290
 39.5443304380599301 23.7943732239691954  8.0884991888013005
 39.5601374182945449 20.6351359974722293 11.2456129403087211
 39.6402189930203122 55.6356768840819385  6.0769596416875880
 39.6426642780652330 55.8072466655688828  9.2000295589673282
 39.6241894255254579 58.8504729320006561  5.9342282439147880
 39.6367898494737148 58.9469895515880538  9.0607162773394183
  6.4861490359570171 42.9648316538280000 11.1829630389755721
  6.4406387050894072 42.9476736028702604  8.0655841289102295
  6.4635445505480380 39.7530720835324729 11.1849066529168333
  6.4202583545245373 39.7692727363882099  8.0673791232312730
  6.4375488017870293 36.5400164404971264 11.1523801900287616
  6.3994540053688338 36.5916175349976598  8.0346492487246852
  6.4091982542884960 33.3273399573113949 11.0842834078373809
  6.3794964910688892 33.4142895829466795  7.9664458418087882
  6.3801366015030458 30.1169761951976476 10.9813474136833129
  6.3620112818958221 30.2372989568409096  7.8636562581928162
 39.5214931834309411 20.6147900225056375  8.1292501177737435
  6.3513762938867897 26.9102619331122419 10.8461460469953845
  6.3228691182275849 23.7075397978297175 10.6821175736230494
  6.3389229115389085 23.8853385501970159  7.5654256029729350
  6.2946408824658837 20.5095754852060921 10.4936745662550486
  6.3347439524006059 20.7105651075727550  7.3776591727554921
  6.2671070553303831 17.3171040586190195 10.2854231853314957
  6.3364449989653462 17.5362755118065898  7.1698923629782536
  6.2432798581433593 14.1327695796464390 10.0635485633087729
  6.3442553704188072 14.3615956603626032  6.9480400534132469
 39.6301929595524030 62.0825047183846834  9.0042953124845617
 39.6072748387990927 62.0732846516101304  5.8765892855905850
  6.3482032351169320 27.0609968817701194  7.7287557551360306
 42.3891942741056482 41.5309228209232586 10.3177544135814472
 39.5419950370180757 17.4188739096213041 11.2463320873634522
 39.5258250917129246 14.2061273482959667 11.2105321639373390
  9.2044747364139106 34.9341879364499448 11.0801940544838988
  9.1474869032278274 34.9958460321963543  7.9623588573670121
  9.1708866483868157 31.7272531124637993 11.0058667226351812
  9.1322013622302478 31.8206152588379396  7.8879720409197391
  9.1366366959060290 28.5237857424170436 10.9011826892892199
  9.1203972286103152 28.6459197079548105  7.7835932531941392
  9.1022406318352100 25.3239572164255691 10.7695627023350795
  9.1125502272954062 25.4711522394787906  7.6524394421535868
  9.0680832141536065 22.1281152997038468 10.6153745901873204
  9.1084001725567525 22.2959881859872411  7.4984966638037358
  9.0354253221040661 18.9370409352308897 10.4432863049449374
  9.1093540735722627 19.1209785493166109  7.3269627090127072
 42.3513209891005573 57.3968341127249886  9.1493136714468211
 42.4280855073585812 57.2539305387809918  6.0257934660071237
 42.3597831210202997 54.2503087603367575  9.3272055483145682
 42.4367051101374599 54.0447316725666056  6.2073413808364446
 42.3684425399427553 51.0912034180450192  9.5557265873854114
 42.4396940669990386 50.8470462510674324  6.4388628015639968
 42.3768118123929298 47.9182950405044465  9.8112040666524258
 42.4371286150109412 47.6588612649972561  6.6959785381614605
 42.3838112389270947 44.7306475366763223 10.0712035180929966
  9.1642141523582410 38.1726864286168066  8.0048711604998815
  9.2347568633798112 38.1432983552219511 11.1226590924968907
  9.1837506252308128 41.3505755097494117  8.0158417515476081
  9.2629087797187815 41.3524711059446233 11.1332992721951829
 39.4769465696948316 14.2574205907056388  8.0944911660596546
 39.5149538097388060 11.0004232848093135 11.1430692173890158
 39.4597855611356891 11.0791376512069117  8.0267140032417270
 39.5098352761458003  7.8058886825865343 11.0535038373635803
 39.4471872735796296  7.8981869475640938  7.9367985885238772
 39.5115538046855974  4.6256809833359656 10.9600080405449365
 39.5181959062930233  1.4565569198653447 10.8833951750134101
 39.4423197820457574  1.5177770195997922  7.7647481937268301
  9.2922277855827318 63.6402464339173193 10.8387777032052401
  9.2117867781028497 63.6653474297993967  7.7187648986862181
 39.4985648030889251 17.4362433624357571  8.1303147876482988
  9.3033614185316242 60.4795245586923897 10.8334555034601241
  9.3120399352531233 57.3155974464632791 10.8659950285298894
  9.2277488572330171 57.2674206823085541  7.7456746479916045
  9.3164771356517377 54.1443673961292475 10.9275176882861782
  9.2325806815293205 54.0749312497299854  7.8083161214215755
  9.3136909455825005 50.9609109532773061 11.0014068101731830
  9.2300967920761341 50.8888458482427239  7.8833787184178705
  9.3027903481394976 47.7638826728730308 11.0679589717979692
  9.2191316184763163 47.7073453744428377  7.9508715369125511
  9.2858392676656560 44.5595593020374707 11.1139588552550546
  9.2028569012445516 44.5284364383384315  7.9969443847838377
  9.2199864999215393 60.4653433390693706  7.7126840019514518
 42.3011846598425265  9.3860783972861501 11.0323163574402265
 14.6906527027747860 38.1606253941698341  7.8422181868867771
 42.3010395526065537  6.1997071815298650 10.9331329083046462
 20.2430366679112126 50.8584507559054018  7.3565611432833977
 20.4280545878522908 47.7586877049173708 10.5606893476425796
 20.2445753847387238 47.6786503286472865  7.4457599535426846
 20.3977959106141071 44.5731443071798807 10.6463011022221199
 20.2437387136775406 44.5012867779118579  7.5300653528185926
 20.3617995762156774 41.3847311140797061 10.7233485906868182
 20.2411821744028124 41.3240220872262043  7.6053738985147863
 20.3238496781796805 38.1954208782660771 10.7882962009615131
 20.2396887014114846 38.1481248947729767  7.6686951799991387
 20.2829414983264193 35.0048872434065004 10.8385543473087083
 20.2366534176117483 34.9724474538459447  7.7179408985262210
 53.3566557316220198 35.0535865594792426 10.7638552199865067
 53.4042373551544927 34.9743498460534852  7.6432383450638373
 53.3685308135789569 31.8330085175043074 10.8237584326845617
 20.4502504326536396 50.9413988361391503 10.4713824666823232
 53.3762676896739592 31.7794261699489340  7.7024489263319307
 53.3478824533986895 28.5850353847134642  7.7357447939531045
 53.3903425001576011 25.3900590141786751 10.8621192554705370
 53.3201071202219339 25.3910249810760860  7.7421371930883023
 53.3998058682309349 22.1694683716771124 10.8401121972012984
 53.2936624259384644 22.1978662451921807  7.7216336095465925
 53.4072315916678022 18.9500666195162886 10.7911565348561496
 53.2690096079480782 19.0073524730630581  7.6741331166341249
 53.4127238712903534 15.7337720680995599 10.7136511012124451
 53.2469571721950956 15.8211652128495857  7.5985793183983485
 53.4163622337742439 12.5238341185956479 10.6069502316847721
 53.2272528467489963 12.6394757106733309  7.4932294035180762
 53.4212831867965008  9.3263823901113625 10.4760667045027223
 53.2113973729565615  9.4586355789784893  7.3636199394713362
 53.4288489879097170  6.1451823051942114 10.3381160873457763
 53.3799313451284334 28.6113942406621362 10.8568618350402009
 20.2384085848228388 54.0435494191553332  7.2713464675804689
 20.4623394795024041 54.1168631563216351 10.3862743853219364
 20.2305459076679135 57.2355675253632086  7.2060201324325686
 50.6011027649089513 39.8947805663209820 10.5484361569307019
 50.6850137952364079 39.7475887065509284  7.4303523535285363
 50.6135904699938237 36.6785706774001241 10.6787084793596865
 50.6595423507320319 36.5553261812841086  7.5594895508513513
 50.6236954762601812 33.4595570127482205 10.7847613129476994
 50.6322382315351689 33.3615405400098624  7.6648784338635396
 50.6328280917376361 30.2392921460722164 10.8648451379981292
 50.6050687969499364 30.1680659834909797  7.7447239651157416
 50.6407490511414125 27.0177117380773950 10.9166082921297871
 50.5777177377161209 26.9751700748925280  7.7970555871300231
 50.6472313812175656 23.7956697851768624 10.9392429128972477
 50.5517835627607539 23.7836505315247244  7.8205176208408345
 50.6510707202579908 20.5744457211486420 10.9310511105458321
 50.5279725757907485 20.5948620453084033  7.8136835362399024
 50.6511287276205167 17.3555103748275279 10.8901418488707353
 50.5065272587551277 17.4096964672574153  7.7744797924327944
 50.6490508524576342 14.1411867746282436 10.8159492251739948
 20.4636237741513654 57.2824492393640696 10.3208840094384886
 20.2216233339345450 60.4335262991246509  7.1765553278118261
 20.4572571854435914 60.4406782312790725 10.2913792985402353
 20.2134084056381624 63.6335593324950395  7.1928777025261423
 20.4457017787460522 63.5952318772922496 10.3073388846985132
 50.4458200754764405  1.4859693587847023  7.2552001328007902
 53.2000523943210553  6.2740936773686800  7.2258885053944963
 50.6694725919897309  1.4062352779719320 10.3689575815841426
 50.6590847982176768  4.5707553716455296 10.4676907974268332
 50.4555121750472679  7.8669856902656763  7.4755600534514990
 50.6512626200224716  7.7461390057635349 10.5886232156101094
 50.4692718813156986 11.0485681445528119  7.5979889503789515
 50.6481633055824929 10.9364997380234037 10.7115976906223249
 50.4868658274339737 14.2279255879663591  7.7015729826806973
 50.4478140869581608  4.6797937710842525  7.3545461154854044
 17.4547425872473774 33.3911988471833823  7.7725938455281014
 53.4396294685323809  2.9776525234832731 10.2146715172537252
 23.2162765912105158 65.1670411302338266 10.1243861477918351
 25.9866128835646073 63.5890414173112859  9.8639396175043359
 25.7103464962972126 63.6353138204654627  6.7502240202038060
 25.9955289366843267 60.4409773200353797  9.8454166571537574
 25.7198166045326317 60.4315335133163600  6.7311988379090906
 25.9987831674234293 57.2903229604529756  9.8844055052491075
 25.7339876023028502 57.2297492697907231  6.7701730823104569
 25.9934462146496088 54.1332437752151279  9.9725440560160283
 25.7497729518220666 54.0337357861781769  6.8580776187495029
 25.9789507953458205 50.9686832226077584 10.0951011886495365
 25.7653185354994747 50.8454019075093910  6.9799622941916679
 25.9544048289987970 47.7968344333329114 10.2361139584721563
 25.7787219734813142 47.6633370750415892  7.1201341907450146
 25.9227768227315885 44.6188931271221563 10.3825629748184980
 25.7882923033013327 44.4852027248669231  7.2659608273040712
 55.9436593951039569  1.4904552278248302  6.8260554017010078
 58.8814943951049301 22.1381158994202067 10.6707143709266532
 58.8943245804386919 18.9217762578848117 10.5580276876236638
 58.7824109061104423 19.0362154004707875  7.4399420505105374
 58.9063911084327074 15.7093026897871599 10.4215846039551217
 58.7574795652896640 15.8481174715863400  7.3054557490995373
 58.9190013481344153 12.5039057320838474 10.2624795691710649
 58.7349971920813374 12.6635853826148939  7.1481960040191188
 58.9325280831419676  9.3114492148975732 10.0885184305334477
 58.7172913159605159  9.4796725618893909  6.9757703355369580
 58.9452150898145391  6.1341249942084328  9.9165623101047995
 58.7050382461080389  6.2923825652739858  6.8039257900645369
 58.9577787327954823  2.9711718237762978  9.7668516363713405
 58.6995287517622160  3.0989566426622197  6.6534465962106086
 28.7323476533226447 65.1652696193578436  9.6590278236697706
 28.4634969427128759 65.2436869250215494  6.5447858099650791
 58.8078189036372265 22.2282401760763832  7.5509204352143344
 56.2113312567180685  1.3939241328286800  9.9389592484190317
 55.9464577709033080  4.6852313748774730  6.9471074520573604
 56.1994168216743475  4.5529904115708435 10.0590831376568808
 22.9582359807955640 65.2334471550266386  7.0108798320287002
 23.2278780974497643 62.0146403210592965 10.0806430738984876
 22.9639392176333175 62.0327107041385730  6.9666060901176738
 23.2353017582915946 58.8608527293762833 10.0881005112828515
 22.9743328742494519 58.8309559406298490  6.9742067287193912
 23.2357782663526891 55.7026645105816485 10.1428227481695572
 22.9862535123075702 55.6334840690580847  7.0288406914061818
 23.2269796107622604 52.5372971686978403 10.2323667127899416
 22.9975490778322644 52.4436935440256491  7.1178311286889580
 23.2076627300953291 49.3638626407276888 10.3401399859224856
 23.0063172665182947 49.2610623683766065  7.2251162777850713
 23.1792242467593823 46.1842977775057975 10.4536523193057604
 23.0124450280234285 46.0818050827609937  7.3378739682533869
 23.1446097155585342 43.0008657653241428 10.5652157487330332
 23.0160449612169167 42.9043532753751293  7.4480827296234553
 23.1070110748030082 39.8158559448402372 10.6690251027003509
 23.0184250154944898 39.7290975135913129  7.5505360107250494
 55.9550569624888112  7.8737487485620239  7.0948558635857895
 56.1885167443883446  7.7252984974333270 10.2067948891586635
 55.9696424936083048 11.0571934119834570  7.2479500788619093
 56.1786083171883206 10.9132833741969346 10.3609983734297035
 55.9893272947543181 14.2393865460455427  7.3875636017045405
 56.1692650617944693 14.1161023271511876 10.5022592270474018
 53.1941468583299581  3.0833784032745726  7.1019004595915876
 56.0120302699297312 17.4247564201198131  7.5034643813039219
 56.0367194411419547 20.6152447055116923  7.5935296649266597
 56.1484623111817243 20.5443251336826620 10.7117835078470964
 56.0637505615732223 23.8088173526375364  7.6588250004820138
 56.1378303108332659 23.7631064892568489 10.7791806858886297
 56.0910881070312826 27.0032660941659799  7.6996772906939999
 56.1259087376338499 26.9835804410347890 10.8211896382063006
 56.1591789549864799 17.3281069133096892 10.6196552095859662
 42.2059816312290366  9.4790384130104322  7.9162463824112290
 17.4987340211145366 33.3832768484378235 10.8930002345951600
 17.5388390286985221 36.5767849956453759 10.8830930429197075
 45.1081245093660357 46.3263425594124243 10.0024837959214210
 45.2022919178104559 46.0831240129327284  6.8876885046083816
 45.1201307212748191 43.1273936659827726 10.2369652661903405
 45.1862035802895079 42.8999627450674978  7.1219041930391347
 45.1299499628776744 39.9194035097546873 10.4508458532944175
 45.1660305194561715 39.7156306095387279  7.3352199148416499
 45.1353073047360951 36.7060874589715525 10.6407778308161021
 45.1421989930197611 36.5281234867873152  7.5240292950509886
 45.1378878680364011 33.4892846530730424 10.8038217067998570
 45.1182790104392240 33.3401499270800201  7.6865275829074911
 45.1369015449264310 30.2695896184953206 10.9372542728214945
 45.0936399249977384 30.1523226603681564  7.8198313516816818
 45.1334130999750229 27.0478135005962166 11.0377004767867479
 45.0703660965172972 26.9652833425494869  7.9204141434444759
 45.2135438565353667 49.2694577345951714  6.6440983249337657
 45.1270299117209959 23.8254428412967947 11.1021530621694744
 45.1181058190977851 20.6041577133227527 11.1275830067453860
 45.0258375629602199 20.5979040647563920  8.0106319034428228
 45.1070942850600858 17.3862415688986687 11.1137117607909115
 45.0038039599536503 17.4172729908220170  7.9976962940307548
 45.0967337187653357 14.1731540478058271 11.0636453410344036
 44.9831793064828247 14.2379212946941571  7.9481371061772546
 45.0895945962325513 10.9680555315132455 10.9823188382583989
 44.9658928741206907 11.0593762165603025  7.8670664328637043
 45.0882382928075813  7.7758304202702302 10.8803132691678197
 44.9536781576549913  7.8784311157216864  7.7652488370607688
 45.0920458928966852  4.5973672493045550 10.7768703005446387
 44.9474901866759069  4.6915700188140166  7.6612477953283440
 45.1000786608017776  1.4296877549956135 10.6917768341363431
 44.9470725571332963  1.4979750308287216  7.5752099187918303
 45.0480011509138194 23.7803173250861235  7.9847781440562198
 45.0953615621271737 49.5117331408165882  9.7590101849321780
 45.2196376874411925 52.4626111316765886  6.4102763530369540
 45.0832812958108917 52.6824980561771596  9.5269053849635430
 42.1970505791756949  6.2955585813128900  7.8167849637393729
 42.3063388734364310  3.0263591118933646 10.8415789609540507
 42.1946827292119124  3.1053083053815675  7.7244110829913852
 12.0791231049607291 65.2084871415564464 10.7758172089793032
 11.9611426650735275 65.2554016034222144  7.6578810674931637
 12.0902326907491009 62.0481118389628250 10.7474416459338951
 11.9672504858742492 62.0551705295186409  7.6290910903800899
 12.1007296952325518 58.8867542653428941 10.7601607231217340
 11.9755027982623670 58.8553041970904687  7.6417236772556256
 12.1074725632313633 55.7201030472586325 10.8085581046848791
 11.9823420636456834 55.6601511622130403  7.6902209264070356
 12.1070852379910150 52.5426694263164649 10.8785675691948054
 11.9836352245050453 52.4711764119909105  7.7603862707318259
 12.0992763231646911 49.3529916865140805 10.9498609197608072
 11.9780234738894737 49.2891261328239310  7.8323693216265591
 12.0828714727632462 46.1550099635142956 11.0066033114410953
 11.9649225810334432 46.1109199182105129  7.8895034765744407
 11.8865513786126833 23.8797560192469085  7.6014039150977251
 11.8477579371653281 23.7491152960621150 10.7191080272408445
 11.8898267101507198 27.0539589304765258  7.7161821404780593
 11.8861918949255365 26.9434325341339544 10.8344040807739308
 11.8961389593219309 30.2278818529474513  7.8092685484689515
 11.9250283374089960 30.1410703499528729 10.9276525427805282
 14.8751045755305249 63.6150484938647480 10.6397456757493405
 11.9049521048835025 33.4022801779627088  7.8776024554808632
 11.9176159389286660 36.5782437154519897  7.9193917899520745
 11.9989256050150885 36.5447249069496252 11.0373189365574280
 11.9315232124959767 39.7547023783594966  7.9347992381599441
 12.0306553302739037 39.7479690625234312 11.0523490138484117
 11.9482409720380662 42.9327277989094824  7.9244466890823277
 12.0593901504847683 42.9523058784385157 11.0417204583624873
 11.9625289800847394 33.3417377435196798 10.9959143076364310
 17.4599976803393595 36.5665139716101066  7.7632755133349143
 14.7154817743403630 63.6456742171455474  7.5227379068529894
 14.7232928728801760 60.4456493904446290  7.5123586735273431
 47.8856408990877043 18.9785193111560275 11.0286082781332535
 47.7662131029848780 19.0019659255343214  7.9122452177891542
 47.8791113262412296 15.7622181217994726 10.9849604108630903
 47.7456076453084606 15.8208601133482905  7.8698266022476036
 47.8728640584805234 12.5528919005524706 10.9080279346365518
 47.7263384398365957 12.6420417086130357  7.7934096724421549
 47.8712467685890672  9.3545501020582869 10.8046916426732231
 47.7109347074317895  9.4626239235854097  7.6905745430342209
 47.8742448506380285  6.1701222813881564 10.6909775010812975
 47.7007291604340935  6.2781861617873442  7.5769307449991619
 47.8819354535675430  2.9987818146563652 10.5877644034123310
 47.6972125188618463  3.0875026881985868  7.4730893581228139
 17.6563468953774283 65.1834104577641966 10.5126446641795308
 17.4628743291355946 65.2379464721912541  7.3971328577856141
 47.7878952110133781 22.1860803614797106  7.9180235804406891
 17.6681817398425309 62.0257689881157432 10.4773926312722221
 17.6790067977914696 58.8671244344200630 10.4860035388458002
 17.4774461399643499 58.8383859541855472  7.3704502161082441
 17.6840380599361104 55.7031763631593506 10.5336067695415405
 17.4844396112613190 55.6435910386149857  7.4181582941106559
 17.6808433036267516 52.5296935333688779 10.6054095456480955
 17.4878941816067410 52.4565844591131167  7.4898819048871097
 17.6662066348594777 49.3452581020065821 10.6827217389486542
 17.4856624442841770 49.2752417423947122  7.5673922938362441
 17.6419813799561922 46.1543964080642013 10.7533450791720462
 17.4795105065474523 46.0964268640144894  7.6372738405467704
 17.6121554456092539 42.9622338757452553 10.8117781341022905
 17.4731938178335362 42.9191910155283978  7.6942228513937465
 17.5767244815642556 39.7697478642021238 10.8556374606143198
 17.4660414644162962 39.7425490697013970  7.7366450003211682
 17.4688391715152527 62.0380642863000702  7.3615340934431472
 47.8903813980827309 22.1997283478479730 11.0353616437546957
 47.8105731887554768 25.3731001509818626  7.8874953742074849
 47.8914268265287788 25.4224807351194286 11.0054615864367449
 14.8951285772430140 57.2943546314108616 10.6595667537495746
 14.7307809330716779 57.2476611935203223  7.5431884320275122
 14.8976481145520889 54.1233551688159906 10.7210020039960447
 14.7349772631229641 54.0555093409983982  7.6046714088999776
 14.8921930841558918 50.9412551889598646 10.7948774062533026
 14.7339702190206996 50.8715658508085440  7.6782489289301923
 14.8768005686869316 47.7488272891821239 10.8625813637825708
 14.7260568868464059 47.6923265760460779  7.7456641717603620
 14.8526717219265141 44.5521792809245625 10.9145404073439813
 14.7142113242833279 44.5144470622689354  7.7971756238299452
 14.8229402966714989 41.3546202136931171 10.9475763244383018
 14.7018418701273355 41.3373025685780391  7.8297455268314469
 14.7891717233710711 38.1567701074836307 10.9607053115433111
 14.7520185519772618 34.9580567788667835 10.9529976523890014
 14.6809309612041119 34.9837332080743906  7.8340842537791602
 14.7132468619954047 31.7609471645712418 10.9238139339240981
 14.6743586306412777 31.8090456625913625  7.8042885176831298
 47.8353948110453828 28.5626529598821861  7.8229445376578415
 47.8897081833377953 28.6451297442426842 10.9417060396032610
 47.8615497453368732 31.7532381724958519  7.7276549554002747
 47.8855070851912288 31.8656815569925129 10.8466741303657628
 47.8879952686124639 34.9445864643740691  7.6046609331540331
 47.8797781231299453 35.0844072310264394 10.7229139834067038
 14.8868779155222200 60.4565786518583437 10.6290876805301657
 47.9133055489203628 38.1352645152170595  7.4559539166632156
 47.9375545131255976 41.3246932862987890  7.2828112145472614
 47.8597501321792436 41.5141827474403442 10.3992485228782972
 47.9590875157481733 44.5106136622520836  7.0873413083020615
 47.8457442867718967 44.7217771167690330 10.2026685869452507
 14.6694987039418958 28.6351529311652619  7.7531481286088111
 14.6723489652620351 28.5657959262330898 10.8728428292806250
 47.8709515470943074 38.3005985434565375 10.5731827327928318
  6.4593007458055061 46.1264992636163100  8.0320439060270648
 28.7196050102125469 49.4088413783260805  9.9984267238552533
  6.4733586141253179 49.3060297496675233  7.9717887593010346
 -10.2158831461428701 55.8262910880087730 10.4928247220011741
 -10.0353154323648255 58.9299128863973039  7.2999157159064367
 -10.2276159531040527 58.9882132878184962 10.4164128186522920
 -10.0412783801735994 62.1316097455136216  7.2644785873577344
 -10.2414418839883492 62.1445212398605733 10.3812044454473256
 -10.0477456476775870 65.3334134010235061  7.2759341861969222
 -10.2528964579573696 65.3013865105057647 10.3920335621959499
 20.1840300731869746  3.1854321230852398  7.3294874142139115
 19.9768584338615511  3.1181135605041495 10.4447719425593828
 20.1839147467342244  6.3761105068489199  7.4107940443483793
 19.9781345207894141  6.2907699052371004 10.5253513164826522
 20.1883202487206574  9.5595017781705511  7.4996418391095236
 19.9903221749345050  9.4732997651797906 10.6136614568863283
 20.1957994739609283 12.7398161118753865  7.5817625210339745
 20.0127949916776195 12.6619090831422483 10.6960306292048788
 -10.0334385819456848 55.7314742077641654  7.3773416368091498
 20.2046786732511556 15.9186709436443845  7.6518222844776984
 -10.2082568719904287 52.6533529745687190 10.5981534664030068
 -10.2054253629228064 49.4661860002482356 10.7132132570490555
 -10.1885429982099289 27.0359350898307191  7.6637156423604376
 -10.1923612838616489 26.9507752867963895 10.7845407088278797
 -10.1623620590441419 30.2298598492022172  7.7464980345608021
 -10.1990054058477515 30.1712484223052897 10.8670653513726929
 -10.1361886650044699 33.4222838510134252  7.8011596748814069
 -10.2038212665150656 33.3923912197717669 10.9209785349700290
 -10.1123231395276054 36.6130231404866677  7.8253531965992620
 -10.2081359279210560 36.6136467431170871 10.9443158983573383
 -10.0905999343821602 39.8021796255900995  7.8172074388665092
 -10.2099853620561607 39.8341944851582141 10.9349128193570362
 -10.0714862134353655 42.9883692125505377  7.7754786136723428
 -10.2088045095656987 43.0520999248496139 10.8922060325904404
 -10.0564399316355875 46.1705867911395700  7.7005267176743830
 -10.2067287043810300 46.2639643241494554 10.8164004313077324
 -10.0440060993387021 49.3530529326450775  7.5984002744075747
 -10.0364410426674127 52.5388854705110333  7.4835325858923261
 20.0429438384799568 15.8520934305477148 10.7670767326398149
 20.2135298409739725 19.0960698840122518  7.7073972916947913
 20.0788954436384053 19.0435013515409253 10.8239859311394504
 -12.8132476586925073 44.5757849701061630  7.6073664187972669
 -12.9739661762213654 44.6729970746273750 10.7229794711699782
 -12.7979182728059246 47.7603112679110211  7.5027175269805797
 -12.9768813937422696 47.8809029335586516 10.6176176277233942
 -12.7881154683241309 50.9450239924789017  7.3787468121374840
 -12.9813559645099144 51.0750954304751374 10.4926743224868968
 -12.7826189855407097 54.1344931422294309  7.2534946131201403
 -12.9885848888545183 54.2542997550990904 10.3673979125422484
 -12.7813560072736365 57.3309076606807935  7.1481784143753000
 -12.9993609827420347 57.4207388400108201 10.2630426249532984
 -12.7845214768412561 60.5321181702411693  7.0811395994561410
 -13.0130737604548035 60.5771340813540817 10.1969127314449892
 -12.7899594590229064 63.7356389550174143  7.0631989368576775
 -13.0258609393096947 63.7297306982312293 10.1791428989530921
 17.4406562808021022  1.5915655487814218  7.0953027972520575
 -12.9692051647893223 41.4581551874268115 10.8009617803634619
 -12.8314643621788740 41.3886394531651618  7.6838283124081581
 -12.9630283909006625 38.2402073055261411 10.8498041886133407
 -12.8533428253017128 38.1987779966496959  7.7307961786101540
 20.2202611546882522 22.2720855801672464  7.7458741811126570
 20.1175625251049581 22.2358553658576632 10.8641345758488885
 20.2259824155967500 25.4478723972802179  7.7659697786538917
 20.1586604994429770 25.4293584397229218 10.8857403673031001
 20.2301189974236237 28.6227044294431394  7.7675252230271594
 20.2000830083213074 28.6218368508445664 10.8882366472313539
 20.2339770732752271 31.7972841758143510  7.7513430100206993
 -10.1835101148135756 23.7325372972725219 10.6753624321055813
 20.2419407219634735 31.8135933289252293 10.8722786706168897
 58.8699183334328282 25.3571020039430657 10.7594904271019338
 -12.9324567621923592 28.6177221190304500  7.7015930454421913
 -12.9364515779241405 28.5774111750441122 10.8231118653917289
 -12.9050812083955915 31.8122031606758640  7.7390983193396501
 -12.9470801503519883 31.7980767503202877 10.8601936791313385
 -12.8783049599145958 35.0063225913877289  7.7491291407278480
 -12.9557976315597649 35.0200094658799657 10.8694266013601748
 58.8350398220285129 25.4228789521752780  7.6383377422994885
 -10.2145584624769992 23.8428457980306980  7.5552395755135517
 61.6229540187594438 20.5167776528105570 10.5412009643831741
 61.5549067400142675 20.6511039680927375  7.4222440442063897
 -7.4906916723608381 19.0754697564287277  7.2787044013662134
 -7.4338985077986361 18.8981033373343195 10.3962617431501965
 -7.4680368623586695 22.2638549401217034  7.4542203518367405
 -7.4427595391802548 22.1108752463485061 10.5730238132501864
 -7.4437869151968190 25.4545364809834851  7.6048583998079096
 -7.4478311319070727 25.3275011185890762 10.7241753688876429
 -7.4186404638397967 28.6448985980440725  7.7284817687165805
 -7.4499803810636358 28.5455955376960944 10.8477342960690510
 -7.3947767686071009 31.8352223247042332  7.8231340487212284
 -7.4515189452722499 31.7652017775620372 10.9422016400900706
 -7.3714245466918342 35.0249621021358735  7.8863070832993136
 -7.4502694190183503 34.9870340833483127 11.0052112934423345
 -7.3498212980143052 38.2117788187887513  7.9146814114121629
 -7.4464595770886657 38.2084080401981012 11.0328319796381926
 -7.3311255172861056 41.3960466881602684  7.9054933398316685
 -7.4229302813554154 15.6913005270254136 10.1963450165550462
 -7.5124813062889322 15.8912252310257998  7.0794764393301843
 64.3851809220917630 12.4934589460517511  9.9769607407336043
 64.2637085006853823 12.7082804762221340  6.8611782469449478
 25.7431408655053566 19.0779087477941509  7.9380142041253370
 25.6241477651621565 19.0692841207288311 11.0549517801700876
 25.7607034576136655 22.2555012154499643  7.9317930005679127
 25.6577238094841213 22.2717038280714199 11.0496204786987171
 25.7749885655804896 25.4321435394740263  7.8994192060699575
 25.6933783393581940 25.4722552910210283 11.0177021085586322
 25.7851778218033303 28.6089090138060946  7.8422750718581966
 -7.4408610554891741 41.4282895676185703 11.0226909161220679
 25.7302641214078953 28.6710469805478425 10.9608100291630706
 25.7696904615879632 31.8678634515824157 10.8809009930527445
 25.7968195398192819 34.9601462308252948  7.6610442932260803
 25.8094722753777894 35.0611699371458982 10.7798922777255051
 25.7970641675584424 38.1339375149317448  7.5417716853985421
 25.8488441343049793 38.2505040380714121 10.6601466394350002
 25.7945419028975174 41.3092191779939313  7.4084688648320238
 25.8871047971858275 41.4367961239886355 10.5260323328736529
 25.7929182229528102 31.7853359109952187  7.7621971853652800
 17.2024221956847967  1.5387124174197495 10.2104350091862877
 -7.3139855258818658 44.5780198908306602  7.8589196966093180
 -7.2990209720093491 47.7581340073235978  7.7796000297602061
 22.8014170132122729 14.2647779869977125 10.8818574810977591
 22.9742233460303247 17.4978162124634693  7.8113410643442913
 22.8315423148178773 17.4611209604899145 10.9273897769944419
 22.9876738795331654 20.6754834489203319  7.8347614459570947
 22.8669718642629931 20.6585663524614134 10.9520417068080427
 22.9981663186916236 23.8517765669761665  7.8361698490590506
 22.9045995993701048 23.8551120308517532 10.9547900381173609
 23.0066912464445288 27.0275951523048192  7.8161501596287000
 22.9441660134505092 27.0506647541532104 10.9358817748824890
 23.0128829036716844 30.2031397951644038  7.7762090666695709
 22.9847680169640398 30.2445774108568308 10.8963809104387312
 23.0165738648132638 33.3786222642716623  7.7175239943672675
 23.0255322627695662 33.4371843808173637 10.8376427996432501
 23.0178988552220645 36.5536638357216290  7.6415168784568381
 23.0661274699105299 36.6276602908160598 10.7610576543237642
 22.9601005120654520 14.3196985512291661  7.7668000423245447
 22.7778527900088008 11.0703148579289010 10.8175801499687516
 22.9465104624614398 11.1414035043098725  7.7029157888005448
 22.7624291794498781  7.8793800662792552 10.7386208274601422
 -7.4277276486550372 47.8518293891431554 10.8955034400815052
 -7.2886360987207066 50.9412307508281117  7.6790229079053187
 -7.4262466659355111 51.0462114869497157 10.7949649239283705
 -7.2835030016386817 54.1303873784803713  7.5765094580320858
 -7.4299067421054472 54.2262360651932624 10.6930115993507631
 -7.2843769100733322 57.3258598891991085  7.4924561557471598
 -7.4387750842467995 57.3947522318225936 10.6097323198505382
 -7.4337784794544213 44.6444969199658033 10.9753002171305578
 -7.2896856321744989 60.5259678129482310  7.4424567373908905
 -7.2972583248219278 63.7275013025688182  7.4349505241218719
 -7.4636257238453751 63.7144976062503119 10.5523285990073354
 22.9330427059347777  1.5809105300059261  7.4703060609706045
 22.7631856583232057  1.5293560871223562 10.5869704873611195
 22.9314185895414901  4.7747678553772621  7.5394183720855104
 22.7590437806820631  4.6982928621627078 10.6551522842732282
 22.9354398773179433  7.9607615790464381  7.6234823769545965
 -7.4509895091449634 60.5560839717084178 10.5600319293437543
 25.5947685099903417 15.8666279202851843 11.0335221981833609
 17.4355372903957679  4.7877100270781918  7.1683909517402915
 17.4331822486011276  7.9766099946960374  7.2646767979159481
 -21.0347894636219870 58.9076189346404888  6.4345119071519337
 -21.2792079711192379 59.0047876034789240  9.5508409435536947
 -21.0408229543215661 62.1209863508088844  6.3704027646178059
 -21.2901009858979968 62.1489915154232335  9.4877232424033533
 -21.0513606505998681 65.3347338687579366  6.3778595564944967
 -21.2974340980019825 65.2905471314520724  9.4957802494368160
  9.1705216241902434  3.1971025545868437  6.4543496795553725
  8.9363486239013721  3.0883394272967379  9.5714749256980447
  9.1550425980415202  6.3975152696992499  6.5878698827913817
  8.9416975489647701  6.2398618682020262  9.7034062878219558
  9.1392638071335952  9.5880238041899535  6.7594047806058253
  8.9546638328749566  9.4006963723205210  9.8745460447489091
  9.1249872842085171 12.7697919815632090  6.9494467615293241
  8.9757475982128927 12.5712155473114340 10.0648736644813361
  9.1148707912984719 15.9465084486110804  7.1422026427632872
 -21.2662203516821435 55.8518211913789386  9.6752976538371112
  9.0037754303035005 15.7510528895357211 10.2579815211255969
 -21.0343686721756917 55.7007628089011533  6.5603795637886826
 -21.0393621201773833 52.5024954913797259  6.7286153980753669
 11.6916764209985509  7.8415271013056342  9.9728973897495763
 11.9035100659327409 11.1734207762744404  7.0107414606733665
 11.7118707764269505 11.0115112340009720 10.1255651752746303
 11.8939750668870001 14.3522781072515606  7.1685458489694271
 11.7405370670807283 14.1889607891506575 10.2840406738628936
 11.8880936026118462 17.5291752069358893  7.3229851130065633
 11.7739040197255953 17.3719340164814007 10.4392975700576791
 11.8858866656925493 20.7051860157393932  7.4688109924489217
 11.8100649232176149 20.5589129576400040 10.5860428329222174
 50.7096067254228799 42.9376174158555983  7.2788835789797819
 50.5873192924418476 43.1075682201763897 10.3950899962524037
 -21.0654209600764410 46.1248574776691100  7.1059306925405279
 -21.2233318224082090 46.3139709155682198 10.2203521246614031
 -21.0496228533163041 49.3112161183058717  6.9174067232053673
 -21.2382903931331803 49.5074685586122882 10.0308611280515905
 -21.2525809843860394 52.6866012649254500  9.8421133178397024
 47.9759679909728121 47.6962372610201086  6.8741407907138257
 47.8301601120042932 47.9184692013033384  9.9882864125983541
 47.9886115053010940 50.8854052689121659  6.6564167634656375
 -26.7332562911975913 58.9834118548268975  9.1856116783308295
 -26.5921581724600600 62.0972478262491236  5.9947301008498499
 -26.7422645580735612 62.1207406047399004  9.1186040820642091
 -26.6068217002700962 65.3187910880515687  6.0131076760088948
 -26.7493640861327506 65.2559783124209929  9.1370268010591982
  3.6128118692492457  3.1890882438069434  6.1159612858174421
  3.4826321411471883  3.0484478756734004  9.2380251809689060
  3.5964961349206614  6.3947823545309390  6.2891298714680666
  3.4826620424830126  6.1949664185006146  9.4083644517900158
 42.4159585217648356 60.4731886992870002  5.9175142854010776
 42.3439190969493211 60.5348781963101601  9.0435273756631442
 -29.3949545526298266 63.6970776361123043  5.8976665191963900
 -29.4593647646207160 63.6693037153610817  9.0243070903088913
  0.8264862962372799  1.5721693637778604  5.9689326810390471
  0.7710520452370355  1.4589451492700183  9.0939988690428795
 -26.5809035445062420 58.8770133482908591  6.0637788063675409
 45.0722403813862229 55.8388566787370024  9.3283177262640624
 45.2202385808986378 55.6646146987002624  6.2090480069361895
  6.2240415628003820 10.9583095443771441  9.8386601561769496
 47.8157574717957274 51.1006836990420652  9.7705671384154478
 -23.8005978884228817 54.0814038555266734  6.4541509692303789
 -23.9936952998602635 54.2684687228500948  9.5695831947019521
 -23.7994642628064703 57.2867844525206138  6.2892964693191935
 -24.0055242487274363 57.4234979044045346  9.4072753530381465
 -23.8048637648384371 60.5008370535411117  6.1842904556395002
 -24.0167380307876925 60.5675808180028454  9.3042091540457577
 11.9151435125998351  7.9889903658560684  6.8585538854209993
 -23.8156651784548998 63.7197786721473420  6.1556153950739327
  6.4057226416996951  1.5897143210964904  6.2075336099960996
  6.2050318344643660  1.4984147086303883  9.3276603032385523
  6.3888458096703680  4.7979146574202840  6.3316186608549314
  6.2052184128171195  4.6419125718026333  9.4498526169073020
  6.3715245199624890  7.9955440574170540  6.5105464261643453
  6.2113981833256871  7.7948960457500851  9.6271061891684742
  6.3560513063888733 11.1825295765996895  6.7226954436131914
 -24.0256808727734317 63.7061396581132371  9.2765373569774070
 11.6818363233245854  4.6808990952429239  9.8416240159274739
 11.9277300830047324  4.7963820152255039  6.7272234308618648
 11.6805019830995729  1.5291942340045777  9.7506978025763456
 -15.7052039966372714 36.6467740627432192 10.7875739483869992
 -15.5959511159655140 39.7816404436178672  7.6054504853262683
 -15.7154132710449197 39.8651190228453061 10.7237494572541827
 -15.5739463709760066 42.9723533866863718  7.5177259439936339
 -15.7248028884107427 43.0809192228778315 10.6342211417358588
 -15.5548087622576787 46.1593826539743546  7.4044533511119237
 -15.7335797669685995 46.2915532412622284 10.5192694308537718
 -15.5414282776754433 49.3446852475031292  7.2690512703654599
 -15.7429175394642371 49.4914073236930392 10.3826174191866745
 -15.5325336062667638 52.5332217578952978  7.1252357149174159
 -15.7527450486931269 52.6768738261160294 10.2383239000406672
 -15.5279143588578581 55.7274841134268968  6.9930544039392277
 -15.7635951793808093 55.8478851602968192 10.1066912655733994
 -15.5288240706619565 58.9275339987319526  6.8930127741463760
 -15.7767286865905252 59.0062145109701959 10.0078510963801772
 -15.6206653859722380 36.5884376813294949  7.6677209527909120
 56.1020965050782507 33.4267315353754952 10.8254908045929685
 56.1480766616428681 33.3937570702416977  7.7041846001227388
 56.1136703239776935 30.2055170754716684 10.8366827271221862
 17.2098866975819931  7.8745871034937913 10.3781266712974674
 17.4336208572022322 11.1586077203254277  7.3661474223444809
 17.2305459017590188 11.0559332378777846 10.4796203022991552
 17.4356157133426883 14.3376628113122049  7.4629627468702555
 17.2592729885596086 14.2402423505990150 10.5775287103944962
 17.4389429097673059 17.5156061323008991  7.5516283771631283
 17.2938445601769999 17.4269633902784662 10.6678306798273574
 -15.5330449269694828 62.1329093444058316  6.8419466027093065
 17.4422020734282235 20.6927740300907352  7.6288833087381498
 17.4454923532536874 23.8679444409393042  7.6913542154927663
 17.3739806471209377 23.8058332672368849 10.8105392175722468
 17.4477715021359785 27.0417657794682462  7.7366260387799679
 17.4155647043774309 26.9969384642736259 10.8569197435935880
 17.4506698902675339 30.2159966806628368  7.7637989558164024
 17.4575017094129485 30.1896379947832614 10.8843544122858269
 56.1193533076609086 30.1985151994928067  7.7149737800380818
 17.3324392841446127 20.6157626008535928 10.7465916277775690
 17.2009498627285922  4.7010401262257409 10.2824515202004356
 -15.7895444237904350 62.1572922524134341  9.9572032938605819
 -15.7983827877094729 65.3068411197166228  9.9619220561231359
 -18.3177867534481003 44.5504558101316874  7.3234525303739098
 -18.4763923136490966 44.6993391010990138 10.4388776107741190
 -18.3000893221783656 47.7370344373536639  7.1715209723089597
 -18.4891450274481173 47.9036400743041497 10.2855815136123958
 -18.2872222480008659 50.9250189184537305  7.0065698794786142
 -18.5017477619502628 51.0943042702382897 10.1197679683686559
 -18.2796302251349481 54.1175491656156069  6.8467891951026649
 -18.5148619167785355 54.2694651125262695  9.9599311069283694
 -18.2776329697432267 57.3170225972391449  6.7133022348429794
 -18.5284457154958240 57.4310807747034673  9.8272996096662428
 -18.2800694134631918 60.5239850225388949  6.6259025624104861
 -18.5410016961892232 60.5825137428473326  9.7410357989320655
 -18.2871596018086073 63.7339325472354972  6.5988535763617406
 -18.5510231113936399 63.7284592773056815  9.7147456161163621
 11.9396122658214150  1.5956075431891530  6.6353385408621035
 -18.4634661090520176 41.4877473518185340 10.5705724384463817
 -18.3395437177718286 41.3614439562718772  7.4532746256355669
 53.3445513143227430 38.2722361400468785 10.6791268650336129
 53.4311173735003493 38.1690885134912463  7.5598063015409149
 14.6887581693853804  3.1943931041025664  6.9049047874336926
 14.4345057201382456  3.1144555892314871 10.0191894560664547
 14.6810809455956282  6.3889789004658564  7.0030858020609577
 14.4398955398240147  6.2760683588716999 10.1167890129864482
 14.6736459442176024  9.5751810703113254  7.1227241366555241
 14.4554418599595547  9.4472089903712533 10.2363917401185613
 14.6678542563608900 12.7561477308204374  7.2479944922449144
 -15.5395441538569834 65.3384590509931371  6.8470080240878666
 14.4808957949237449 12.6258090570567507 10.3622530562740867
 14.5139902040040845 15.8089549261509639 10.4863338975878406
 14.6647899223936893 19.1116011045125056  7.4865989717441597
 14.5510854751723073 18.9939440709591132 10.6037368966656071
 14.6651004721517069 22.2869156914621236  7.5917036237222844
 14.5901491099807394 22.1819452963357158 10.7099428753557842
 14.6665586135486414 25.4614916802605187  7.6816572986078215
 14.6308103617495178 25.3727478839705007 10.8007554127035235
 14.6652872847921518 15.9349470462957967  7.3708300449403508
  6.5049679618458969 46.1735841384679517 11.1493108112249342
 25.7244205791595455 15.8999672965537187  7.9173475818907244
 25.7066578025366326 12.7214124035856262  7.8712429369215542
 34.0169597502142196 20.6380052634212348  8.1394578590064111
 33.9890657221541943 20.6613426045203035 11.2556614356784159
 34.0402780912849678 23.8170500113174732  8.0972951524164110
 34.0143081131732643 23.8774949614137917 11.2134027927701752
 34.0406720461447208 27.0928530605674744 11.1323616288984848
 34.0821246288519362 30.1735962906382085  7.8982534300648837
 34.0679660677482659 30.3062859010237915 11.0138036207310499
 34.0995290915161817 33.3505919418404346  7.7443456198394944
 34.0950885480715939 33.5157459316373050 10.8598128160028633
 34.1122379216688145 36.5266076808848368  7.5586256956910640
 34.1205881354928309 36.7198073848693980 10.6738317548971615
 34.1188394003613666 39.7017421113299562  7.3458279182322741
 34.1445709174983492 39.9175589427677266 10.4609542235401385
 34.1179551193425823 42.8765326201868291  7.1124622334243321
 34.1655486728701021 43.1075448990512484 10.2278565142857634
 33.9657999129589356 17.4469447687694519 11.2602488378804040
 34.1103866211549160 46.0533631371283931  6.8679131178155117
 33.9934497996934368 17.4586717369081548  8.1440698618085321
 33.9715369387721466 14.2793531970306873  8.1144154736615537
  3.7291510132031394 54.1695744642092905 10.9883428446852474
  3.7231641552262058 57.2891430379510496  7.8037764636666118
  3.7240926954990865 57.3408145803063576 10.9232350171966281
  3.7157757485609761 60.4881645339171428  7.7678148638321032
  3.7148423987417964 60.5049167847627913 10.8883765207649894
  3.7073742728209806 63.6889758013483203  7.7709423395777435
  3.7038813261209729 63.6661604353944739 10.8918507229699202
 33.9370453261461762  1.5409697123986383  7.8133568520645360
 33.9302557290789863  1.4830532604934432 10.9337759978916740
 33.9355656099784824  4.7339455387232450  7.8864144875032913
 33.9244874332538657  4.6533560613967966 11.0059541063245554
 33.9408803794992622  7.9195111264394500  7.9738964925026137
 33.9240564576157908  7.8351865773211911 11.0923334010555941
 33.9530699111375114 11.0999803661813949  8.0550786913046188
 33.9309030740839503 11.0305513160068234 11.1722490382640203
 33.9458887674034102 14.2359172795235267 11.2307245431457972
 34.1836204124092333 46.2889311161523267  9.9837818513082137
 34.0968240449433821 49.2349393093270393  6.6256510654308842
 34.1971944513809873 49.4587592006031400  9.7427745883770118
  0.8507947334598642 30.2464009313119497  7.8715756927446776
  0.8334390557853799 30.1220543652284860 10.9885979206945255
  0.8708311459755680 33.4271118071143292  7.9808046223091136
  0.8528120327118395 33.3398500097166277 11.0983038458885837
  0.8927228563813057 36.6079251371960055  8.0517579356783671
  0.8730012473293732 36.5589152073800889 11.1696087841268081
  0.9143867297707563 39.7878705215878554  8.0842031168784931
  0.8918332046306269 39.7766072346097914 11.2019416947762345
  0.9352526110601492 42.9670161808747082  8.0790200250338255
  0.9089143773938509 42.9915044056957925 11.1964799981828715
  0.9535754848805822 46.1457266899066809  8.0389671945930790
  0.9228706269986582 46.2016552352033116 11.1565736169921195
  0.9668584870219493 49.3254335541430606  7.9706535555275693
  0.9323624117863235 49.4032124670934323 11.0886272987962400
  0.9730257750253669 52.5103909240186582  7.8874629352758951
  0.8146050222524922 26.9061983883524682 10.8422394312207011
  0.8321326087627767 27.0654646503369953  7.7255346470855448
  0.7989840060787676 23.6939853238592484 10.6622418547824758
  0.8169360812385602 23.8847853657750875  7.5459359800048542
 34.0782465157379661 52.4248711701400865  6.4044298532895754
 34.2065000999186566 52.6175124201615603  9.5233034271381332
 34.0567591565737615 55.6256608693191055  6.2258620905262445
 34.2111028062990670 55.7661886538203504  9.3469759129287819
  0.8127140675472567  4.7842498305251331  6.1215530086176857
  0.7659907201686079  4.6006713062628917  9.2436880571468052
  0.8016500567114089  7.9840448329634546  6.3350411027771241
  3.7268013522593799 54.0952042191129223  7.8699194200745302
  0.7633079526907108  7.7527061460187587  9.4542019571605369
  0.7643668662537625 10.9182279094484969  9.7006718496071240
  0.7930408788832547 14.3528578450796473  6.8452965231933067
  0.7687188723620195 14.0965954649623253  9.9605717874283712
  0.7964282032149823 17.5298789195710825  7.1002582457859456
  0.7759693448696183 17.2871659166375125 10.2158293672168803
  0.8044242880884532 20.7061759538707157  7.3361604592273917
  0.7857892078265930 20.4870327492924140 10.4523071733766795
  0.7949302037781483 11.1723886332272446  6.5841082645182487
  3.7274339183381708 50.9859308923302734 11.0679736597504572
  3.7237785751137533 50.9072409049810943  7.9500926732003778
  3.7196438349415026 47.7890342775031485 11.1413417036162485
 36.7449305403383022 15.8269271392860365 11.2574140953023090
 36.7567934188849961 19.0370721409161909  8.1561230286306650
 36.7643907042052547 19.0411241173113517 11.2721660713592868
 36.7804382915249235 22.2163317723718947  8.1330197998598699
 36.7864442524597735 22.2583065719804978 11.2492239304921497
 36.8040630844388232 25.3954550543641524  8.0701811665905918
 36.8096443159026805 25.4764758980541188 11.1862072223451445
 36.8259365962967280 28.5748114351080424  7.9675872983408542
 36.8319495388995009 28.6939001101249005 11.0832486110345627
 36.8463083296403369 31.7541931941823528  7.8269069326674963
 36.8535730411156379 31.9096615874237735 10.9422715684955119
 36.8645777009635793 34.9328951454602787  7.6505347031849862
 36.8737316642897852 35.1219663695992566 10.7657851565428491
 36.8787638426681212 38.1100727340537020  7.4419983204211411
 36.8909408370896585 38.3285206752605419 10.5569001306860795
 36.7347884676340115 15.8578621982587329  8.1414449598908494
 36.7288556773133266 12.6175603518196180 11.2093667952427207
 36.7144958453373036 12.6787521102186016  8.0932045030433297
 36.7195112769316765  9.4167322182189590 11.1343923067538846
  6.5177505824674036 49.3753472123980615 11.0892578635616665
  6.4794442659038864 52.4897714366342711  7.8956847051608925
  6.5226633388741577 52.5657315377250285 11.0136368674789953
  6.4786413173297932 55.6811374828883956  7.8223298725720829
  6.5212197222294561 55.7438484370208869 10.9417175375408107
  6.4728497244261849 58.8776406867378199  7.7713433459099148
  6.5144889476165710 58.9113012892082537 10.8922682109546276
 36.8868348289529990 41.2866041942416544  7.2058004516866543
  6.4640201053127555 62.0768704698679699  7.7557258079721754
  6.4559641614640890 65.2763169446863856  7.7804895537924059
  6.4931006652556968 65.2335178888535410 10.9012649436086484
 36.6879955773093513  3.1260405159266789  7.8416866396570164
 36.7209020333810443  3.0530557381040171 10.9609209649075847
 36.6898384081185895  6.3162359529249636  7.9269667972572506
 36.7170317046790871  6.2283544804193216 11.0448277246986972
 36.6993475184288158  9.4995883472887162  8.0175343919567297
  6.5040838388616899 62.0725559192716858 10.8772436179636518
  0.9360132967893066 52.5925617399719485 11.0058454109755051
 36.9046878566875094 41.5279498550816797 10.3203175898464483
 36.9159357616168720 44.7171367049496240 10.0642083433292751
  3.5806660590695998 25.4743180128986104  7.6485204705880872
  3.5710327486938120 25.3002130654666608 10.7651257001580962
  3.5954365056719149 28.6522589772311065  7.8081728286340129
  3.5940162590322275 28.5104369557655026 10.9253872551356181
  3.6139024583770158 31.8312002054918786  7.9343304333412314
  3.6180449998092974 31.7242437267042234 11.0519273771251392
  3.6348783817851915 35.0102239191213727  8.0245870959769512
  3.6422995853910636 34.9396421193673561 11.1423462071921016
  3.6563207014262895 38.1894209477452478  8.0776842575841510
  3.6654732704963715 38.1556638352257238 11.1953069123053268
  3.6781454722623756 41.3686474494266534  8.0936397577055104
  3.6872769294572283 41.3706854232714889 11.2110682559600257
  3.6983759961533651 44.5470047878338633  8.0743734901920128
  3.7060253468522815 44.5825808552082208 11.1917762418386140
  3.7142856660339172 47.7255405331120599  8.0237046965881493
  3.5488441735058731 22.0945682197902045 10.5743154539729680
  3.5703241815467655 22.2979545393698544  7.4582477755685685
  3.5286803089433132 18.8950732968450232 10.3568303059397540
  3.5657137765652798 19.1231935940135784  7.2411392239803343
 36.8829103780843539 47.6423841124798102  6.6857410742123182
 36.9232987786537095 47.8949018399971251  9.8020011333711459
 36.8721618174236738 50.8287900105670971  6.4318424440753486
 36.9282136228735922 51.0609364518976321  9.5506517876858705
 36.8555154218951984 54.0248702397825937  6.2093944449971410
 36.9295712371840779 54.2139471106399711  9.3310806929062373
 36.8361481880479715 57.2334753004796042  6.0426852701353537
 36.8887277835502019 44.4632814956501576  6.9495649141682954
 36.9278596842446660 57.3576130013339380  9.1665598285802634
 36.9236456556385590 60.4951291256545147  9.0775829199762637
  3.5821600428825411  9.5876422685009679  6.5097216507140505
  3.4873137324766157  9.3523783879284217  9.6265767198450902
  3.5719615783076311 12.7713097800072184  6.7542048224909443
  3.4968646569745365 12.5225224989809991  9.8701147155936138
  3.5659575623101900 15.9485414992310375  7.0030582519787945
  3.5103699264585444 15.7036701154919243 10.1186222889827082
 36.8172385869342946 60.4514435167591699  5.9518258569905278
 25.5710350260713426 12.6652139879422041 10.9867019350321282
  0.9718106837227732 55.7021013471187274  7.8090376071118675
  0.9666502762474892 58.8991473976531523  7.7542587323132768
 28.5695233807436288 33.3654653170445314  7.7224498006030604
 28.5551940513449338 33.4885630576828177 10.8395178042686009
 28.5736681168006683 36.5402025831127446  7.5797234988584687
 28.5919665257655637 36.6833647736000401 10.6968137463103705
 28.5738759295111997 39.7145541828778761  7.4182036083155820
 28.6289356761563027 39.8725282627264974 10.5351322191604631
 28.5682862245115672 42.8892439395176410  7.2435458471026797
 28.6628111473388678 43.0568460796078156 10.3601273819157420
 28.5575320428301929 46.0661734196351134  7.0617625109328941
 28.6934935922298209 46.2361292767052205 10.1781889382454889
 67.0221580340373890  7.9495669337818287  6.4035903411679129
 67.1246264350286452  7.7285722386317177  9.5212298181910811
 -4.7655335205407976 11.1383358022019046  6.6440355016192179
 -4.6808915744986175 10.9006319253975068  9.7601780508811995
 -4.7528940420235974 14.3213855348924746  6.8907299716734522
 28.5186044931999270 30.2893660166350180 10.9586504056007179
 -4.6898831110052068 14.0872480949251067 10.0074514911230832
 28.5606482472164984 30.1898247744370600  7.8415345049297782
 28.5478174923903225 27.0135554437441954  7.9337073563550735
 28.3423633563553530  1.5083759209341465 10.8325153803567655
 28.4321962667186803  4.7557238149007217  7.7845852465793000
 28.3367866201828065  4.6783586976182594 10.9017937399377711
 28.4375912012075318  7.9417511398131984  7.8684007218672640
 28.3385839294266475  7.8612948415665391 10.9853112072849033
 28.4497415848951150 11.1223598073789969  7.9451958678139825
 28.3491677772189270 11.0567388584921549 11.0616870571372150
 28.4682089869964230 14.3011074530177940  8.0012674752400486
 28.3681346259719156 14.2595899895633309 11.1178188426791333
 28.4891514061728550 17.4791230233065349  8.0304144156310393
 28.3917628211948170 17.4657602978651916 11.1472935898848249
 28.5109451304867889 20.6571863019129509  8.0294255915118562
 28.4197049168770981 20.6737287395047105 11.1465137099432798
 28.5305622147866806 23.8355812350842875  7.9969745950781563
 28.4500835614090946 23.8815683911823946 11.1142746336063016
 28.4837934626596123 27.0873501511965493 11.0509672449639105
 -4.7366329553892035 17.5027085401697704  7.1263549486326268
 -4.6971757653920747 17.2867993207434338 10.2432753977499100
 -4.7177138219205030 20.6859824723100161  7.3399313948874010
 -4.6429131052033163 52.6221650801279424 10.8606297271760770
 -4.5323236238914442 55.7207480833274289  7.6560841341997303
 -4.6479575183477886 55.7975220309167170 10.7739255604902571
 -4.5365742857764415 58.9184769863019326  7.5938560755092359
 -4.6573698558050891 58.9635522057323413 10.7125743218859775
 -4.5435992114576020 62.1190477621068879  7.5688732697096697
 -4.6692806156313917 62.1239289497210692 10.6878198765434256
 -4.5512025113373422 65.3194953482237821  7.5859826314011327
 -4.6809137954229367 65.2839425546628433 10.7041362258500694
 25.6804059254974923  3.1704401424130135  7.6411004739751718
 25.5472734708619349  3.1033255636940589 10.7579337174929854
 25.6827521073163823  6.3607028975537379  7.7205269020396123
 25.5463200699845565  6.2796644135800825 10.8363671598319709
 25.6917814238944757  9.5423227930670667  7.8029538720014919
 25.5540621443297695  9.4678017274842787 10.9182933258944299
 -4.5331062905772184 52.5282515353370485  7.7435787478511173
 -4.6436913821266907 49.4345149745055821 10.9553309849485956
 -4.5401381808823507 49.3425080416846882  7.8384467872912857
 -4.6497677265521338 46.2336109160915214 11.0378891108392860
 -4.7014191236856044 20.4948305948148786 10.4570875506073282
 -4.6974980634407855 23.8709298587509231  7.5274107973286499
 -4.7032428335328103 23.7066217010430762 10.6448292566695670
 -4.6757411597037359 27.0584603826392112  7.6868891296169473
 -4.7020985885685400 26.9227267155921375 10.8048545107397640
 -4.6525237523142025 30.2476492219033091  7.8164894957990274
 -4.6968869586116329 30.1418143336266766 10.9350631417753501
 28.4338749250773297  1.5626166145879592  7.7142407990796196
 -4.6306402076401909 33.4343683983297524  7.9135281947103584
 -4.6101423165411219 36.6189919117379219  7.9743059996024668
 -4.6807651579956735 36.5831030583534371 11.0923192264840118
 -4.5902544210496803 39.8017686084723010  7.9951561171802430
 -4.6698681144290379 39.8048974571663550 11.1124350051179306
 -4.5710748958421101 42.9820126212547606  7.9760330933662278
 -4.6589131948274973 43.0225964635791982 11.0929426371497435
 -4.5535756276521226 46.1615866716113032  7.9209331440533175
 -4.6899243212707944 33.3614593899730991 11.0320569323888193
 -1.8844637542375910 63.6914883791212532 10.7945302833145451
 -1.7971900054512053 63.7099096963623026  7.6749842768619967
 -1.8726583566787125 60.5304196179430036 10.7957439221790903
 31.2452408461733775 25.4885874399259578 11.1430112210563639
 31.3163877314814236 28.5937321858976254  7.9345717836322107
 31.2758554517458229 28.6989016477382748 11.0509573681336946
 31.3317976659126067 31.7704216398415937  7.8096001328928093
 31.3077627598276962 31.9053773880153777 10.9256676020376418
 31.3428211404205079 34.9455383916415840  7.6543045937602718
 31.3404391032815646 35.1064199643248571 10.7700374200089790
 31.3480360378289511 38.1198293729434141  7.4735019710111885
 31.3721740486918925 38.3015268721785418 10.5890229519953252
 31.3471266287864339 41.2950420867121863  7.2730376505331238
 31.4022600541220456 41.4917816278204441 10.3887401671338448
 31.3399119472006937 44.4703735369118220  7.0596091697257224
 31.4300852961552373 44.6755602311630895 10.1761003146874991
 31.3261718368925273 47.6481429741469213  6.8428225610816913
 31.4526290287236812 47.8505122505354663  9.9595177090303348
 31.2975627227650257 25.4156871069406662  8.0264912386328362
 31.2168968053464297 22.2767285034938496 11.2000271359365726
 31.2765468051069604 22.2378493035585123  8.0834919570136918
 31.1901152074024139 19.0640662364703566 11.2213956292524504
  0.9258585271831035 58.9366246367867532 10.8743110493901707
  0.9588725367148127 62.0986730387822448  7.7356593665092381
  0.9150296825117963 62.0977432719803630 10.8559276278344541
  0.9512126098304687 65.2986085162268637  7.7575073058783506
  0.9037243635859658 65.2591590003767976 10.8773543241943784
 31.1838634054466688  3.1495823547436452  7.8153705442635806
 31.1323413093428414  3.0800241527758940 10.9344448848409446
 31.3081323253626600 50.8326451569116387  6.6367207276600562
 31.1855200239929218  6.3392753895842660  7.8961508875212241
 31.1943505358704520  9.5213023236118435  7.9800936378452256
 31.1341263522826850  9.4450699288961992 11.0981582485613046
 31.2097739871849598 12.7000024788339196  8.0489261107326477
 31.1470646850419399 12.6451558288792327 11.1660285794076035
 31.2302632565969809 15.8794570064210703  8.0922485338525210
 31.1665346566848633 15.8526955110130476 11.2088815271605782
 31.2532942632172706 19.0589310070846487  8.1049201402269020
 31.1294705532228839  6.2562236624923351 11.0147482357181783
  0.9331314483290568 55.7695225552313190 10.9282605198394087
 31.4701731334552193 51.0159255085660632  9.7537740584167043
 69.8524070807090425  3.0111274864086806  9.1558754047043607
 -1.8490668875576091 38.2052883220690518  8.0432395745579601
 -1.8979651026349067 38.1809070056980460 11.1608475439655130
 -1.8281739633286218 41.3852185989203178  8.0510235291828192
 -1.8833684494365446 41.3994703388869141 11.1686080114249275
 -1.8086825001540499 44.5641785518460622  8.0213465345601129
 -1.8704250993908003 44.6130720898954536 11.1387968738933800
 -1.7927775656304361 47.7435235980545656  7.9594908270620008
 -1.8608222135607071 47.8191433253341032 11.0769702336425890
 -1.7825037717982586 50.9264526549028247  7.8759969159773737
 -1.8554723693763249 51.0142901246093672 10.9936562671284790
 -1.7794479611032457 54.1150920578096972  7.7883077132865974
 -1.8558341441509678 54.1963135832582807 10.9067556525568605
 -1.7825568474310762 57.3097971608738703  7.7163283019414006
 -1.8621217025651313 57.3669429196391860 10.8358802148668030
 -1.7895869590158862 60.5088509950641580  7.6757299375624664
 -1.9134228743225885 34.9603680001347144 11.1131455030732518
 -1.8697395230755820 35.0243696896201939  7.9955249581528873
 -1.9290630877754473 31.7392881365167554 11.0256620613042653
 -1.8908351216813011 31.8407513739336672  7.9080766338088466
 -1.9857030413686956  6.3710609035893562  6.2233470483804032
 -1.9508704700065649  6.1593498706924565  9.3435462879770093
 -1.9869821843325455  9.5647385965640161  6.4601353802584276
 -1.9567565826338278  9.3205330865533309  9.5779746971482069
 -1.9840710110294080 12.7495823157255863  6.7185071540986891
 -1.9611243454878502 12.4957542190656969  9.8345940462611043
 -1.9763869463173951 15.9291616474342721  6.9765528451842336
 69.8169227336404248  3.1662686254311549  6.0322884392697240
 -1.9626622223571633 15.6848296494266588 10.0922445626493698
 -1.9620869416368514 18.8850507617684080 10.3343688316593134
 -1.9487184200508476 22.2889057835597946  7.4356765682953574
 -1.9587305197393259 22.0930487926282986 10.5520136481315170
 -1.9304959868075071 25.4722820238318910  7.6246671889158044
 -1.9516438358542396 25.3052803522282943 10.7417474149356806
 -1.9111578359378669 28.6561871957741019  7.7832013648082103
 -1.9418710528745011 28.5203440877841423 10.9008423940532939
 -1.9643297342745909 19.1078450844648202  7.2184430062977256
 34.0621026895541519 26.9954847731753063  8.0166232885364987
 39.6236113278685806 65.2179866850981540  9.0375638376424394
 28.4720801278379128 62.0374910475725159  6.4944874436061104
 31.2650279517996132 57.2286926708471171  6.3329632600278352
 31.4813002886393818 54.1715485129974255  9.5779265670537690
 31.2868303534951444 54.0262093430429005  6.4601036791018966
 64.3980395630917712  9.3088794610715979  9.7516299696333864
 64.2483984275949922  9.5222699698162749  6.6357938409241850
 64.4105650247607002  6.1393416280434812  9.5402088664082445
 64.2390104489445406  6.3305591363520497  6.4230382830237103
 64.4224051623259300  2.9827049655062008  9.3637310187054155
 64.2360800857541818  3.1305046193563730  6.2447308217187043
 34.1973174677751857 65.1840115488387397  9.2437368609526835
 34.0051742405240844 65.2679581253748751  6.1229843059576288
 34.2057932580779891 62.0451407820978886  9.1981112351860350
 34.2105943186888126 58.9073927633778780  9.2339698339106366
 34.0354205746199838 58.8362674774870840  6.1117009365416450
 67.1346700860758716  4.5701501837747962  9.3127430749809434
 67.0201978294618499  4.7521662758308931  6.1924263298180362
 67.1447664405420284  1.4235322396459016  9.1570024874717468
 67.0255071922277921  1.5441222129403247  6.0337969826659981
 36.9168417347148221 63.6310234375108479  9.0746458372646082
 36.8007540445054744 63.6727486949288419  5.9491422270879761
 28.7423193484192616 62.0205306365874804  9.6098080726648796
 31.4854231164686027 57.3185138816493662  9.4517805103658290
 31.2462677009115524 60.4380929015225874  6.2716101444331169
 34.0176513515694339 62.0522659820035756  6.0758574952474609
 31.2325941744569526 63.6493813687125183  6.2842942563925819
 28.7477438510694654 58.8762421960915461  9.6267915408907694
 31.4834405689172883 60.4602625144688659  9.3904541916428848
 28.4861621950690669 58.8305751891551836  6.5106069011987877
 28.7467171278837768 55.7277241504494754  9.7057233760222879
 28.5044773313145576 55.6284062826350336  6.5896503328479872
 28.7376204290069914 52.5726038854752034  9.8351323181826356
 39.5922899849283709 65.2967105395635770  5.9111966676873218
 28.5426149566462364 49.2469310651416521  6.8822363317445934
 61.6351658483305442 17.3036901242674830 10.3836563423651498
 61.5300141245784147 17.4617028291020944  7.2661310028072279
 28.5240642025600231 52.4337549851124081  6.7189938783949223
 61.5072551777022909 14.2762845338494806  7.0875330235433456
 61.6628604349919200 10.9012929356869304 10.0067145402508881
 61.4876821203221411 11.0927499176886464  6.8917509616421055
 61.6766005761044198  7.7205287828726936  9.8076358768191714
 61.4725426962949726  7.9058879563961977  6.6934521401280174
 61.6897501205621026  4.5534642710113129  9.6270043251024511
 61.4639236499824975  4.7124631068543694  6.5121384978142025
 61.7019969717487626  1.3988040756053615  9.4853974566626640
 61.6486228251276245 14.0964683398062682 10.2036529644593994
 31.4763675985415787 63.6005414126945681  9.4021552218651578
 61.4622132683461686  1.5111022928474489  6.3690804042244915
 50.1226585128287851 12.1286510008697430 17.3067680504523587
  1.5907530461844435 28.2463099496467791 14.0832602961398088
  1.5795925806182993 28.0992371087316073 17.4433447771837464
  1.6468219283271917 31.5343132994739435 14.2109061206093390
  1.6363810220409927 31.4227821101366800 17.5729955557059512
  1.7591920675904988 38.1089402838521636 14.3557524536779670
  1.7027843920623074 34.8216108096700694 14.3025887264997174
  1.6916883981224560 34.7486104068843318 17.6659719194720530
  1.7463149381554979 38.0756563214194372 17.7199993197097605
  1.5209082342705740 24.7785835429448795 17.2808058085237235
 50.0630751940585483  8.8156145465171267 17.2098050318223557
 49.9580242918411983 12.2233289422174565 13.9497390762201032
  1.5341725158820583 24.9569745509482388 13.9229946844014165
 50.1055135160371847 18.8124888320686736 14.0992294754061529
  1.4760876043997226 21.6644131878369670 13.7356633849990182
 50.0320311776703619 15.5215683887322307 14.0349347022734214
  1.3940542109110863 18.1483195108343693 16.8815104080269158
  1.4157410395230039 18.3659547930836986 13.5293668273997962
 50.1757995034205848 15.4446978341114338 17.3940511346229734
  1.3249410377273405 14.8383061141945714 16.6643963933374550
  1.3516319832017041 15.0581947895783976 13.3148876204263225
  1.2516962709764761 11.5310375631629913 16.4523505616387951
  1.2830153703632827 11.7385623824670766 13.1052776840454950
  1.1748875100400089  8.2250529278995490 16.2598653870436074
  1.2101619905350520  8.4057228751993858 12.9139833620364879
 50.2244077314266733 18.7625462870652591 17.4602814480797512
  1.8165113369487367 41.3976448461665072 14.3705132380064775
  1.4592630777714972 21.4615869166607780 17.0907028746676133
  1.8013732783254319 41.4025765624142963 17.7349237041981489
 32.6949473674457707  5.8537850390842223 17.5674257555974584
  1.8755100515550069 44.6891416831583541 14.3502358420001705
 32.9205200423461548 15.8261717348847775 14.3682203710399801
 19.5208979624161252 60.9284077563606132 16.9684412299008365
 32.8227069095170307 12.4783642712108982 17.6911101249075671
 32.8628484295325478 12.5301909804772347 14.3270613752548037
 32.7621416932059191  9.1634994135599381 17.6310460795688329
 32.8001249963242856  9.2271812747872097 14.2674497492328172
 19.3873556849445130 64.2756659172442113 13.6365111761707656
  1.0937325464938263  4.9201786024300329 16.1012915022979044
 32.7301897832712640  5.9134110544267342 14.2047535109999536
 19.6049674510978775 64.2347970965323327 16.9875943664597386
 32.6204166548314518  2.5468341314409071 17.5149824210710285
 32.6525555887233452  2.5893053633516145 14.1532287907275762
  2.3042590554599092 64.5873778810565398 17.4836772749939158
  2.3328689713049768 64.6048846962606405 14.1219755321231482
 49.7120031078498741  2.2656800978153560 13.6877802632215797
  2.2219342508053437 61.2824283364295752 17.4788559755445050
  2.2469521875500309 61.2717959388128719 14.1170695336901648
 49.9213352504903227  2.1961965361575344 17.0394312105329320
  2.1402097612726592 57.9768483719053762 17.5010536703461916
  2.1618595735312653 57.9402082400929217 14.1393978071499458
  2.0612826818348489 54.6695788189681338 17.5460257667691657
  2.0804470502130235 54.6134853112341077 14.1840222938970388
 49.7987219800320560  5.5948652195190931 13.7635933487081044
  1.9874381933464063 51.3599565673584024 17.6055718769541762
  2.0051694876472483 51.2950606454665774 14.2424687922797180
 49.9959275052461720  5.5052358998653634 17.1165994562181645
  1.9200659010678447 48.0462364310234520 17.6668048891077660
  1.9375685110422103 47.9871372484613445 14.3030059713695383
  1.8586345614781479 44.7268635858237928 17.7144092206697188
 49.8808468571349266  8.9147393563903989 13.8546266424715210
  1.1334253977436446  5.0593042889583995 12.7559371349994439
 36.0623334748477475 33.8654098638570886 13.9972491016039076
 36.5999567013637375 60.4794373961344789 12.6351365265761970
 35.7923304441454988 17.4048852297923453 17.7629910371519131
 35.7959980969131450 17.4175996981591403 14.3978910421535051
 50.4586447396446829 35.3418469415887060 17.3252229535458753
 35.7380271178161806 14.0820756418696789 17.7342450512679122
 35.7388180007872407 14.1248679374495989 14.3695504029081533
 35.6802860180406185 10.7642490685407228 17.6803479818202440
 35.6774816905918968 10.8259847733851231 14.3163312103131855
 50.5829308754769471 38.5078119987226160 13.8462403418472455
 35.6166276187694280  7.4518860639833955 17.6152078366887430
 35.6098037202280793  7.5173249311527268 14.2518326396370298
 50.5097207392327050 38.6527573509749445 17.2026686718030817
 35.5452927431685950  4.1432972682939031 17.5541990054040511
 35.5343142693941303  4.1977674310282866 14.1918378131113858
 35.4676927302008593  0.8364329946701849 17.5094842597014733
 35.4526454723947779  0.8700679950126624 14.1476360729500019
 15.9392576635025360 29.5060346193812606 14.1221942382793948
  5.1499045486200394 62.8771220549967182 17.4886949001579914
  5.1309382194516182 62.8840012731464810 14.1269333580242105
 15.9347861585983726 29.4562662036330671 17.4845898081870956
  5.0675429712124513 59.5719575821193175 17.4955026489272178
  5.0450949742603886 59.5511238140017056 14.1336651125151374
  4.9871503384596938 56.2657914597058024 17.5278649260517732
  4.9618864391834006 56.2216358977621127 14.1657464313611463
 15.9768329102808107 32.8121029364187891 14.1496762273743588
  4.9108023733821291 52.9579190626056686 17.5795478250000663
  4.8840317256611492 52.8988347867392648 14.2167115999511715
 16.0078993074183700 32.7878655516880215 17.5123876125367062
  4.8403834418962370 49.6466464936120602 17.6400252639271073
  4.8139338747944178 49.5860243041516000 14.2765388805675055
 50.4991073426671448 35.2238718831311388 13.9663364324038444
 36.6806135168993350 60.5100791621922411 15.9804639954865273
 35.8501731345314809 20.7068865421712189 14.3927132654672008
 35.9031557147481095 23.9951643216007682 14.3495467859491423
 50.1804784635862760 22.0988949159739541 14.1365111335865077
 36.5911968349898586 57.2077254593604749 16.0469604531804748
 36.5182003395770494 57.1137837421629868 12.7010971144727289
 50.2709693248876093 22.0802020892476172 17.4985081329761663
 36.5036817728613912 53.9047134456937513 16.1714989964654379
 36.4407955884559271 53.7577567570021344 12.8253047403888978
 36.4199185682219380 50.6001188233124992 16.3412261195276223
 36.3681931986294913 50.4149101100340644 12.9943889655979934
 50.2573269611477684 25.3820527304180210 14.1434107895044967
 36.3401974384166522 47.2930928364684817 16.5405089276380366
 36.2993461363307048 47.0855913296395272 13.1919323692037196
 50.3168471088316167 25.3970234924062304 17.5057381932022018
 36.2653767186642497 43.9832882403578083 16.7542317426689316
 36.2350218960924053 43.7680425916070632 13.4032059436576478
 36.1951785191531172 40.6704865196703338 16.9689430586789278
 36.1745964047245465 40.4602635749345154 13.6153412600921335
 50.3364189240610429 28.6630751052248058 14.1176456177697851
 36.1293465336760136 37.3540849008385223 17.1728271151146643
 36.1175484850381849 37.1602129563736767 13.8169049894401681
 50.3632046281663648 28.7132859533282137 17.4796284856813600
 36.0673241251004910 34.0341966107950284 17.3555051453514473
 32.8797912077045211 15.7984263286750934 17.7327262427034569
 36.0084877961496872 30.7112006033094787 17.5097094961606068
 36.0086407701802571 30.5737383604268054 14.1490615006477842
 50.4168329512721343 31.9428545587696107 14.0582300436004441
 35.9523116703437395 27.3858138256626873 17.6302918909862179
 35.9557666092193742 27.2837717982571668 14.2677189197373817
 50.4099952131777300 32.0285195068692659 17.4189477427191974
 35.8981706725257865 24.0587385782440606 17.7136250708778533
 35.8451890544586789 20.7311574377931827 17.7575971350672610
 19.3008136712291360 60.9354464173569923 13.6175018410254722
 33.4462391049508696 45.7090757572162900 16.6905408263655630
 32.9353263089218444 19.1226093379352839 17.7455155462693135
 53.0987721296548472 23.6917119082121488 14.0771454018429729
 29.9666597420725367 14.1934042546880246 17.6620250575944375
 30.0447195619057226 14.2361805883705070 14.2988038092713783
 53.1722795514080602 23.6619983669743483 17.4383913301561542
 29.9066952841051616 10.8759316132277153 17.6086748646726576
 29.9866401765312851 10.9358828905667700 14.2460423825300389
 29.8426444122041303  7.5640694300930029 17.5448332791465162
 29.9225057883101293  7.6272569753849107 14.1825524797162075
 53.1805389798902510 26.9729645435722851 14.0964231390735453
 29.7716693740933565  4.2567663044607622 17.4857166351947910
 29.8502574141176815  4.3076554939426188 14.1242396930631404
 53.2186305962778547 26.9764711762506053 17.4582604056328243
 29.6943481197099857  0.9511410089652849 17.4439608018952335
 30.0985133199786965 17.5319804672641304 14.3291181379473151
 29.7703180701302941  0.9793272401509046 14.0832441809182640
 -0.5510354784164297 62.9927549659516401 14.0665345351448146
 53.2633320039764655 30.2530217724624499 14.0835393849646024
 -0.7059169443127660 59.6870808574710878 17.4382889754347907
 -0.6369290863498877 59.6594092884707763 14.0775492455791031
 53.2648648307365065 30.2912555649748043 17.4454649470677801
 -0.7866004310834398 56.3807125879023090 17.4749428231979849
 -0.7208078595306366 56.3294355451366755 14.1140360527603281
 -0.8634674203976335 53.0725845525479798 17.5307776598283667
 -0.8003667025418839 53.0062103948150778 14.1692192934392374
 53.3461802716216980 33.5331897743016327 14.0380333024144832
 -0.9340176799081178 49.7616159184396949 17.5959777067734962
 -0.8735239450000480 49.6924509731568023 14.2334153058527857
 53.3115882547299691 33.6052595324962979 17.3987712077676164
 -0.6233902734071662 62.9922818067644812 17.4271655075097449
 30.0252686182048230 17.5153554305846200 17.6929066565599484
 30.1485512627080610 20.8260562711266317 14.3301246924123209
 30.0839512211417741 20.8402742226205113 17.6941538579414619
 52.7808157389958765 10.5199985335214574 13.7475767209747772
 67.2590989643283166  8.3817697073988366 16.3157629381148190
 67.1798744328179396  8.5614150281588994 12.9708526483342812
 52.9668894629450620 10.4061579340110733 17.1014095347071269
 30.7107340508676572 50.7460972270148645 16.5020300380228164
 30.5713355367722777 50.5938197127068037 13.1536654548564709
 13.6025541916961110 54.4362950785445676 17.3372140184346542
 30.6307244688169007 47.4355297463118504 16.6733970111582899
 30.5134555979868125 47.2620013987582368 13.3234023940159307
 52.8603141468895714 13.8244518947859572 13.8561391521866319
 30.5541251225322306 44.1198035785208091 16.8580484554723782
 30.4614865158677617 43.9403406748938039 13.5062033489674498
 53.0239282997313524 13.7187160029738529 17.2121815264386910
 30.4800964087716544 40.7996135608606139 17.0423048931319983
 30.4138121965506585 40.6262400597159683 13.6879202832604818
 30.4082293119302776 37.4759742882189784 17.2151834063148996
 30.3689108037859299 37.3177064678342063 13.8579277487110115
 52.9388187567300363 17.1195245102931004 13.9526358076690258
 30.3384378251336955 34.1500126108352475 17.3685264163437481
 30.3256408498996635 34.0133972655608474 14.0087885180752068
 53.0758822861824697 17.0328904828182672 17.3109339017622794
 30.2711459896876462 30.8227091371572257 17.4967929900237813
 30.2827847148407976 30.7126797954571913 14.1348744867186280
 30.2064682609328763 27.4948227297553665 17.5957158094172357
 30.2396866463908296 27.4151317268525432 14.2323840366194414
 53.0181284342716026 20.4077593321608362 14.0281644856863590
 30.1441837705203426 24.1671076586119966 17.6620620579204619
 30.1953114706082069 24.1199354551922980 14.2980781794853371
 53.1249463810989013 20.3475095645936470 17.3881718187159748
 -0.9975279990068578 46.4457530166990011 17.6566650035005424
 -0.9404884160640576 46.3893300046631651 14.2933956094446408
 -1.0554208359539419 43.1245078609824048 17.6975898357215513
 -1.0033736304552794 43.0949050536785805 14.3338306220074170
 33.6930439702991507 55.6311447641919870 16.1822230099822839
 33.5706665943529714 55.5234234604320633 12.8359318654212444
 19.1980163241231203 47.6954510329376689 17.2016232030274949
 33.6066101231352690 52.3267041121594190 16.3193920159340990
 33.5000512951409135 52.1736911669052219 12.9721950339849226
 33.5241679629893383 49.0199083250828735 16.4939783998606302
 33.4345916890320325 48.8361834110413113 13.1455511071153612
 19.0825669344620046 50.9322192176255371 13.7564604614774826
  4.7759147566191356 46.3298512240873919 17.6945844230434695
 33.3740448347117749 45.5104725715573437 13.3404214038677953
 19.2737623243130933 51.0090208587959850 17.1112173522607769
 33.3723189422315514 42.3940446788564955 16.8944656624507275
 33.3185225720234683 42.1946432169461616 13.5420231881939266
 33.3013746976351683 39.0754070530455948 17.0933040633534397
 33.2671006421940945 38.8865708232077196 13.7381947774459370
 19.1454159846825647 54.2595830731803730 13.6812314400231472
 33.2336594740767950 35.7539830203860163 17.2765880910514475
 33.2179519809682731 35.5845056349129152 13.9187444367840918
 19.3529402930311001 54.3169696959993047 17.0347237742924911
 33.1689780506809129 32.4302210345447364 17.4362608943710171
 33.1697658299703519 32.2868153427744673 14.0761494294997807
 33.1073604201665646 29.1044898926821460 17.5664686173943601
 33.1220407159261327 28.9924194524754242 14.2044793055072365
 19.2189311592719783 57.5953490487006547 13.6330158202709288
 33.0482549889244410 25.7772201360898379 17.6631867460957785
 33.0741449201675124 25.7004242269094867 14.2995834847485668
 19.4357337796419181 57.6226348884243080 16.9847668178430737
 32.9910902790077003 22.4493933720306025 17.7231347507787902
 33.0251414747300487 22.4095156400621285 14.3585631084214498
 19.0290187507444948 47.6128974223809891 13.8455431984876984
 32.9742951389338543 19.1185622448359531 14.3807062994467820
 69.9693232012438386  3.4650226409662523 12.6927812657871293
 -1.7430897538407661  6.8161863513959249 12.8323628601298907
 18.8601971039221397 34.3739092260000163 14.1113159513614139
 -1.1094361265195105 39.7997974915265758 17.7070766472798589
 -1.0638604825876161 39.8056087593301484 14.3429082258260348
 18.9041991351297867 34.3919527592179151 17.4734780468789310
 -1.1620315025875234 36.4740294589875305 17.6788541797571490
 -1.1239867220945206 36.5187326507721863 14.3147712427861418
 -1.2138741837884861 33.1492797740997318 17.6110945670432777
 -1.1845692710900133 33.2331070854046615 14.2478978275249251
 18.8985683870450565 37.6812785785955668 14.0727852090012444
 -1.2661862302172153 29.8266785453007337 17.5053363721438302
 -1.2461790386296270 29.9477287285742158 14.1437664668958121
 18.9779105552891281 37.7227001957330188 17.4335910040159021
 -1.3199032787269747 26.5067640529528283 17.3641465296393172
 -1.3092468404199491 26.6623701396503172 14.0048821203167364
 -1.3758718286427181 23.1902102955463931 17.1911732058516336
 -1.3739111661361636 23.3754856989840043 13.8347371259231444
 18.9388444750663894 40.9895040863311166 14.0125487482188600
 -1.4354158109076043 19.8773391096917003 16.9927836482342087
 -1.4412233391659708 20.0844828824669577 13.6394233552572537
 19.0511040288838771 41.0510530253448351 17.3718084584324082
 -1.4992175118727533 16.5679672277533498 16.7788405726433254
 -1.5114553690336661 16.7861649820159542 13.4285120375655591
 -1.5680542983486110 13.2613468364661191 16.5621960669095465
 -1.5855983009672341 13.4765340194522949 13.2143123408335690
 18.9818615060563296 44.2993778657856794 13.9345124352364422
 -1.6413474903656133  9.9560143149774731 16.3568753487075931
 -1.6626909864587633 10.1533543442180214 13.0109137489776341
 19.1242152338959137 44.3758719548098455 17.2921234359399527
 -1.7194152965456722  6.6510021905960146 16.1770318996890730
 69.9934476808205090  3.3464339404497410 16.0369642571523627
  4.7513149461130944 46.2835378289632686 14.3305871532491249
  4.2160740789361704 16.4193215066172726 16.7990194190032440
  4.7152423907545371 43.0072420383624774 17.7280413317273933
 41.3177116657522205  4.0281997885796041 17.4688659417491898
 41.2187180164639670  4.0899218812079745 14.1089823055541874
 47.7332319592392764 40.2046893067273388 13.7096913068559516
 41.2399919465660005  0.7202244005703256 17.4190294579644380
 41.1349580282653164  0.7609382444979041 14.0594998145635106
 47.6630581949612662 40.3853500327344861 17.0635015122090117
 10.9222896654287940 62.7600804861076327 17.3930398429055835
 10.8121139688874202 62.7740625234285758 14.0334834975705114
 10.8398578278239501 59.4544650529567491 17.3946048320029796
 10.7260674855593070 59.4403991238311633 14.0351546463438961
 47.8182799585499154 43.4977262244220810 13.5332200776560185
 10.7592259864294402 56.1484907799762141 17.4227795306224564
 10.6438575569808158 56.1097652667071998 14.0629404737378909
 41.2969737225972722  7.4111418863221887 14.1740872313637958
 47.7221835258556979 43.6924245850852273 16.8837874597467881
 10.5687642347392590 52.7858819526769736 14.1119409276440884
 10.6109708190810554 49.5307696599614005 17.5340115086305488
 10.5026090884292689 49.4722320585755853 14.1724703264683551
 47.9056991806758745 46.8004347696667438 13.3484697600686673
 10.5440478828883837 46.2143616241101896 17.5914376424864898
 10.4436758795906268 46.1678565971397035 14.2291367868035348
 47.7869066371748303 46.9972394863988754 16.6961892489119350
 10.4792718113699426 42.8922577952590629 17.6311385341813747
 10.3899051227963444 42.8695977065728471 14.2679749736807189
 10.4146987080174203 39.5660055353506621 17.6439295819262973
 10.3404029161311506 39.5740708427462096 14.2802769307771449
 13.0166452724597459 24.6366351720193535 13.9944764225584173
 10.3491944440474590 36.2374454738753613 17.6257460690367935
 10.6824340033105649 52.8413650357116538 17.4727709944436533
 41.3894643698670919  7.3380605316001830 17.5352307730219437
 47.6085691006345755 37.0760215632871706 17.2253075579921742
 41.3680997603571399 10.7214838874870857 14.2443963433166321
 42.1028181287512240 46.9299899266821612 13.2003737880929037
 41.9872712538668509 43.8427225945349974 16.7639938786604183
 42.0243892720953127 43.6212576190489756 13.4143384046579968
 47.4174417082527242 27.0724173566810258 14.1743951717702394
 41.9227238765422712 40.5351484306742833 16.9773777112355866
 41.9490836465893722 40.3227401810982613 13.6248729648225577
 47.4618116018855432 27.1304833420940028 17.5368216315793291
 41.8633754411747248 37.2237429868681886 17.1767643597324664
 41.8769283970327635 37.0311855626150788 13.8210450158369902
 41.8084898719259286 33.9083272983674888 17.3522158796972938
 41.8076895958809445 33.7436420152589491 13.9935570658987025
 47.4928260992714684 30.3538250775905709 14.1055646605685681
 41.7566335853992285 30.5892812574940258 17.4968895844583301
 41.7406311050936765 30.4581247289984596 14.1358931208610983
 47.5084462689166998 30.4480365595570746 17.4665825936063648
 41.7070790543711212 27.2670878394209879 17.6065585378304093
 41.6761199787192496 27.1731857028807262 14.2437617633065141
 41.6590239177372510 23.9424461581006049 17.6783429579790194
 41.6145369028294922 23.8880708783596809 14.3146020475825129
 47.5705300327323997 33.6350164121853865 14.0024045313217727
 41.6109817073862303 20.6168723332142072 17.7112922701106967
 41.5545545875758648 20.6020040025199123 14.3471777545832868
 47.5572817360600837 33.7636670818785802 17.3616950010261277
 41.5620083098534323 17.2918972305738237 17.7063773205725212
 41.4949605816193881 17.3138566072330669 14.3425132084359976
 41.5100346527286419 13.9694653925113759 17.6684130592585049
 41.4334325795559408 14.0212653811783525 14.3052648097582775
 47.6507386729237723 36.9178789621321641 13.8685436571224514
 41.4531602936898764 10.6513063485493138 17.6067221326045171
 10.2945747552602000 36.2785520900263236 14.2622070716904528
 12.9672068471386535 24.5225331365304875 17.3536233668542508
 10.2824382320149343 32.9079351065333867 17.5754775383760879
 10.2514070471208250 32.9815693627384547 14.2126891246564302
 44.5095282296459445 25.4802806516865630 14.2445141543910232
 13.2190877170094918 41.1515430229220840 14.1986118905321366
 44.5152999313628115 22.2176364466988794 17.6460285230717169
 44.4435690908460188 22.1954134770633082 14.2825057603019090
 13.3199511756813038 41.1711584674884463 17.5609447480185672
 44.4684410982253340 18.8940318370320384 17.6475666424341249
 44.3798904294931091 18.9087834455786634 14.2843969395210735
 44.4191305072901415 15.5712389243198732 17.6147550912453461
 44.3159772334325339 15.6186639350313321 14.2524091193883269
 13.2674481918897627 44.4521904383663653 14.1603761873472482
 44.3658402806946199 12.2516721000044146 17.5545510103905933
 44.2496938098334596 12.3221869566362070 14.1933323445060786
 13.3879229130715363 44.4952182270417396 17.5216881797598099
 44.3062109424448352  8.9367238359415353 17.4793210552398577
 44.1791928191051753  9.0163047699380101 14.1193913671281859
 44.2384344520020605  5.6252856899171251 17.4037840334408180
 44.1022437822927458  5.6990958883422822 14.0454629639670223
 13.3206272216712573 47.7562177157995364 14.1034848075924995
 44.1634450975625370  2.3158954224173698 17.3405794867385410
 44.0195043470441334  2.3727456412805688 13.9830940197710039
 13.4562627013811831 47.8144988259625379 17.4635285877050244
 13.8472380291257444 64.3543999445587644 17.2982630447408781
 13.6969357319990159 64.3867387179607107 13.9410679684042229
 13.7649498167124822 61.0480811427027135 17.2829984768239804
 13.6100851439709221 61.0515148913694361 13.9260361504197441
 13.3802098040364790 51.0669153074303921 14.0380827719984485
 13.6823939013997933 57.7422534689127858 17.2968098089776383
 13.5260103804369649 57.7171806135702639 13.9394437032784086
 13.5270947456764077 51.1280358901597083 17.3972582757503034
 44.5613681977626399 25.5403697774748650 17.6078703781453783
 42.0579827776536064 47.1475801630164071 16.5480579523831146
 44.5784072161162683 28.7637779034844776 14.1708108813270144
 13.2514407237204761 37.8436779176063780 17.5751458820224045
 10.2140790120080034 29.5785747043789371 17.4942228715160368
 10.2097595445204483 29.6818037617614046 14.1330691713342347
 13.0551795312443204 27.9438516934553149 14.0878712539653126
 10.1442552759634790 26.2497908014212022 17.3851222265110188
 10.1684095313660379 26.3790078140651616 14.0259251283346664
 13.0395639456177079 27.8523892860465416 17.4489806404165968
 10.0732113582524185 22.9225427704609395 17.2519805748159101
 10.1270030969902596 23.0734009124996007 13.8950762023470880
 10.0011181510074021 19.5977851047989589 17.0996332512205598
 10.0849137615432234 19.7646108343694458 13.7449893926982316
 13.0938025330439825 31.2486646288722589 14.1567004422164082
 45.0330701980067190 52.0267071129584551 16.3200319662116868
 45.1368668908034536 51.8476053242739212 12.9753539037424535
 13.1111648489000352 31.1832945571013482 17.5190712244953026
 44.9569163715328415 48.7246436074925668 16.5058880093608167
 45.0489098627239954 48.5201801239576369 13.1591712061717274
 44.8862278167351292 45.4211600530595376 16.7086591951029533
 44.9634658014023572 45.2078744782523003 13.3597749986561070
 13.1334633665665415 34.5510957799061842 14.1985195105590520
 44.8217337137340479 42.1155012169413325 16.9127571487041237
 44.8808537882743011 41.9082871898963134 13.5615401928372368
 13.1818508088776341 34.5140289656870181 17.5614633586975586
 44.7625862101789096 38.8073574892704727 17.1057392209251908
 44.8010942339669569 38.6167659158435868 13.7515136931699740
 44.7078182699772597 35.4956185057939422 17.2782083405525348
 44.7242552474574282 35.3304365223223513 13.9209421496273560
 13.1747935329988604 37.8516615274964892 14.2122520072785878
 44.6565727241145396 32.1800469761687680 17.4224519032095060
 44.6502681212853005 32.0466355052316914 14.0622962892540624
 44.6078900794762134 28.8613513303205877 17.5330457056252094
 16.0155480185310886 36.1169770986922671 14.1515218959466651
 47.4162347064466800 23.8114302998382854 17.5721171773889928
 42.1338444519578061 50.4508304830673566 16.3435161417919943
 16.3663430674635855 49.4130170902903316 17.3015545120472325
 39.4014900938071975 55.4804002092649213 16.0719451924291370
 39.3935435203148927 55.3479995074398943 12.7264125015506107
 39.3167579024486216 52.1775410327232336 16.2277697757457808
 39.3130731642761830 51.9995561600259890 12.8818567997264353
 16.2604954306177092 52.6626200515317962 13.8723995417672423
 39.2363693816788341 48.8732809107925661 16.4205475890471213
 39.2365265454228478 48.6660364830335652 13.0736880465881882
 16.4414116514649606 52.7234985148501565 17.2287686436990519
 39.1604716732583995 45.5676878719399028 16.6344928506610543
 39.1634858671752113 45.3464957295543059 13.2853009026795874
 39.0902899333644598 42.2596026811182028 16.8546820458109678
 39.0937419514037003 42.0387435513377952 13.5030948313858143
 39.4769426240043941 58.7098918413410118 12.6229712546552744
 16.3313074695956360 55.9909752185925456 13.8175536983603191
 39.0273398697807252 38.7399002125140797 13.7142585374339792
 16.5206203417291988 56.0298923504623261 17.1725819229765264
 38.9655323155360094 35.6326074181900054 17.2647229622224643
 38.9638232504275877 35.4470703018752928 13.9076500109591876
 38.9090023408280388 32.3133199502874788 17.4342795265524479
 38.9027123658384539 32.1578084213650399 14.0747228068879071
 16.4112806641110858 59.3260958039952158 13.7892130161955269
 38.8553007001972261 28.9906138193917329 17.5711232124596712
 38.8432664917344184 28.8701528493138611 14.2094843694601316
 16.6031293157652051 59.3356103675570239 17.1436253729996686
 38.8039474989934092 25.6652194893314380 17.6713190243704723
 38.7857309262407881 25.5833073126375936 14.3080201226238675
 38.7534917591983898 22.3385335472592921 17.7323221442972283
 39.0256403127106992 38.9480935472947252 17.0684880725008519
 39.4897505062983925 58.7826201255935459 15.9680355961797602
 16.1998565715718570 49.3440407744882563 13.9441748966013357
 39.5618874960798905 62.0786875453214790 12.5817432247121488
  4.6930470657548939 42.9887168312097074 14.3635439431539069
 16.0804187117177797 36.1189459986604717 17.5136952769848797
  4.6568202570662658 39.6807372261749336 17.7294897336940274
  4.6377493088031398 39.6979388813390557 14.3651051130689904
  4.5991282750105302 36.3528315473989920 17.6941076470079679
  4.5846054099096811 36.4084837769758209 14.3303887997370403
 16.0560576884678348 39.4214921061410735 14.1281385313286041
  4.5406872854282092 33.0250329463695707 17.6209042826009750
  4.5326561516457202 33.1189560936308212 14.2583777937300482
 16.1521044496957273 39.4480742373141453 17.4894161750476904
  4.4807770865844372 29.6985952163716540 17.5113278431136479
  4.4817305982966325 29.8283207388994462 14.1505705336865244
  4.4186516572826697 26.3742301298949364 17.3689078417147940
  4.4315857598174331 26.5358096900786222 14.0100507738018916
 16.0995185698557144 42.7262879244447191 14.0821788092865745
  4.3536829557006564 23.0525332365783839 17.1979489746478684
  4.3811950793013068 23.2401958890733447 13.8414342182486774
 16.2231048313070829 42.7743311742038372 17.4422162913730361
  4.2862509634642620 19.7341055557282488 17.0050342884181092
  4.3296083546266164 19.9397191307417536 13.6510556856361607
 -4.5315352918421317 11.8877845768461317 13.1585015885264109
  4.2750677915084196 16.6324040668401274 13.4477142950268984
 16.1468841494025028 46.0330424282697308 14.0179900909819999
  4.1434707950594172 13.1080838538724933 16.5912688252867717
  4.2165093184445066 13.3159723821150617 13.2424321447375082
 16.2941823030374664 46.0964152020834703 17.3768155279248440
  4.0677505374702001  9.8000908975613346 16.3951279715489839
  4.1524935464522521  9.9884446279396322 13.0480494207378790
 39.5797537098717171 62.0853468060195226 15.9264747486131082
 38.7293320831815109 22.2968353216370971 14.3679700286944954
 16.4966200733010773 62.6634431464560322 13.7912084821169394
 38.7031520710380050 19.0119474361507947 17.7537120519915987
 38.6730572859192705 19.0093896869846972 14.3889928054612390
  7.5686319113065315 41.2868755142899104 17.7007830191083677
  7.5136978984511469 41.2849812584102693 14.3368088306098933
  7.5074075462372285 37.9592412396209440 17.6882828071253151
  7.4629141266275330 37.9930189137483865 14.3242943589665206
 47.1366993483587109 13.9222934239754430 14.1200856202727074
  7.4452710283920283 34.6306046503451768 17.6402594020649737
  7.4146905836030621 34.7008251550331579 14.2770394500702054
 47.2730702536288874 13.8500693242741217 17.4800601062122709
  7.3819743722799620 31.3023790132244102 17.5572738842470351
  7.3680319609680334 31.4071255190765051 14.1954497060352640
  7.3166097300616393 27.9751703349897660 17.4423134946097527
  7.3225660935969223 28.1109521182761526 14.0824307546309306
 47.2054033712793668 17.2157785989023679 14.1793669598926559
  7.2490166345975942 24.6493299036799982 17.2994497426353320
  7.2773617800951529 24.8115335003201452 13.9417341842652878
 47.3237100540571376 17.1697843381097428 17.5409302653102905
  7.1794373267436127 21.3259483021639653 17.1332231281037224
  7.2320601614190192 21.5083596652009810 13.7779697071982792
  7.1078804003925411 18.0056260929571685 16.9498077843034878
  7.1850714004121166 18.2004852577250524 13.5969783475368828
 47.2739014547534424 20.5040852634699782 14.2102070252583523
  7.0347922665077824 14.6893725274726830 16.7576921323892023
  7.1350510115410941 14.8864382798101111 13.4073107654074981
 47.3708422875493653 20.4909472702331534 17.5730268213487086
 42.3004099615559994 57.0551493924389135 16.0325999826136503
 42.3541686097271182 56.9447459265556404 12.6880703806671242
 42.2148069191006456 53.7531189758111836 16.1666589860267429
 42.2682592965953177 53.5916140951836795 12.8218336966110229
 47.3442226516985230 23.7893441234244101 14.2089255260535285
 47.2172096645713282 10.5339505535533888 17.3998377027524498
 42.1839963324127183 50.2530747300405949 12.9976582621275529
  7.5680246200207373 44.5788451358449080 14.3167444247657247
 47.0654277290404437 10.6204988011342465 14.0413443362489829
 16.6868952417847964 62.6419531949479804 17.1454641581218787
 38.6515803279474639 15.6872940007997475 17.7381003212265078
 38.6154925516713661 15.7193282263251284 14.3736217681070446
 38.5965544947584931 12.3664808271608795 17.6923498362002469
 38.5547585451903956 12.4241619115600326 14.3284609470846451
 46.8203689098706377  0.6532284877658524 13.8236634259807420
 38.5362647992338339  9.0508816216442565 17.6281147731097221
 38.4888807177727372  9.1201474820029524 14.2649278622551989
 47.0050731434064488  0.6028850719137547 17.1780437576424774
 38.4685798616762114  5.7401608236097896 17.5608796057851499
 38.4158309168749597  5.8048691777698966 14.1988203186942119
 38.3935998336690858  2.4321597503838013 17.5045648084898495
 38.3357961212592073  2.4802092476237667 14.1433705878217495
 46.9065571050697372  3.9842169714417515 13.8817773924371224
  8.0773252813764547 64.4718668428035500 17.4687432931715456
  8.0147173894172301 64.4957516548508494 14.1076838959036959
 47.0826134559248501  3.9115541723037284 17.2368635269876052
  7.9951199221615923 61.1662446341639949 17.4592019888212278
  7.9283660358478931 61.1624865143897196 14.0980514991189114
  7.9134982932135545 57.8605569464530376 17.4768270396011935
  7.8436622844576549 57.8307328386585127 14.1155857578489741
 46.9888414398367473  7.3075472257937495 13.9574474372056194
  7.8350715917619969 54.5540087747536617 17.5179432441164629
  7.7635397227702061 54.5038609687031652 14.1561726172047671
 47.1538654246469235  7.2215963386464121 17.3141781922995186
  7.7613601724858112 51.2453146647624393 17.5748574795302410
  7.6909485018168775 51.1855612892264489 14.2121646519548221
  7.6936426594190559 47.9317653908207078 17.6343054397414498
  7.6265740106087154 47.8779450150608312 14.2710407404189326
  7.6301766179831505 44.6118216619664949 17.6804908960261713
 -4.4627470542535583 11.6864542088415799 16.5054148858378262
 13.4483832476296961 54.3874806959086214 13.9790452029331487
 -4.4494747555969525 15.2000031273121810 13.3618232093309306
 27.7818894535890415 55.6991895358952860 13.1117806899897982
 -15.3632876502894948 48.4248626021884618 17.0285235139459949
 -15.1862542495627455 48.2903208219827960 13.6760950845511893
 27.9827519183748272 55.7763734518559886 16.4583979670082030
 -15.4244043385230079 45.1162756780645182 17.1501222343082205
 -15.2695994326264586 44.9878771514305811 13.7955966015268388
 -15.4806328857917350 41.8063462080322239 17.2599892064538381
 -15.3530453930722111 41.6950338520675174 13.9033242244987161
 27.8565870391289323 59.0515065925271827 13.0507606304455628
 -15.5328889415748055 38.4947781782467118 17.3486095338360862
 -15.4368209002274188 38.4084661383529991 13.9897839680283891
 28.0705447895896860 59.0804179541567862 16.3964998023182211
 -15.5821337443801369 35.1819061040446925 17.4101137635135395
 -15.1012839058522452 51.6051635768276498 13.5572683322619429
 -15.5206352608352223 35.1254016703244929 14.0493485255813813
 56.1922733823545002 31.8444420266978234 14.0791557182521885
 27.9382124946661357 62.4067476606317726 13.0400777922606501
 18.8302939769326620 31.0603692169180619 17.4888707382285347
 18.8229004905840327 31.0667552022403122 14.1262522607596566
 28.1590456070936135 62.3839091718775052 16.3854958389872998
 18.7566984550098681 27.7288598297418076 17.4792895855431389
 18.7860280523065626 27.7592528797361808 14.1167730360880661
 18.6836670468191919 24.3978893740479812 17.4448095934724527
 18.7488596425989051 24.4511215025231188 14.0833604632759499
 58.2619739777499603  0.4134439720927284 13.0812383506288530
 18.6116475766478899 21.0685187221248356 17.3873604048491330
 18.7108110041179714 21.1421178728310117 14.0274648194087241
 58.4815446178178675  0.3418114018188562 16.4264737168454822
 56.1665232361055473 31.8677782257287738 17.4408154812141838
 18.5404290617867744 17.7420099713507433 17.3100069297783250
 -15.2961114233412303 51.7318753736510644 16.9075203294173413
 -15.2226688131901273 55.0378420951444696 16.8007925604629911
 61.4618669138034974 12.0131704726630186 13.3619251435114261
 15.7887079827104131 22.7950171889074120 17.3544667411646252
 15.8648113604298242 22.8894188554884828 13.9947514109161002
 61.6051060985600074 11.8425210420614988 16.7103410859978254
 15.7161749791001704 19.4673867237904616 17.2574637149520775
 15.8262036220021187 19.5783589906676809 13.8998747407574914
 15.6436743165956589 16.1430489457741047 17.1450513910388409
 15.7850935383161008 16.2649951792620477 13.7900080766123398
 61.5498309171717963 15.3180245276613576 13.5312674179914101
 15.5709886482570088 12.8231185384625554 17.0237251899342219
 15.7400835777848851 12.9481741241361590 13.6709323343853182
 61.6674423212432146 15.1491078884059114 16.8822846344211399
 15.4976796804830883  9.5091098117936248 16.9027874532818316
 -15.0132001034051843 54.9322694028371501 13.4521592812325217
 15.6896297319349323  9.6260741917273407 13.5516657845503659
 15.6314743294629110  6.2964665449884851 13.4450683018492185
 27.6571237896776161 49.0177471568687011 13.3564140480779336
 15.3431287330089834  2.8991274242417857 16.7157231841825578
 15.5633269365124356  2.9583341227280164 13.3662397998470031
 27.8160811379956172 49.1608631125661759 16.7062630788628823
 -14.9763333182497096 64.9445478590733813 16.6741431548270960
 -14.7505769842767904 64.9601068180720631 13.3253467485114605
 -15.0605843483046762 61.6438391650116841 16.6755243342189132
 -14.8351017371342024 61.6133782093434519 13.3270857145828394
 27.7150464879141367 52.3534237677475502 13.2173502507454064
 -15.1436282215412739 58.3419633816584735 16.7199727077805349
 -14.9237617060614802 58.2690031829737123 13.3717135370549567
 27.8976474932239711 52.4707414481482104 16.5653919620182890
 15.4224674566697448  6.2016426991071363 16.7955304004278041
 18.6710123224829303 17.8317735954127947 13.9521845683231103
 18.4698973021956441 14.4195473397444900 17.2177607759320992
 18.6278428482295588 14.5195102455426923 13.8616438086798190
 -12.6794618604167457 36.7596584618937996 17.4505803132391755
 -12.5956590227920362 36.7182169474519853 14.0896724366394288
 58.8243932597002441 16.8816249055974374 17.0723046014782085
 -12.7271941562028470 33.4449310461685556 17.4661690072785873
 -12.7739572240851551 30.1297227267191516 17.4488319124938265
 -12.7579640401343415 30.1558087137780255 14.0869897189957864
 58.7882006285146019 20.3087270684795769 13.8476531857973875
 58.9750660470564796 26.8153291687878195 17.3978552256889856
 58.9560260533781459 26.8753391379478010 14.0366089755333832
 58.8774034039235090 20.1914375583830221 17.2045304940871446
 21.7997553935006039 35.9961113778663702 17.4043611686681459
 21.7445785072961932 35.9355284167714686 14.0433099526155480
 21.7258411526858772 32.6651221169017631 17.4624111819341756
 58.7020854676531911 17.0190614099111670 13.7181919376058374
 21.7070649471597612 32.6275762866559802 14.1002856068118874
 21.6523902189683568 29.3335463698566841 17.4959702632147831
 21.6695602291988045 29.3204655513403800 14.1334775385364964
 58.9273499892744113 23.5025063585200868 17.3148910158152667
 21.5798420584959096 26.0023365420882797 17.5041310436542901
 21.6319514884532396 26.0135202120065507 14.1421240175208691
 21.5085243422367718 22.6724142499774999 17.4872209205429741
 21.5936829018430352 22.7066155442051993 14.1260524445864650
 24.7111695921789973 44.1241779666842788 13.6991887037082485
 21.4387439779968076 19.3448819501011684 17.4469883986438781
 21.5536920629987243 19.3997819839642318 14.0867685852230053
 24.8437245645749911 44.2507573688467843 17.0540632050080383
 21.3703412371189998 16.0207942221132384 17.3864294756571454
 21.5108033211637455 16.0925178424742867 14.0272823935281892
 58.8729737349897206 23.5933663393530679 13.9555441013720074
 -12.5151242953603266 40.0026673502837795 14.0443344597097042
 -12.6294889936885291 40.0740624265616390 17.4041389054914184
 -12.4361229000819584 43.2915777012867693 13.9718830726385956
 58.3516168403256756  3.7580619771455388 13.1676976037906055
 18.3993067119783120 11.1023786074396469 17.1171355460653629
 18.5799115748563430 11.2040973650395337 13.7627856285958661
 58.5623192471652061  3.6481273783144443 16.5132352581922461
 18.3273496068582098  7.7915076612002636 17.0186855082493373
 18.5253662973829059  7.8829722117052681 13.6655098052073392
 18.2518126449698350  4.4862543720347805 16.9363292154089180
 18.4613421844014773  4.5537096244272321 13.5840967186919848
 58.4407890588756942  7.0920208634999868 13.2868104390808490
 18.1714097195372339  1.1841438351877120 16.8831163224515208
 18.3870340836606054  1.2163170703555153 13.5319440059171203
 58.6369889825039863  6.9560254341717327 16.6338070365964654
 -12.1482466016506940 63.2289291258485946 16.8662621147338143
 -11.9320202084044364 63.2208903067371395 13.5154460076644263
 -12.2312698406281193 59.9269796784119109 16.8875922258169737
 -12.0195507619461193 59.8792816744405485 13.5367424545249992
 58.5284941664031777 10.4136540464303184 13.4261657956665434
 -12.3115907561082452 56.6234893616364801 16.9443722530130430
 -12.1082248445279390 56.5424921251777022 13.5933257696748235
 58.7055148588210756 10.2641936182359359 16.7753764534557135
 -12.3874957815513334 53.3176786118103720 17.0285963252554531
 -12.1955807492741855 53.2137009375315415 13.6765047938165409
 -12.4571391587017235 50.0102007552865047 17.1295884887104108
 -12.2789937321349587 49.8949576063006575 13.7757213315735694
 58.6151666942418004 13.7218108272073458 13.5743334002802669
 -12.5199320171809774 46.7001124716795815 17.2346175524785785
 -12.3583915421366868 46.5881265997914227 13.8787536132558973
 58.7673441843300637 13.5725679675548037 16.9258050893764462
 -12.5767299386384312 43.3877980972215198 17.3298169596174603
 15.9022721856748372 26.1985128459713721 14.0699187183367815
 15.8616625181000686 26.1249660028904671 17.4313433157441757
 53.4301726044972014 36.8155422124550000 13.9619255140385157
 53.3601761119414988 36.9180121580827318 17.3206144661455035
  6.9510033824788051  4.8840775060430381 12.9122936980239444
 33.7292754124206411 62.2475665707187318 12.7237871958650821
  6.7172697566328186  1.4630920196298172 16.1652704283168660
  6.8764829288628979  1.5282848828338860 12.8199300906914395
 33.8717378937487652 62.2371236792536919 16.0686305438471280
 -23.6051164665690045 63.5074141819711073 16.1271673760012426
 -23.4408990555272716 63.5123788211841287 12.7824757073732087
 -23.6923419687802479 60.2059361625441838 16.1485281781165035
 -23.5276263257966676 60.1491025555800931 12.8045867152876376
 64.0516657036992285  0.2653971990290266 12.7596535950664371
 -23.7784849106715477 56.9044185547869006 16.2273040207174830
 -23.6172664188227053 56.7922676254782317 12.8837635712620937
 64.1967197907473519  0.1944995314044548 16.1039498186945274
  6.8012560417608992  4.7659320857612606 16.2583342220619258
 -23.8607697599115340 53.6022347169587192 16.3537205757994144
 47.8582004042223872 50.3000306756483013 16.5143949098309193
 47.9958673307325085 50.1168667163807910 13.1689673488239407
 64.1392172408640420  3.6211370274316756 12.8517328021081365
  9.9277000084379008 16.2767388388735021 16.9337790244159656
 10.0406598006719427 16.4518952100388702 13.5815446472534216
 64.2816467299467575  3.4999180681630557 16.1958581684508651
  9.8533095593440336 12.9602340301513959 16.7630958792026838
  9.9926476388973668 13.1332028217926258 13.4128018186997604
  9.7771336805302074  9.6489044044512102 16.5996564170738985
  9.9389305459099209  9.8060377018676750 13.2508915556690692
 64.2275564913025363  6.9641017109662648 12.9879397077848058
  9.6986334357271566  6.3427688700233391 16.4581947946580769
  9.8776339161040578  6.4684620276009248 13.1108937709443580
 -23.7084899095403721 53.4477242234881444 13.0097987525686225
  7.0188437826094372  8.2299035810109800 13.0499952345103196
  6.8822060101525713  8.0703168419542148 16.3971973729625695
 33.7821190959222406 58.9344275783176315 16.0955176517771470
 69.9060731992446875  0.0425731637479698 15.9502946419061189
 69.8838638635528184  0.1017931527947596 12.6060786280239689
 36.6845809696465679 63.8480607980673298 12.6334489696068832
  1.0083385927777353  1.6164521101803653 15.9908681510764250
  1.0524683337038063  1.6999257823317089 12.6461903962026216
 36.7707347100936772 63.8133529180027992 15.9783479065116243
 -29.3168650895342573 63.6598368139945308 15.9401517625279290
 -29.2686054148997705 63.6785172251462797 12.5959914641286623
 42.3894771425630452 60.3572603793174096 15.9544152898571276
 42.4410727531614000 60.3092858720144989 12.6102965623731773
 67.0069818737734977  1.8666767474579600 12.6948488278161928
  3.9882536427826194  6.4946068942683786 16.2255777172757192
  4.0831370131008748  6.6479619475042542 12.8795553050692977
 67.0955760582358209  1.7713840441399791 16.0391918047171842
  3.9050785692146555  3.1905883171690048 16.0974227117662672
  4.0086047656451580  3.2945890101383011 12.7518147685279573
 -26.4177101781063577 65.2339821771824688 16.0226579770689739
 -26.3078837134723287 65.2776863857007470 12.6777247823737902
 67.0937233867125826  5.2208320945127147 12.8116811686931094
 -26.5060164602069257 61.9319750014729209 16.0092706694917517
 -26.3926818278692323 61.9106976378791671 12.6651501922780074
 67.1799892748601906  5.0764854797389516 16.1557392781041038
 -26.5945872163463584 58.6301573871385386 16.0590601303921083
 -26.4806068393753051 58.5455867921680522 12.7153095017744118
 45.1147891618216619 55.3286096688424962 16.1664188791949108
 45.2261350941407585 55.1899113175402576 12.8227194826783109
 33.6471444427223645 58.8826884925831919 12.7499050790246429
  6.9599146035230870 11.3776286831602391 16.5689203733007879
  7.0802281548971315 11.5637259172742635 13.2200503834363676
 64.3615284269357204  6.8063512164816746 16.3324196220220799
 21.3025217822822697 12.7011388710438755 17.3100185555573844
  9.6170331442967285  3.0398954559655196 16.3531710400683110
 -20.7035342776756472 65.0846972708206977 16.2951524706734752
 30.8704907755123301 64.0087898785540972 12.8786383035861025
 12.5190489619360203  4.6185503481411372 16.5689307285426324
 12.7262538023722254  4.7095724985346452 13.2209428809320944
 31.0605157934919376 63.9630530905825836 16.2228563606602201
 12.4367459235640307  1.3169880719701661 16.4970972361025865
 12.6538890122261360  1.3633180407465686 13.1500854884199576
 -17.8843561587206459 63.3626573703026210 16.4713905964346239
 -17.6626538565911595 63.3580868409967906 13.1249556253539730
 61.1948859921151254  2.0179974709511868 12.9450829032407029
 -17.9690378367008208 60.0618792036854430 16.4953556776659944
 -17.7489761942288311 60.0057612054822584 13.1490995225611886
 61.3823109639776234  1.9212801502010717 16.2891265202964775
 -18.0516197835093095 56.7592559801589474 16.5656762410527172
 12.7897941092113427  8.0481961831179856 13.3297886272112507
 -17.8388652891014949 56.6593647132983236 13.2194132318089785
 -17.9293163918992207 53.3232047162158551 13.3251721461606660
 61.2837216532328384  5.3625592824617625 13.0568754944017620
 -18.2014538225027032 50.1499093713539921 16.8035672925791069
 -18.0190528894986208 49.9991999210359452 13.4544824543140145
 61.4622961994179207  5.2280466373344101 16.4014572789996933
 -18.2677384557127631 46.8445785814195688 16.9463789721105158
 -18.1072631049079291 46.6891088709949926 13.5955140250789697
 -18.3283556031766572 43.5377006949770831 17.0874449300826328
 -18.1944428553896529 43.3907825498221413 13.7341293490291996
 61.3728594639474849  8.6944470907894722 13.1998478721451935
 -18.3839664010553001 40.2288954337207585 17.2149725291964337
 -18.2804906101727163 40.1006317512138111 13.8589992063649436
 61.5366594571890104  8.5357667448848886 16.5460440750515367
 -18.1292029967999753 53.4547395584553584 16.6723468945182667
 12.5976573551770930  7.9228428409323879 16.6787070750601565
 12.8447369809092944 11.3778719473665948 13.4636489640832160
 12.6734491131485196 11.2327303343435219 16.8137930907131121
 -20.5043395264230845 65.1128158611463874 12.9499221400375077
 64.3157108124704280 10.2933875654300504 13.1542905968915171
 -20.7891296311405327 61.7834811896211633 16.2907224306680618
 -20.5876882227387057 61.7542296890482874 12.9460521661839820
 64.4357523094115550 10.1121752336004516 16.5005245377048979
 -20.8745000720646203 58.4820020012625008 16.3411434528418802
 -20.6762324683404124 58.3981704036230269 12.9966286380937959
 -20.9566702462516652 55.1791895976810878 16.4391896264870319
 -20.7673182440551258 55.0515806894059168 13.0945342272027361
 30.6361949797479909 53.9371323597540666 13.0126772616071289
 -21.0339427770074892 51.8757334804656409 16.5728015092292971
 -20.8589330339188770 51.7178870476530079 13.2270983080139040
 30.7950321532728957 54.0524265984237715 16.3595852779674154
 -21.1059090617972629 48.5725189873821463 16.7294673578306323
 -20.9500837353943012 48.3978032103875861 13.3817393059800054
 50.6241318379098928 45.2682196368427441 16.8954188101919556
 50.7561285603753163 45.0917535038260482 13.5454451756615075
 30.7078845032138652 57.2898874222316650 12.9141554754918157
 50.5643582624842267 41.9614632354542536 17.0567802024651129
 50.6684510461814384 41.7962596856648503 13.7036611234341024
 30.8827789526509697 57.3566154947099562 16.2600316972054948
 12.8946332552990182 21.1947035594554265 17.2369749528577607
 12.9777045355639604 21.3271578426600215 13.8799152124667113
 12.8217140453114027 17.8698225271967956 17.1035570257271736
 12.9368246898619752 18.0151405328450487 13.7488013129871280
 30.7861247536825431 60.6484305005130935 12.8676001144989804
 12.7480033406529731 14.5487512973838644 16.9596182921274377
 12.8931839434739768 14.6994501996562672 13.6071921527363369
 30.9721072035637341 60.6599987498375981 16.2126801414229291
  9.8085439061752115  3.1210989653980996 13.0071441900124931
 21.4636058413987136 12.7836392179119418 13.9522330942848960
 -12.6766140505308655 33.4362548115940541 14.1046274147505137
 21.2343583897884898  9.3870564689572653 17.2258969466177163
 -6.4067500197157292 56.4348980109603957 13.9120493300183536
 55.9764498652526328 18.6143887601161424 17.2440109119278802
 22.1136015434165429 59.1999297355580865 13.4329245601158380
 -3.4349634012434276 61.3795351784702277 13.9812324614539598
 -6.6319085843086238 53.1909056200712911 17.3348610986014151
 -6.4902836654448866 53.1098120765253086 13.9772249363516998
 -3.5506705702791965 61.3970155315169848 17.3402719554028124
 -6.7013055690399845 49.8814529211684103 17.4135078594652981
 -6.5685712430469971 49.7940643497199957 14.0543406904212187
 55.9423113336242039 22.0008849009853051 13.9771210013221197
 -6.7637053381577292 46.5679179023365677 17.4909399152117331
 -6.6407940409117394 46.4897258704113980 14.1306450688321821
 56.0261515343101522 21.9266194839410069 17.3366129989549478
 -6.8200390577580308 43.2497859268264122 17.5519316359608730
 -6.7096720336789692 43.1947208108048031 14.1903507883267022
 -3.3493910187274980 64.7141689323663769 13.9824675736608341
 24.7571302443852552 47.4443738224214968 13.5636720962787631
 -6.8719703510935721 39.9293674445642779 17.5847876627827020
 -3.4680864986242441 64.7016942802629984 17.3414285374333126
 -6.7780258600210743 39.9055222672884398 14.2222433947100111
 56.0262161883480303 25.2835640277369258 14.0414549182762638
 -6.9212374621064683 36.6090161328683550 17.5841478218964795
 22.2617977217243919 55.9084400155223591 16.8226618568228226
 -3.6327060145938774 58.0915481109217993 17.3670520947683755
 -6.8470080807485116 36.6200500763030021 14.2209614667466280
 -6.5561640980453344 56.4977643453567637 17.2687908504348613
 -6.3206317369222331 59.7666959805719245 13.8684702498787207
 -3.6825688388169566 51.3997656797637319 14.1236930312323050
 24.2080165834062804 14.3037440866737793 17.4727895003089806
 24.3436721325202328 14.3644468952693742 14.1125378719851149
 55.6916768792901138 12.1225309800285928 13.6498276576581254
 24.1430462281252609 10.9869134444335810 17.4059967923914449
 22.0995410917449746 49.2916192597370326 17.0017082691233306
 55.8674146880863773 11.9916889598771661 17.0025425066018379
 -3.7849890818127103 51.4761485866351833 17.4841787491937133
 24.0759970060387758  7.6754464364505210 17.3331861890629533
 24.2313640787592384  7.7455397084277635 13.9746675024344444
 -3.6037578423875862 54.7192472878485106 14.0581592094429553
 -3.7116540671214340 54.7848099655846568 17.4175649985240000
 24.0038912086136875  4.3689684149967212 17.2684092379300402
 24.1629943726043699  4.4229237524107283 13.9107631898130499
 55.7749074002104095 15.4230744879950610 13.7751111270177962
 23.9256689416329991  1.0647885451922634 17.2247837650613143
 24.0857585183090386  1.0913577293954710 13.8680773899509671
 55.9239331760387230 15.3027247330085938 17.1300391107094896
 22.3477201247669406 59.2135796313135572 16.7816652175077223
 -6.3929608469047441 63.1071563549868841 17.2096689765197475
 -6.2342206983093504 63.1020745986107343 13.8532530474498436
 -3.5205955429327838 58.0467016764655384 14.0080570645257563
 -6.4757338865447736 59.8029493186354557 17.2250689202910863
 55.8584002657346943 18.7148982300812072 13.8867678377776009
 56.0739418725469321 25.2391712416364342 17.4025213339496965
 -6.9696067167207092 33.2894778307937429 17.5476649874136932
 26.9690036790165095  2.7002660765843411 14.0112889826230465
 27.6615989218569815 42.5252871165089985 17.0284861594321590
 27.5610287100055125 42.3737894324029867 13.6739519194129393
 21.9483422570556606 42.6522062282551602 17.2254794507134648
 27.5875685325122006 39.2008539030052248 17.1838023282054024
 27.5185594475561963 39.0611770017341442 13.8266630569005784
 27.0540958188101186 12.5893397112351622 17.5523350654035326
 21.9713760044473432 52.5204455135988724 13.5478762424348851
 27.5150119368680208 35.8734217647248670 17.3227049356821965
 27.4780919815985278 35.7524300831792559 13.9631867754038268
 21.8667606186702344 45.8720811046515706 13.7595881516691740
 27.2216257345159605 15.9474106958649031 14.2390344487721023
 27.4436137227610999 32.5442328130631182 17.4391716967078558
 27.4383328269473772 32.4464978562733677 14.0778975920527856
 22.0231583406574210 45.9747286936751891 17.1148026038992320
 27.3738188999632293 29.2147713650711687 17.5298306930816565
 27.1159075098977453 15.9087629039454992 17.6012150332651487
 27.3988764178192596 29.1429268452819628 14.1673567428978870
 27.2705440065259701 19.2454400528932013 14.2638824829632949
 27.3061517478629767 25.8858045986367458 17.5922222309270389
 27.3584143115118756 25.8418443944174996 14.2290274666259400
 21.9153359963064673 49.1925405231559552 13.6485810858206058
 27.2409203079786444 22.5579414263298794 17.6245456556586504
 27.3158366201999421 22.5430709635900151 14.2612021558826552
 21.8232917383929603 42.5569617968595608 13.8682604937505189
 27.6066174728515570 45.6919344866903998 13.5134172121665816
 27.1684397924596652 12.6468606379775661 14.1909304979331132
 22.1788427824259919 52.6023466406723301 16.8994990931228912
 -6.9181770120242998 33.3368666331389747 14.1848966325765566
 26.8481958629756647  2.6601177436513934 17.3706819335382932
 -7.0182365963516720 29.9718524390131371 17.4755752847415735
 -6.9912211636429564 30.0552109713998981 14.1138900874203195
 56.1093058634147823 28.5642728977410947 14.0764608757175402
 22.0373739026862090 55.8570800664622027 13.4725095638496910
 -7.0675772471957163 26.6560144531674723 17.3686832421063535
 -7.0665445453325972 26.7737511686590643 14.0086306389148376
 27.0439424209106960  6.0257725653018461 14.0629640414571373
 56.1202890043472777 28.5530173318573297 17.4381767073429437
 -7.1184034213816139 23.3425746550015631 17.2295341663314794
 22.1975403845846770 62.5449147512896388 13.4328476985534273
 -7.1441929721598383 23.4906331755596582 13.8719882905135101
 -7.2242424758921508 20.2038359328170039 13.7093660693867943
 26.9227095131636460  5.9658818964345519 17.4232647740432434
 21.7829328556777710 39.2451601202405342 13.9646231120030873
 27.1099152003819910  9.3408791439646066 14.1278798906454064
 -7.2291142836672746 16.7234506543831962 16.8795162450326295
 -7.3071048927867972 16.9109339740813667 13.5282895261916973
 21.8740100053554833 39.3255162128818725 17.3240817950981700
 64.5042252219481895 13.4173577592107751 16.6874276432319171
 64.4033399595109586 13.6088233779333407 13.3389685922794996
 26.9907158185781348  9.2749740554035718 17.4886752575326057
 27.7376720563939152 45.8456385988612922 16.8654754251192749
 -7.1716409895312321 20.0317353920196659 17.0636302195491929
 24.3913653954908192 17.6674767409790405 14.1623082620824263
 24.2907901518449698 11.0583259368004398 14.0467076833986706
 55.8054783751630694  8.6820657614817520 16.8726744704664000
 52.8316372283778719  3.7866114442430443 16.8937038207289270
 -4.1504342872428985 28.3609016377915850 14.0718105525347603
 -9.3815848178932963 51.5014059531966240 13.8801109008730883
 -4.1668648347831692 28.2378447120461793 17.4325838626398948
 -9.6127576979756455 48.2889373719581627 17.3268079819672884
 -9.4594910992393402 48.1903206096136429 13.9695106533426703
 24.9401906269350562 57.4544554419946820 13.2573668600578607
 52.6112661385654832  3.8769166914376814 13.5442803897176329
 -9.6718495793415489 44.9752073731646576 17.4115239702165390
 -4.0817182228551623 31.6438361705192790 14.1799923425877399
 -9.5332434736527993 44.8900451641334897 14.0526429847745096
 -9.5467735962631028 51.5990684097622534 17.2357694258495364
 25.1675958488669025 57.4966634804691950 16.6046706172265672
 -9.6060909861109920 41.5979631726636612 14.1160205496925624
 -9.7759503850734681 38.3410092746541551 17.5132725064854924
 -9.6803320112866462 38.3113723584119583 14.1514586392326116
 -4.1164485934576796 31.5569387465676421 17.5425614925654294
 24.2730201254844751 17.6252757500182717 17.5234825373828649
 -9.8243368741834587 35.0240835946604108 17.5174951797774305
 -9.7559288567455980 35.0280679068358936 14.1551009595187036
 25.2550841122910121 60.8011722175906684 16.5768179937735063
 -4.0152460009818540 34.9276692405920173 14.2526609398539499
 -9.8721766269640963 31.7079356204527336 17.4877613711294977
 -9.8335055938018741 31.7466090443689346 14.1255354791268637
 -9.7255517623705927 41.6586325130966273 17.4767568852365542
 -4.0670461331943271 34.8782652380480229 17.6161315234907896
 -4.2189483074820346 24.9214872103594516 17.2882526976878594
 -9.2982204682531027 54.8234873941422833 13.7983752139428049
 -4.3943317935851329 14.9917274572409411 16.7110774989873860
 21.4105626972191487  9.4703850207470239 13.8694831419100701
 52.9031712394183984  7.0957298275897998 16.9909681033912960
 24.9203393635357742 47.5702021149348724 16.9158759206700537
 -4.3702551786308623 18.4998614407553319 13.5663479629413963
 21.1630187939857208  6.0788990116983106 17.1462586744145753
 21.3494236594249180  6.1495042294419466 13.7907702296335444
 -4.3317085467971230 18.2987479617675461 16.9183507836884708
 21.0862993592527204  2.7747816175967666 17.0852766117795447
 21.2785058995463636  2.8191884583701654 13.7310363833963471
 52.6981238151587092  7.2039852771096946 13.6395928100958876
 25.0820238346124782 54.1917052538507917 16.6767788348666670
 -4.2940972397394948 21.7915945615936621 13.7590306997935770
 -9.2314313221623170 64.8180387925571040 17.0533575182108059
 -9.0378961336681662 64.8289889257240048 13.6998307410768803
 24.9994127521706559 50.8838449139947997 16.7851788627321419
 -9.3145769168546302 61.5151465239143178 17.0547736453643672
 -9.1234438664464310 61.4906297821516645 13.7012126185596532
 -4.2735314091226435 21.6085686808449324 17.1141703109643188
 -9.3961435608959736 58.2117571189425220 17.0895404174906638
 -9.2111891575600655 58.1541875576882390 13.7356975058830848
 24.8696857403180829 54.1093177889341348 13.3280369598142112
 -9.4741684029315802 54.9064832389100630 17.1527522611064427
 -4.2209708880486323 25.0775768812049762 13.9300291683620401
 24.8091974751412714 50.7721442210971574 13.4349391248666628
 -9.9197514267499347 28.3926115177389704 17.4237174267644690
 25.0193513056060226 60.8038895195237643 13.2300705882921559
 52.7535862440521157  0.4789892720056703 16.8205233398997507
 55.6602065784352078  2.0655422721905929 16.6576286349435740
 -3.8867360460850575 41.5003310872855522 14.2876783415680482
 24.6943098398787377 37.5992221913249409 17.3069410921443776
 -3.9656944916144083 41.5245074149111346 17.6510318448912962
 24.6299783335388476 37.4979126939074945 13.9473981540267022
 24.6210214344433709 34.2696638103846993 17.4065933277420513
 24.5917721872415953 34.1892081106418644 14.0454443920271341
 55.5203674471187014  5.4861086156493570 13.4055320096742356
 24.5481564766253797 30.9388261507467952 17.4823289531845170
 -3.8222351849771172 44.7918116299644637 14.2532736561898670
 -3.9109411922202422 44.8464720831769341 17.6158350967926083
 24.5537196427230491 30.8824121557812852 14.1203211382851848
 55.7362572496050532  5.3732922750400753 16.7537268116114433
 24.4766595031178475 27.6080425918270436 17.5323793684456142
 24.5154151929424771 27.5771039063277534 14.1699490401219688
 22.4340909812377305 62.5191081576008614 16.7809952686839274
 24.4067492495410292 24.2781968049614640 17.5556624298132391
 -3.7550119268439226 48.0905904065188636 14.1938474359033648
 24.4761633272001511 24.2730877691585825 14.1933715697190443
 -3.8511722998540399 48.1640952921300425 17.5552669418759919
 55.6074257058828962  8.8105865093136604 13.5223500999616473
 24.3389823225985111 20.9503446871893928 17.5521876196593247
 24.4351200783130054 20.9699614221775228 14.1902548524443120
 24.6692668242928086 40.8093063111252050 13.8298867269391810
 24.7684980498745233 40.9265072606930502 17.1875372493542962
 27.1777725459782928 19.2320361179294679 17.6267882234550868
 52.5222174955183405  0.5411120822273587 13.4719965680143918
 55.4309211801214161  2.1511471711248125 13.3105458431513597
 25.3415884765954580 64.1058020042829639 16.5955241503987203
 61.6364969482865490 18.6128551174568386 13.6948301433630242
 61.7248073600601828 18.4568606214695379 17.0489647804860418
 -9.9121502699118818 28.4659515496289721 14.0626369847265504
 25.1051733737793192 64.1534752666157715 13.2488861621887004
 -3.9503757840193581 38.2129034814732691 14.2885223086071207
 61.7211627722676965 21.9009085215360990 13.8425832609745427
 -9.9923699302972366 25.1846495553034764 13.9671757019218816
 61.7779372862647236 21.7664704391910711 17.1997160126577100
 -4.0170866589221834 38.2011565582918138 17.6522205041404447
 -9.9678384919170728 25.0784615155745065 17.3265078858204546
 54.6321673693224383  3.7908878345476835 15.0897369970735387
 55.1821740274345984 30.2279836519127976 15.7636354292692076
 66.1320397053369646  3.5094417077872970 14.4402475669784636
 24.0599931952792794 55.8361542250259930 15.0191687466539623
 23.9853051273373055 52.5122420939116239 15.1056680972996116
 15.0121963945796146 31.1619615677137176 15.8264997292589609
 20.7916940991325774 34.3277925056314359 15.7674238629677230
 15.1226940774753587 37.7972022004707853 15.8486561554192811
 55.0529879942390465 23.6330000047651758 15.7147740515238272
 49.7658518561633159 46.8535101156398923 15.0939418842618878
 35.7225104485057940 62.1886509118272457 14.3153667996945870
 24.2261853074012130 62.4894041222159018 14.9697338648593625
 66.2962685749006511 10.1539597712977105 14.7554291776355377
 15.3629332351330792 51.0563368211475392 15.6329794125351409
 15.2977974109886521 47.7419523586366310 15.7050114106662662
 66.2155978903265776  6.8354278799111681 14.5806575310524877
 55.1178149901629126 26.9305697887512139 15.7550700287586629
 54.9876634249696892 20.3346888280984999 15.6458545183361437
 14.9571233584337477 27.8431513761598382 15.7757774793386503
 15.2370199965304387 44.4279071939701282 15.7710372918822834
 55.2471349045457956 33.5254230523157162 15.7387666369084567
 24.1411046102330573 59.1624798285063846 14.9723693216843881
 15.1789766590270894 41.1130691093071405 15.8209698773055951
 54.5483995984728338  0.4685603698870141 15.0112349905722144
 66.0460128416882242  0.1776370820632898 14.3480192856626374
 68.9754666056204968  1.7656027038162017 14.3152728928348907
 54.7116322276612124  7.1091921953809303 15.1946729064058434
 14.9021301659056284 24.5240157696917898 15.7005938709436599
 54.9219401193376342 17.0339910068848006 15.5517205799282330
 69.0601056699306213  5.0961051666582771 14.4322138755790057
 35.6360536745392409 58.8535340708996699 14.3474160172566556
 15.0673341220650023 34.4800772283710018 15.8510166586060883
 63.4520362922026067 11.8813286515385776 14.9509201066666737
 49.6891992875366739 43.5501237784417725 15.2667796528010715
 27.1358400823632273 64.0835526713637336 14.7852017520498844
 60.5331013856643168 10.2938280530859192 14.9967038497079450
 52.0787673069156796 18.7465129304161167 15.7105254261467771
 18.1922294782187208 49.3335389700821878 15.5274399459096166
 60.4543422607414840  6.9784443514561874 14.8454481484693250
 57.4579740381977402  2.0636737020950746 14.8503709760202707
 52.0162017539630881 15.4432637168581977 15.6302136215365444
 18.2600078175379466 52.6507721479129813 15.4468533911280677
 18.1296952905620756 46.0169773749106312 15.6130538817093463
 60.3719897972913273  3.6565475233896900 14.7175851514065847
 57.5408648254869632  5.3862213860818118 14.9532435080521644
 51.9514396884869711 12.1366660354141498 15.5312919921442791
 60.2868250912605745  0.3294914174788829 14.6265960518769766
 18.4162400098641363 59.2922563312380362 15.3547643918128927
 57.6195354533244100  8.7033430487728580 15.0814532320272967
 51.8821070578198515  8.8264304056045422 15.4248001683660565
 18.5008386659989768 62.6152607397092140 15.3569053905485511
 29.9638846267033827 62.3451928832006317 14.5859024736521832
 18.3350414714092338 55.9701235170215909 15.3858891312978709
 60.6085994538273454 13.6025959441497122 15.1601633477943754
 52.1409422155013047 22.0472523441516159 15.7651380987907164
 18.0706617706925101 42.7001634841658415 15.6914174062249536
 26.7498534635371641 47.4523852721739985 15.1480191695939723
 52.4645860068195447 38.5361093121784251 15.5683442905692431
 52.3970888176790623 35.2386973405672137 15.6703086525396547
 26.8159725306506900 50.7744777687007272 15.0028107358842853
 26.6878516322977752 44.1319894826255066 15.3025319119217649
 17.8465340847193481 29.4255403987195407 15.8047759266304517
 52.3319030719420297 31.9413619462819867 15.7432809525881243
 26.8880778665326545 54.0989212246713720 14.8823766901350698
 17.9018016657817398 32.7448990503772421 15.8123461488847887
 60.8182257164612068 23.5035194551779618 15.6023318536112452
 52.2675214235734273 28.6439525628823759 15.7835867958885174
 17.9575499620424388 36.0639361239550098 15.7949674512463716
 60.7509885663069014 20.2056501465006981 15.4727931489869590
 54.7856537856261170 10.4222300448384306 15.3151280471400568
 26.9664176801442750 57.4260331734370055 14.8015434333407772
 18.0136054813014255 39.3825604603219759 15.7536444149295320
 52.2038501104643800 25.3460622867634413 15.7903492956489782
 60.6810610827439447 16.9059351897625554 15.3226105382284068
 27.0497110820806377 60.7548496724498577 14.7680403053014153
 57.6937774846386660 12.0141563354661276 15.2231371706628753
 32.6331947022299431 53.9386323230194193 14.5982363685661998
 48.8219857272206355  0.5911961658260262 15.3921148369708565
 29.8790084328272485 59.0138881376740159 14.6018636241583337
 49.3555332570684300 27.0588784009257992 15.8308221194728560
 63.2916794371664153  5.2470477558785902 14.6243725427657942
 23.7379371790959546 39.2302585355839994 15.5936192998834819
 21.0226883315118265 47.6045769511296513 15.4275911702421578
 49.4178314903689397 30.3571634230266341 15.7782118941108607
 63.2069909101612879  1.9200722975420570 14.5081039717321190
 23.7955418462808019 42.5499454491480478 15.4766274727093318
 49.4817664538213080 33.6547075137498197 15.6912162931647163
 21.0873902069929855 50.9237039980617965 15.3249304487860165
 20.9624039846891748 44.2858780244094703 15.5326382472876006
 49.5479668791915060 36.9522144330978790 15.5731766432960974
 23.8546492459562565 45.8699850167495526 15.3489359148708679
 32.7975857445050067 60.6011684925170400 14.4343497967940984
 20.9045484905124503 40.9668251072790142 15.6286801974688849
 49.6168052010090790 40.2502256128246714 15.4295105095992220
 32.7137354005021734 57.2682814961669919 14.4888461086403222
 20.8477805982525837 37.6473574473252413 15.7083612837953908
 23.9173568387426876 49.1904411060700184 15.2207972867395611
 32.8839943187781500 63.9346959505357901 14.4413718665761834
 58.0330478789003905 28.5144883805681282 15.7503117994857647
 49.2948281310831433 23.7591384523133478 15.8492388890175757
 63.3735507572582577  8.5680445895259822 14.7761728527837732
 48.9039761472713224  3.9111677353671208 15.4553261890636140
 29.7975662980434919 55.6840425839852884 14.6719600741207081
 51.7261882810742648  2.1924015942934489 15.2408415773695367
 57.7652317557824375 15.3195535841943187 15.3651166477742933
 48.9808526044794732  7.2274804121107312 15.5382294271858203
 29.7209712102843220 52.3568071214936595 14.7894992541902610
 21.4054172671904901 64.2163646824498358 15.1849435047488726
 57.8344696506375442 18.6210260347595629 15.4959292589796878
 49.0512328306087824 10.5395051513535467 15.6308143770189893
 29.6500519922360048 49.0333306996472018 14.9431679310053358
 21.3201610859589508 60.8919140052509107 15.1648548924434952
 49.1157957501162912 13.8480146559613750 15.7194690514802371
 57.9022445128194434 21.9198776836463409 15.6073637215039991
 63.5272405580454844 15.1877025895500584 15.1362789750070377
 49.1765002884230071 17.1538698291589142 15.7905532180753205
 21.2366958634513878 57.5671996881409385 15.1834746173023252
 57.9681765482877367 25.2174990915684312 15.6935819794421914
 49.2356950840331251 20.4574321592366921 15.8351074165706294
 21.1584391218479979 54.2442688265870245 15.2390354968973298
 51.8070630530092444  5.5115920503660965 15.3240932477417235
 54.8550923555640821 13.7302352158118754 15.4383950433903880
  3.5530295794055773 31.4362934640101948 15.8945493619288314
 15.5135823410669467 57.6919374177454500 15.5272550225180801
 26.5719102127263014 37.4936955491822204 15.5920950836411674
 26.5160981921344820 34.1753641519877434 15.7107141907896004
 26.4607239878577190 30.8577455711836244 15.8053967255917627
 26.4057533001040845 27.5414131621581859 15.8737491633747396
 26.3512815077627387 24.2268081096386858 15.9141058139667280
 26.2968150273761871 20.9139501950278976 15.9255509609251966
 26.2418528006992560 17.6023978990551626 15.9092612819242234
 26.1852981965808134 14.2920100603212141 15.8681601764197691
 26.1263073149859402 10.9821074360152995 15.8081514278081467
 26.0630309445263286  7.6715927084409854 15.7397281294154130
 25.9929950853376361  4.3586168279305770 15.6776422849263213
 25.9155833599504746  1.0419299053887019 15.6354281517908174
 -4.4034262872433532 63.0690693043324657 15.6202472546486995
 -4.4878495667248224 59.7494099998927481 15.6341587577497787
 -4.5709221876842285 56.4307271002994213 15.6750181292168040
 -4.6504176091616056 53.1144006010586551 15.7365800535396207
 -4.7241689167108305 49.8014460798420444 15.8095986074146992
 -4.7911901449059231 46.4915326699581328 15.8807070820936804
 -4.8533847331972728 43.1838815827652240 15.9334991181871271
 26.6288004346300156 40.8125737540821376 15.4537413433445341
 -4.9127770729658184 39.8778820794484261 15.9560689926079622
 -8.1967449787316440 18.4892584486720075 15.3184101343747479
 -8.0623643373135252 25.0865319060236303 15.6304959566841344
 23.4606543983177964 22.6382030016409921 15.8542460921580926
 23.4057327221956477 19.3233002164213872 15.8310578329379368
 23.3498972901855737 16.0101286047982221 15.7852914979182639
 23.2923207515470096 12.6982052072522595 15.7210866738486494
 23.2316260691263174  9.3866186579970847 15.6461458958048336
 23.1654710420607337  6.0739552132377854 15.5727003154638268
 23.0920014425142099  2.7583853208079505 15.5157098604684922
 -7.2247209604478870 64.7859471391463728 15.4854534113143494
 -7.3087738085766674 61.4658842016432132 15.4860706739900049
 -7.3932905116749561 58.1462646409339143 15.5176118778547654
 -7.4755086388255094 54.8283217865762182 15.5758424984505464
 -7.5532226006325729 51.5132309989816761 15.6525047060618636
 -7.6248368083935913 48.2019089833243513 15.7360305179157436
 -7.6907164269756700 44.8938196193322554 15.8112176764019896
 -7.7534047362504230 41.5883088235382772 15.8639633054284719
 -7.8143399394642179 38.2848486041508380 15.8859501878227931
 -7.8751123859286185 34.9834518473705600 15.8740573774732709
 -7.9364416965276270 31.6834357807157865 15.8271060648306943
 -7.9987619485722572 28.3845625725899033 15.7455011429533744
 -8.1282676905334412 21.7884596907845562 15.4860059199120936
 23.5155541450804257 25.9548357056536858 15.8524840520577062
 -4.9711786788022430 36.5734980193215975 15.9432654805190612
 -5.0895172101511248 29.9696824714023222 15.8076884533187805
 -1.8229240697052209 51.4022303187721619 15.8621153286642933
 -1.8921809546420358 48.0907642567123901 15.9290837976397501
 -1.9556211433042452 44.7817454792552496 15.9843364549919134
 -2.0148570477377543 41.4740645329551256 16.0132346718409373
 -2.0719976620915777 38.1675121471086527 16.0068708586223920
 -2.1287252995870887 34.8620401695609061 15.9618724577999505
 -2.1861351699947935 31.5580350707526129 15.8783594748052117
 -2.2445621128880595 28.2555256289603136 15.7584007246341820
 -2.3048165880464637 24.9542396386861007 15.6044591855177099
 -2.3671774158639667 21.6532528209232744 15.4211016669899816
 -2.4330194531502420 18.3513431457687552 15.2163445014048673
 -2.5027617112112304 15.0465559789009067 15.0010458392941359
 -2.5766737974414662 11.7367192274218155 14.7891595873608974
 -2.6540811421965946  8.4199123913655445 14.5949718177770489
 32.5576212185417333 50.6134591925502662 14.7518312256090489
 32.4870599945303482 47.2925710256183791 14.9352262141057395
 32.4214342543574219 43.9748410180794593 15.1326158153397312
 32.3593782449823451 40.6595674003720262 15.3300927557951834
 32.2999880600276441 37.3459559062280491 15.5164685728709681
 -1.7469449788135785 54.7170054090310813 15.7987157130214726
 -5.0298015610961917 33.2708028788424457 15.8936237288616304
 -1.6659926510720129 58.0345255250153542 15.7502541464885244
 -1.4984245687906610 64.6729320282786801 15.7271401774644826
 -5.1507923817038233 26.6698365130538164 15.6865056936328351
 -5.2141512899528806 23.3706734786048891 15.5329526181467710
 -5.2800257805073194 20.0714487214042414 15.3530433339227663
 -5.3492440220172863 16.7702807978769783 15.1557443300126895
 -5.4223873786991303 13.4652451942407243 14.9518802616396247
 29.5844655984651155 45.7127451984702091 15.1171541124738642
 29.5227617677840968 42.3940487786097719 15.2961160930879263
 29.4637637872022147 39.0766469790750364 15.4678572490393620
 29.4067210307573426 35.7603040147660138 15.6235383366942937
 29.3509345374030275 32.4448308428895587 15.7569582362268221
 29.2961152059931109 29.1307157864167934 15.8639375230277171
 29.2420788649685406 25.8181396145226536 15.9410056066529240
 29.1882915793434705 22.5068455388501398 15.9857397827552656
 29.1339893333278255 19.1966554772616789 15.9977264998123658
 29.0786673842294192 15.8874753980732883 15.9791106254752258
 29.0211689214933664 12.5788074492772672 15.9346058305631466
 28.9602113395242782  9.2697769656223894 15.8731500354954473
 28.8931989261337492  5.9589343794327752 15.8087826442797379
 28.8187162900078953  2.6444622012431394 15.7567863471796912
 -1.5823219767494743 61.3536373454623529 15.7248448306514312
 23.5706799497571247 29.2727954891368647 15.8247276934596215
 23.6260664823293105 32.5915970892241518 15.7713769313184375
 23.6817410265089734 35.9107030149239677 15.6934539718440629
 11.6284073707636804  3.0278383380494729 14.7884518398170322
 -18.6876815532340430 65.0484430722782037 14.7361056488420896
 -18.7717269728948146 61.7211128647634197 14.7343090162571180
 -18.8584472564940917 58.3942812287095947 14.7840331406472174
 -18.9447972903035051 55.0709104154202720 14.8775742802131230
 -19.0289339691164798 51.7526658627687013 15.0027563693290915
 -19.1100631489514754 48.4412414586318434 15.1475944359812580
 -19.1873077619225114 45.1358765788537042 15.2985613406050334
 -19.2608418811317073 41.8349101444676279 15.4421325015361290
 14.8465706034834142 21.2049954423746989 15.6038930571869088
 14.7899805913665432 17.8863589490635917 15.4898386505795447
 14.7316129792257531 14.5681281888012197 15.3640435614553592
 14.6707951996790964 11.2501718247347480 15.2341255537739109
 14.6059886112358139  7.9321421264505290 15.1116149760060932
 14.5357338689561502  4.6131511176936533 15.0112815077537807
 14.4587126472982455  1.2915532539455135 14.9464311296102306
 -15.8598913198828786 63.3140564872024711 14.9247027525965361
 -15.9454901009115755 59.9897326449291413 14.9488193348067426
 -16.0311464472419942 56.6668729569895220 15.0156407129612344
 11.7027667132472093  6.3502959199288105 14.8849529318515561
 -16.1150162199344074 53.3473313044734141 15.1148578246990777
 11.7714337842390950  9.6704024740424259 15.0154155938874272
 11.8962263977672063 16.3069868549926014 15.3193951569794677
  0.0247460244843738  0.0176628307634826 14.2654148343061919
  2.9545921537058097  1.6030811734177388 14.3433934704696391
 -27.3671422627742196 63.6149286165854946 14.2965948558787126
 -27.4554239950091308 60.2799126461404455 14.3141535456632951
  5.9554495304401902  6.5144751811770290 14.6049057154734996
  5.8780900817341308  3.1869039806461621 14.4830198759521913
 -24.4404147615201914 65.2020685767160302 14.4134273631326852
 -24.5261631626534964 61.8690445399633902 14.4036922133250016
 -24.6143684782488670 58.5373064799884091 14.4553039954510947
 -24.7024221431169480 55.2097275146314246 14.5621187576404871
  8.9348636913055568 11.4125869644246265 14.9606446301113412
  8.8669051215186325  8.0927520726112778 14.7996099961527214
  8.7937375806698252  4.7694678895323595 14.6695767565307662
  8.7157995475108407  1.4422532082594746 14.5832853072457524
 -21.6035536572097158 63.4587231154410887 14.5494195318185682
 -21.6896465382540349 60.1283542186476367 14.5727632924485651
 -21.7776024572139448 56.8005369958089261 14.6507045456443912
 -21.8644666186514982 53.4780479075091506 14.7723261024645254
 -21.9490711312108964 50.1622594877658869 14.9241925914901135
 11.8356311899863709 12.9891137476944234 15.1650431672223505
 -16.1953249976079086 50.0330418487990016 15.2352649358769572
 -16.2713858575879904 46.7246985212390058 15.3644959617922439
 -16.3442005257920968 43.4212130081637397 15.4889140171461577
 20.5706588573266878 21.0519567371149634 15.7626228776837145
 20.5151836663784231 17.7353446390466765 15.7039915015721832
 20.4584285183276435 14.4203719285637568 15.6281303453510532
 20.3992177349698984 11.1065589916684537 15.5411397131674054
 20.3360345629313279  7.7927853498244639 15.4530529213268473
 20.2663237118097364  4.4775710571695839 15.3778364398326133
 20.1893394840521907  1.1593193028326427 15.3290342684574803
 -10.1298059118170567 63.1851132252058605 15.3133192443131918
 -10.2147089859039397 59.8642987464190028 15.3327466035196380
 -10.2990172343173469 56.5447065177699031 15.3851667592451253
 -10.3801762546563001 53.2275183590592249 15.4628326475893658
 -10.4563608490179529 49.9140203786202790 15.5553038536199111
 -10.5269117154444736 46.6048457042442053 15.6495722665899670
 -10.5933386146519553 43.2993782443041582 15.7313159197492300
 -10.6576987826640828 39.9966902359210295 15.7894218135432585
 -10.7212650138027481 36.6959254387047551 15.8175200475058020
 -10.7846739505710385 33.3967157720629970 15.8134001253738141
 -10.8483875980001354 30.0986883000330394 15.7758208823111037
 -10.9122352610335298 26.8009656032597334 15.7048324595741882
 20.6257259722819200 24.3701244031014461 15.8001676569157343
 20.6807733507461684 27.6891561486464006 15.8140194008744324
 20.7361278491656869 31.0083603797378800 15.8030615336630973
 -13.6984803628562783 31.8120362349089305 15.7743405614539132
 -16.4146665898172621 40.1212578304426941 15.5974879414307619
 -16.4824179612242041 36.8230277279183795 15.6822902029792441
 17.7914731250093432 26.1061738892284865 15.7725351137198331
 17.7364711083086242 22.7868615124973459 15.7167127130695832
 17.6809348967206326 19.4681224734945317 15.6399699906767271
 17.6244052524577448 16.1501557445739117 15.5464629045986698
 17.5658288071017026 12.8335753280668872 15.4418625872416122
 17.5043797190743966  9.5175840612175939 15.3345855771574300
 17.4378079163219049  6.2014018206793109 15.2373320145797742
 32.2426686161780225 34.0337657674845531 15.6832441145750821
 17.3644072212747318  2.8832393928020918 15.1648012414143114
 -13.0364048902323866 61.5864320404747261 15.1301213469760221
 -13.1218481587565670 58.2647387924079396 15.1720526161099176
 -13.2056900692109256 54.9449920652197861 15.2471879205333440
 -13.2860171922979724 51.6288297131965948 15.3450754734780688
 -13.3615509716831067 48.3175700504644183 15.4547744876606892
 -13.4327289063121214 45.0111894788494382 15.5622949081207267
 -13.5009189169370032 41.7086278180175043 15.6551813030102309
 -13.5678268972131963 38.4086928582421621 15.7243734033008131
 -13.6337488847513626 35.1100212977908726 15.7649249312536348
 -12.9521011006143372 64.9086607524220653 15.1276667448684794
 32.1870511252229434 30.7224853267599975 15.8239823494307448
 32.1330154285842298 27.4119140850016727 15.9339772399132578
 32.0796936184200732 24.1020057693837018 16.0095106324897962
  9.9563743766148320 64.4479314133712933 15.7500308533244979
  9.8720926960046089 61.1284375351926386 15.7385177963425491
  9.7888936962606419 57.8092204785165507 15.7546223496401101
  9.7096114447900774 54.4917242791669025 15.7949034956332675
  9.6364680957997120 51.1772953445143486 15.8521876157445636
  9.5703537395492688 47.8655050476753132 15.9130095405222143
  9.5093472342723508 44.5548948864374523 15.9614509383390430
  9.4514630261712504 41.2442727615313913 15.9854304824205613
  9.3954111587804992 37.9329067478479658 15.9784841900895511
  9.3403047112390123 34.6205971823745955 15.9384626106130938
  9.2855822053590664 31.3075156950096627 15.8656104444209483
  9.2304857650634577 27.9931738868524143 15.7628254750949868
  9.1744028018366350 24.6779450911620017 15.6337076446290464
  9.1175685890835414 21.3620625834807534 15.4824849785309890
  9.0590247148153864 18.0462809007338407 15.3144490720733071
  8.9985883670234781 14.7300007710325200 15.1369230793327656
 44.2519595674494610 56.9477539605351595 14.3945907162529370
 44.1649886511196286 53.6213777825141520 14.5290555960927090
 44.0811632331302050 50.3018166005242264 14.7039394920615418
 40.2750608290451737  2.4203395817378976 15.7879439375811099
 44.0006120025187144 46.9899964065778306 14.9045306300083702
 40.3524586632214977  5.7366633853828493 15.8463140989918188
 40.4862310353162016 12.3586558347615334 15.9833007708269363
  6.2208522140430711 19.7828803592787779 15.3494742930903136
  6.1597533579657933 16.4696107127950633 15.1538890811740679
  6.0957497383032955 13.1546511431283566 14.9554558793168546
  6.0281460519404924  9.8369146820197830 14.7673171960801781
 41.4966229554508601 62.0276172946710318 14.2451533014352325
 41.4085049374179661 58.6917006906847476 14.2907869902635198
 41.3215077617831668 55.3604534337339942 14.3984583728044200
 41.2376208169848297 52.0354925639762200 14.5571566467682683
 41.1573776757016674 48.7179674611756255 14.7519096755325325
 41.0809149273770799 45.4071733035862763 14.9664614033401389
 41.0090385526584669 42.1014632056493880 15.1854168495815536
 40.9422074217760965 38.7985281358734824 15.3962963911144275
 40.8791719553246082 35.4965132261992125 15.5882059647979432
 40.8194150826471613 32.1940596424981962 15.7527806228957132
 40.7619773885157315 28.8903825639576759 15.8843464306630828
 40.7068122497492411 25.5856061875440339 15.9792588405135856
 40.6528873062034322 22.2798817498446873 16.0352826620121363
 40.5992576287934241 18.9734113163134737 16.0521955414965518
 40.5443927570618499 15.6664784572726266 16.0325616234207793
 40.4228414195807062  9.0491950540620518 15.9159771602798816
 43.9248521302771806 43.6844866138663974 15.1148848511264369
 43.8535061008925808 40.3827220846533734 15.3201916934614477
 43.7865635854015807 37.0828194106547997 15.5098475518875496
 11.9544005125181112 19.6247037377888986 15.4674137608754521
 47.0066609991394557 51.8887331492675372 14.7113299086028437
 46.9234273096344694 48.5749996498054273 14.8896061564103306
 46.8444692534078797 45.2680396618582037 15.0825886099832989
 46.7702014391815766 41.9658883456514218 15.2745925901969084
 46.6999890034720835 38.6666276372438489 15.4536614367433103
 46.6333794655304175 35.3684429977597077 15.6113976343109560
 46.5693596623683632 32.0702063353386393 15.7405688152991345
 46.5082156427932247 28.7708750580941235 15.8361330471517778
 46.4494432691808328 25.4699964388911226 15.8967113622139724
 46.3924795760091300 22.1673858861512727 15.9224434788837534
 46.3360148120145396 18.8632256822440638 15.9136625217462484
 46.2784690577623863 15.5573871812181839 15.8722147683769794
 46.2179801757423334 12.2498930202545235 15.8045881716362633
 46.1523974565797488  8.9399647195200469 15.7232618713941470
 46.0799554155260864  5.6262447383096781 15.6432159112342308
 46.0010236237473649  2.3085993087753547 15.5763419097225100
 15.6815825659202108 64.3346130841031538 15.5310703176420102
 15.5969790440055274 61.0131477827608393 15.5139892340553409
 12.0109408377019680 22.9425322231948670 15.6017280034055599
 12.0669113397653494 26.2604927743118850 15.7170844260345408
 12.1221854038029004 29.5781589556385676 15.8091586343232446
 12.1769547890327559 32.8948516322570441 15.8744420205248602
 43.7233152724750553 33.7831013774633959 15.6748023537323373
 43.6628869254438214 30.4823679398802092 15.8087071429163917
 43.6050393747099676 27.1802346105069788 15.9078599239521132
 43.5493071375550258 23.8765615889524518 15.9704868277122163
 43.4944984487520614 20.5716274389785205 15.9956726489266163
 43.4395827316985574 17.2656701515317224 15.9840569498499274
 43.3823240429563626 13.9586051264306406 15.9401005245810179
 43.3208181254914493 10.6500237192045049 15.8733965463209792
 43.2531285758305373  7.3387304027378804 15.7982052396867925
  6.2796139165744069 23.0953022773126513 15.5318105424700654
 43.1781980356415076  4.0234472365074403 15.7290961545220984
 12.7771197080105932 62.7313592553644241 15.6481514670244124
 12.6929130361013591 59.4109388073177982 15.6480834991284343
 12.6113992564126978 56.0916547099048159 15.6755936687064068
 12.5353675391562707 52.7749634767628848 15.7264259367989734
 12.4665439032970582 49.4612575107290979 15.7901607381629514
 12.4036028908888269 46.1490820929262355 15.8513383548818449
 12.3443362691298830 42.8370755683590190 15.8966621110216781
 12.2873344337109653 39.5242226020752199 15.9178144986335077
 12.2317401319107244 36.2101688508493424 15.9108851278712837
 43.0974458311232169  0.7050705942638659 15.6765750299632156
 15.4347928097386031 54.3725836210571529 15.5691418626074398
  6.3366085808688952 26.4071734444842079 15.6931567163325862
  6.4475467618301581 33.0289098403051682 15.9317445859121118
  0.2689890798054457 10.0010026963837912 14.6686477496005452
  0.1917685935000409  6.6794125057736977 14.4888331986386714
  0.1101754812301900  3.3513069012832402 14.3497030812453481
 35.5525075123430057 55.5211310020993594 14.4420560719636484
 35.4726188855322775 52.1938638168419260 14.5888114565290437
 35.3970996607486299 48.8720170622124570 14.7729726042264300
 35.3262729665392001 45.5554016707701166 14.9785653427453500
 35.2600164306573163 42.2423829027942119 15.1914863631554233
 35.1973074537790609 38.9320499235326665 15.3995535514734030
 35.1376754401833153 35.6232050625512997 15.5915239916266781
 35.0805414074066704 32.3149901736336034 15.7586934633001032
 35.0254558967653224 29.0068829397543730 15.8949757069607340
 34.9716576006182081 25.6985811159569657 15.9963873867793271
 34.9184377657369254 22.3903555014561668 16.0596878844163307
 34.8652686409206467 19.0823437961833982 16.0840320405257593
 34.8107857511145227 15.7747544299323632 16.0716833057922024
 34.7534494369982951 12.4671513229752300 16.0292888138390524
 34.6915848540119924  9.1585765459557198 15.9678060420208254
 34.6230085507031973  5.8474553602481665 15.9029568318121672
  0.3426390648078075 13.3163719057408851 14.8745919988116029
 34.5470877335771789  2.5324853349379399 15.8493011013121983
  0.4121397900727184 16.6262812604564942 15.0926153961634046
  0.5392395127415641 23.2362400509179565 15.5099058991141323
 32.0262895199548510 20.7926558782160136 16.0485073291038915
 31.9720797124636213 17.4841323937348250 16.0516329752843099
 31.9161012129248611 14.1762065619487689 16.0229823293140328
 31.8570606931723290 10.8682021042174135 15.9702288156245000
 31.7927922764153443  7.5588679451541916 15.9059535739177544
 31.7212510619068020  4.2461903427451277 15.8463206098329970
 31.6428718066694223  0.9297238522432115 15.8037364658560371
  1.3235222496449548 62.9575292709789096 15.7856026381817891
  1.2394147924792664 59.6385461741056204 15.7954061668852415
  1.1571443435359718 56.3202321450300758 15.8308528887974731
  1.0790138209180060 53.0039313851038401 15.8854092832999836
  1.0072031973725577 49.6908504255424859 15.9488197157948122
  0.9419752061508706 46.3805921255890112 16.0068375225688122
  0.8817170216874469 43.0719932291482976 16.0440560881957381
  0.8244954159606236 39.7640473144098152 16.0490632306716172
  0.7683620373886553 36.4567178293635479 16.0161378469308069
  0.7125677848838389 33.1501091934779026 15.9435238112932254
  0.6561682568145275 29.8445188085794406 15.8327694766360256
  0.5986192434344851 26.5398113778909703 15.6868511675298627
  0.4774252280559640 19.9322426572139548 15.3085203914247359
  4.2292170915457454 64.5609634833003128 15.8162909323471261
  4.1452321007381068 61.2419750404113614 15.8098756895341985
  4.0619360742967734 57.9232313656580260 15.8309142903416671
 37.9205223517733643 30.6015250805203642 15.8310806412585627
 37.8654014446508214 27.2952314340953492 15.9515039009541049
 37.8116752990392655 23.9884983471156588 16.0338997258695954
 37.7585722485176660 20.6814051115348612 16.0765435349645003
 37.7049571358679430 17.3741346814923965 16.0803385159205519
 37.6491609690133586 14.0667632053639835 16.0496672503249869
 37.5894847717334315 10.7585611440092723 15.9935559491906005
 37.5236137018397145  7.4483111919109675 15.9262263356263247
 37.4502928351138991  4.1346474366724282 15.8635405594449335
 37.3707209813036627  0.8176722859807489 15.8171368040844484
  7.0510339806991293 62.8451208340142458 15.7946143882102099
  6.9669834014309489 59.5259477654619715 15.7997787008496839
  6.8852034812647611 56.2077560332711528 15.8307957458940489
  6.8081712803967820 52.8919473550260406 15.8817439662956961
  6.7379775165352482 49.5792204247472412 15.9423626147457806
  6.6743401392267820 46.2686715014263967 15.9973798485541838
  6.6147977131858475 42.9589541171919080 16.0313946597559571
  6.5579709091306979 39.6491855828421649 16.0341154997456350
  6.5025862420123701 36.3392484595365843 16.0011295348354494
 37.9776031160823564 33.9069271859451931 15.6761253678538086
 38.0371055185191409 37.2119588348137640 15.4915460212403708
 38.0999048002682059 40.5174771494484531 15.2846560687397837
 38.1668235270857323 43.8250639418432115 15.0659645542504670
  3.9818477406872996 54.6060110078188785 15.8748933717106162
  3.9072522545199506 51.2915664278983812 15.9335724572204533
  3.8397715457793713 47.9800121866805753 15.9941882622637852
  3.7780819623753703 44.6704340395801651 16.0407350168981786
  3.7199095193521199 41.3616022298649142 16.0595066207771282
  3.6637383820872791 38.0529195013435455 16.0427044388416533
  3.6083970449869738 34.7444742614604252 15.9876272088307374
  3.4970465836677938 28.1283965571328913 15.7659369069524686
  3.4401035811790703 24.8209020278256745 15.6055098491859159
  6.3924194079980543 29.7183195610197544 15.8278905392383766
  3.3810880795732503 21.5133192797444899 15.4187938775144389
  3.2548943773074379 14.8938566933562235 15.0013146573882672
  3.1864941933323085 11.5789941702595769 14.7935149491181566
  3.1136155867880762  8.2593176165750322 14.6045613223695732
  3.0362918056225796  4.9336865492924211 14.4497459527743448
 38.5646990716362126 60.4397766731935278 14.2632990545381091
 38.4779133473406603 57.1051915593919972 14.3352392300175779
 38.3943368247565004 53.7756737577777386 14.4663621320395226
 38.3142068613572704 50.4527739290282256 14.6426428584701807
 38.2385032172061372 47.1361327177862108 14.8475199853847002
  3.3197065800512155 18.2047832486911325 15.2139255521158567
 38.6520347419758821 63.7764229550769031 14.2568164940191853
