Se W 
 1.0000000000000000
    28.3576050301877522    0.0000000000000000    0.0000000000000000
   -14.1788025150938815   24.5584063466279687    0.0000000000000000
     0.0000000000000000    0.0000000000000000   24.7171056087856371
 Se  W  
 292 146
Cartesian
 12.6138076945946391 23.6640348983598763 17.4510025955753036
  6.2174395368441058 22.6488398402885558 10.6749530459333926
  6.2098305191751830 22.6521628741567618  7.3125965501109329
 -2.5092548895533375 10.2043480672658760 10.6617895056229610
 -2.5225927974389881 10.1941149600320262  7.3024679626713951
 -1.1455213354075464 13.2350081091338545 10.6305870015122750
 -1.1610442893616815 13.2170791097406735  7.2760400873098892
  0.1942301714396112 16.2601320559865563 10.6115393877732771
  0.1942301714396319 16.2601320559865563  7.2600803472845383
  4.8576654238223878 19.6387048254377916  7.2980181678142992
  1.5361100158835312 19.2835097538155935 10.6313501869731528
  2.9012208879718702 22.3119424496832721 10.6658345644199795
  2.9115370385810273 22.3287925188896317  7.3065878451227473
 -4.4482776333396510 12.8926258149770696 10.6549317335830001
 -4.4721549187188661 12.8826870673420490  7.2969153898362764
 -3.0950316421233102 15.9105452413656447 10.6313501861112822
 -3.1199208481220100 15.9117134427870326  7.2767700457265576
 -1.7557282625212960 18.9329528693180080 10.6305869994902213
 -1.7634937554326260 18.9553606417704792  7.2760400872787141
  1.5495663112992335 19.3044803375248435  7.2767700457265576
 -0.4008618777413387 21.9644148729603685 10.6549317335830001
  4.8429851538665156 19.6309548382418910 10.6559175725493080
  3.4839401123533977 16.6124351899154057 10.6305870018465374
  2.7154087272464018  7.8495258410624897 10.6749530454808372
  2.7220910677957288  7.8544539265889606  7.3125965496109009
  4.0817563534332084 10.8899041316526350 10.6658345645399191
  4.0911908659548102 10.8725450476095329  7.3065878446461783
  5.4318300257534018 13.9233554804799802 10.6549317336872864
  5.4523758771732025 13.9076465184713349  7.2969153898362764
  6.7904354756442329 16.9467373083809214 10.6617895059388985
  6.8059665609033511 16.9403028952456722  7.3024679627955580
  3.5072285585089040 16.6079564164410272  7.2760400873397755
  8.1666029061538552 19.9623782519488735 10.6670860293851550
  9.5335048915863201 22.9783184054554255 10.6502197497629965
  9.5063919950920379 22.9746031744393342  7.2931811706683192
 -0.5857169388846281  7.5047316408719986 10.6670860302421957
 -0.5852408426251818  7.5165344557564326  7.3062893092577559
  0.7890708404323507 10.5487807535915472 10.6559175721093240
  0.7884423917021417 10.5321922736466664  7.2980181680495857
  2.1416121402326791 13.5863411729406671 10.6313501856861699
  2.1530450505199012 13.5642023877113242  7.2767700457265576
  8.1561433207935234 19.9568891562082342  7.3062893083061233
  1.3530518210692286  4.8383277927247850  7.2931811705596798
 -0.3975304439168172 21.9900625826254661  7.2969153900463750
 -6.4200373895882636 15.5790586017004795  7.3065878451521087
 24.0871093816032626  5.1697677320987383 17.4096012017840138
 24.0939365626875635  5.1589382872298586 14.0498287492883698
 16.8989838725956965  0.1099666742353233 17.4092512536664401
 16.8935509408425091  0.1063199528785042 14.0467700270412621
 18.8397712859176352  2.7935377902389629 17.4136182545995268
 18.8251307989473631  2.8041445940144674 14.0537172160913162
 20.7898309817010940  5.4880244615802694 17.4120809003881156
 20.7717357048744233  5.4898181960927719 14.0522354040582620
 22.1467896401403763  2.4773527812565841 14.0540112468179110
 22.7287731895667662  8.1827944489670354 17.4022265401775904
 13.5906295555402785  0.4485941066055524 17.4091934630786369
 13.5926677136772280  0.4482557738200771 14.0484505252902725
 15.5306810980506231  3.1258642717102352 17.4252724579858054
 15.5192904352770054  3.1436894333381762 14.0683588944947733
 17.4857781169373041  5.8148317181193123 17.4363225194944320
 17.4601372852793091  5.8254716505242072 14.0810722330036615
 19.4374943967487361  8.5120148275790637 17.4232493856673827
 19.4138221685533310  8.5073853067505976 14.0661580971454310
 22.7222155614347940  8.1829005384889246 14.0393555993575596
 -6.4002867260827214 15.5785495868600794 10.6658345643314387
 22.1391232493482484  2.4741276214245391 17.4138079363746847
  6.0181750493796500 24.3367558354593250 17.4081728034831471
 -5.0493654813502804 18.6006605765720323 10.6559175723958859
 -5.0634173018402251 18.6094990692763282  7.2980181682611569
 -3.6984900718364155 21.6293107923531203 10.6617895059771683
 -3.7006832484506456 21.6459783128265997  7.3024679627605362
 -8.3501577499116646 18.2820304867204975 10.6749530452423205
 -8.3492310727484771 18.2737793671879487  7.3125965501147050
 -6.9981954527681900 21.3132862744060816 10.6670860298630785
 -6.9882119637221196 21.3069725558962695  7.3062893094097756
  6.0244063092047995 24.3397515028162807 14.0451094078446026
 -10.2935272348954925 20.9890880419158492 10.6502197499714395
 -12.2395641991471482 23.6744365341771008 10.6185869057511972
 -12.2253473514437569 23.6640348984851734  7.2661030116432892
 -0.0079490158868133  1.8025109957667564  7.2661030112676599
 12.6280245423614623 23.6744365341558947 14.0985187059298820
  9.3097109735771095 24.0065663427124711 17.4254968603496323
  9.3337236544745696 24.0173492891668481 14.0683883741572586
 25.4407870073701901  2.1476119453182134 17.4358684505771926
 25.4610752343240598  2.1381924517728890 14.0807107048811915
 -10.2767533025984168 20.9674652004260231  7.2931811706683192
 21.3680265315333671 11.2091168698404449 17.4091934630786369
  1.3427128576510801  4.8129897211441826 10.6502197498286364
 12.8321033864021992 23.3209616075380453 10.6185869059353450
 17.8638647178208814  6.5247480782094156 10.6360333742935254
 17.8858995870079518  6.5078624333173360  7.2807830894478789
 19.2159328217690764  9.5464618651562443 10.6487467140742318
 19.2370651960098051  9.5455098416377009  7.2918331507998193
 20.5869354846127806 12.5626829145075423 10.6686550828732543
 20.5856234004996104 12.5642788448883689  7.3079121454585181
 11.8525144322181148  0.1063199528842045 10.6703355816661780
 11.8470815004799448  0.1099666742499004  7.3078543553297450
 16.5259286357377881  3.4690349982858835  7.2938562231182944
 13.2267749381655317  3.1436894327629687 10.6487467142965002
 14.5769754513714460  6.1758367291838212 10.6186464982443489
 14.5756147158914811  6.1595587698597081  7.2661846494997260
 15.9149159783204048  9.1996961613680934 10.6186464989124616
 15.9296934726622066  9.2066567092744815  7.2661846501036678
 17.2687530505824611 12.2227540036526463 10.6509475113588774
 17.2845984484973272 12.2409399948311730  7.2938562231182944
 18.6419376953112774 15.2501491119142454 10.6777500079753462
 18.6451246332316600 15.2558812294068460  7.3148790695024637
 13.2153842747943120  3.1258642717043004  7.2918331507998193
 -5.6359459663776779 24.3397515028822404 10.6719962006357427
 16.5181018033904863  3.4918505108905071 10.6509475114790977
 15.1533976592744803  0.4482557737985328 10.6686550832941158
 25.0576111500279239  1.4393721599665512 10.6363949051969975
 25.0393095163266608  1.4522325335919370  7.2812371583604065
 -1.9539702746953960  4.4664899050059077 10.6487172352994914
 -1.9566383098081215  4.4926769710387173  7.2916087487562180
 21.7579991833429069  1.1129760628278740 10.6672768595575995
 21.7452070183513122  1.1134738520224297  7.3075044069830453
 23.1067468915749572  4.1400475152665717 10.6630943620786542
 23.1057067672381287  4.1482993844896976  7.3032976719746427
 15.1554358176078896  0.4485941065721600  7.3079121456093077
 -3.8878374534427405  7.1712416886418859 10.6719962007562241
 18.4533105527878440  0.7889401709293247 10.6777500098051359
 18.4566812432134846  0.7833141429268408  7.3148790704446158
 19.8103483477956246  3.8246464477121767 10.6648702046696080
 19.8209494051240789  3.8098723452898899  7.3050247086463020
 21.1629074600875420  6.8532925486345739 10.6633883930191793
 21.1794134652292634  6.8459169164070461  7.3034873548693975
 22.5335022056869931  9.8750020953470337 10.6703355822186552
 22.5330605178631700  9.8684736777910782  7.3078543551198338
 -3.8883587595000493  7.1781359516415142  7.3089328049318416
 12.8159868815568831 23.3138502743528520  7.2661030111639135
 -5.6297147065566921 24.3367558354656062  7.3089328051119757
  9.9062940872296696  2.7935377903242431  7.3034873548693975
 13.4130754343688956 17.6045895241945338 10.6630943619498684
 13.4064491684860432 17.5995628153685146  7.3032976717970897
 14.7764967711833428 20.6444252088159743 10.6363949055353046
 14.7745101765002058 20.6221453424700734  7.2812371582055722
  3.2849901388572404  2.1381924518030666 10.6363949050354822
  3.3052783657045346  2.1476119450563504  7.2812371582055722
  4.6521288102755003  5.1589382869639859 10.6672768596392444
  4.6589559912568834  5.1697677325081948  7.3075044071588149
 12.0333905071273666 14.5825351143385387  7.3034873548693975
  6.0238498116551655  8.1829005385686138 10.6777500094289124
  7.3787649157221518 11.2110511333433998 10.6686550838205729
  7.3780388416062399 11.2091168700184571  7.3079121454585181
  8.7330814217606321 14.2406677733219755 10.6703355817583354
  8.7389560411402023 14.2435494693019375  7.3078543551191570
 10.1064739341872425 17.2694029765299994 10.6719962002723214
 10.1007639802358202 17.2655043808934217  7.3089328053590608
 11.4819241003050561 20.2965569728243693 10.6487172354561146
 11.4605794534032555 20.2811528549240023  7.2916087487562180
  6.0172921832504063  8.1827944489836835  7.3148790700187369
  9.9209345741033594  2.8041445938541734 10.6633883928759481
 12.0352560241468005 14.5645526793525129 10.6633883928039275
 10.6763902992725459 11.5318385233236089 10.6487467138791292
 11.2859280884448143  5.8254716524804993 10.6360333744538291
 11.2602872560360687  5.8148317170563750  7.2807830894478789
 12.6272066291691445  8.8464569303365401 10.6186464982499462
 12.6137898707984277  8.8557743420148416  7.2661846490796957
 13.9693052526910311 11.8717700912295960 10.6360333741014745
 13.9729112159526174 11.8992956697236778  7.2807830894757020
 15.3344200439817477 14.9075251777336053 10.6648702050510717
 15.3419142627754468 14.9240930145340798  7.3050247086463020
 10.6666485886361677 11.5506157082045640  7.2918331507998193
 16.7089700660680265 17.9500754715528075 10.6672768594575977
 -8.9452633114095992 24.0173492893613556 10.6487172348435806
 -8.9212506296509488 24.0065663428613938  7.2916087486422700
  6.5992757331320657  2.4773527815897287 10.6630943620177856
  6.6069421236457622  2.4741276211278538  7.3032976720056926
  7.9743296683303653  5.4898181962804218 10.6648702048311304
  7.9562343911481026  5.4880244619172256  7.3050247083974620
  9.3322432045792088  8.5073853068218099 10.6509475116134222
  9.3085709764912199  8.5120148281027390  7.2938562231182944
 16.7149350502678047 17.9387482369100262  7.3075044071974036
 21.3673004573463814 11.2110511331597138 14.0484505249604883
 -0.0098486725880025  1.7849980265305661 10.6185869057665183
 10.2893841298330315  0.7833141427733106 17.4022265392598747
  8.1604419724998625 12.5642788447808051 17.4091934630792728
  0.1942301714396190 16.2601320559865563 17.4570252635532555
  6.2125631673265032  9.8750020954206583 14.0467700262214858
  6.2130048550758765  9.8684736778776170 17.4092512534565280
  0.1942301714396371 16.2601320559865563 14.1055662242138986
  4.2762977964307733  7.1712416887153259 14.0451094074030678
  4.2768191023650282  7.1781359516866505 17.4081728034265559
  2.1519540974256057 18.9553606415295910 17.4410655214410646
  2.3424306162633441  4.4664899051227254 14.0683883737992801
  2.1441886047108207 18.9329528688441826 14.0865186072453241
  2.3450986522316710  4.4926769705008525 17.4254968603534692
  0.3983090145893377  1.7849980264008320 14.0985187081539607
  0.3964093588597416  1.8025109956322423 17.4510025960669566
  4.0891435922255761 21.6459783126684293 17.4146376460238983
  8.1591298882379331 12.5626829145024033 14.0484505253277909
 -11.0934637578764210 20.2965569729693662 14.0683883739546083
 -11.0721191107088082 20.2811528541541897 17.4254968603534692
 15.3329899390494262 17.6045895242268919 14.0540112468179110
 15.3396162044941473 17.5995628154965189 17.4138079363746847
 -5.0639155335975534 13.9076465184155840 17.4201902185181048
 -5.0433696833367501 13.9233554804183939 14.0621738753233920
 -0.4006104980594604 10.5487807535451825 14.0611880368001074
 13.4041511103866604 14.9240930145541189 17.4120809001383741
 -3.1187682154928371 16.6079564164867115 17.4410655214410646
 11.4773123222175055 12.2227540034904116 14.0661580967820061
 11.4614669247270093 12.2409399950196409 17.4232493856673827
 -3.0954797695874845 16.6124351899019196 14.0865186089641874
  9.5301325514015112  9.5464618655064779 14.0683588942817437
  9.5090001768055661  9.5455098407914729 17.4252724579858054
 -1.1611059683330252 19.3044803373615927 17.4403355629596568
  4.0869504139895421 21.6293107921460326 14.0553161026429017
 -1.7531517972532216 13.5863411730635271 14.0857554227018866
 10.1009407399125166 15.2558812292504573 17.4022265401775904
 -1.7645847081146067 13.5642023874699209 17.4403355629596568
 -2.3269483843331158  7.8495258411731310 14.0421525625652013
 -2.3336307249124895  7.8544539267409839 17.4045090589827751
  1.5495046325556032 13.2170791096645051 17.4410655215319927
 10.6819875776951143 20.9890880412062906 14.0668858594181181
 10.6652136448677854 20.9674652004464122 17.4239244381493599
  1.5339816782353846 13.2350081092071399 14.0865186066773838
  8.7386180924909862 18.2820304865712728 14.0421525624174457
  8.7376914156781869 18.2737793671086912 17.4045090586191762
  3.5083811910829956 15.9117134431429434 17.4403355629596568
  6.7887470691175515 15.5785495867494586 14.0512710444006910
  6.8084977328432661 15.5790586014218473 17.4105177641292066
  3.4834919852368285 15.9105452414413033 14.0857554225006059
  4.8367379759062814 12.8926258145722201 14.0621738752028076
  4.8606152615851741 12.8826870671054579 17.4201902187433610
  5.4518776444125745 18.6094990692813305 17.4190874411802561
  2.8977152326004307 10.2043480674033766 14.0553161029906413
  2.9110531403567377 10.1941149598394816 17.4146376460334764
 10.1041276778505527 15.2501491119158885 14.0393556001197730
 12.0311303225008199 17.9387482368732840 17.4096012017454349
 12.0370953069212305 17.9500754717633768 14.0498287491785856
 -3.6932960108108421 10.8899041317975822 14.0512710443885460
 13.9715551961437345 20.6221453427448402 17.4358684505771926
 -3.7027305232211774 10.8725450476300285 17.4105177636628810
  7.5831579127707034  6.8532925489575369 14.0537172156253671
 13.9695686028318971 20.6444252089078617 14.0807107045761750
 -0.9542525143005410  4.8129897205103012 14.0668858590144996
  7.3866557957837538 21.3132862748559688 14.0500195806002939
  7.3766723064716127 21.3069725559360634 17.4108162993358420
  0.9737011855512245  7.5165344556668208 17.4108163004795102
  0.9741772819819887  7.5047316412985294 14.0500195782442336
  5.4378258236503267 18.6006605770454385 14.0611880357518011
 -0.9645914783479957  4.8383277927639856 17.4239244380407321
  7.5666519079088701  6.8459169168323921 17.4136182543527802
 13.4116453291456761 14.9075251776805366 14.0522354036778783
  8.9357170254628464  3.8246464476877335 14.0522354038977983
 12.8163719001870700  9.2066567087760180 17.4509209586279113
 10.8822006543792842  6.5247480789410135 14.0810722345880492
 -2.5230766955839781 22.3287925191363605 17.4105177636232966
 10.8601657862207208  6.5078624334425204 17.4363225196515863
 -2.5127605447554813 22.3119424497416894 14.0512710442726103
 -1.1476496732146861 19.2835097536693461 14.0857554218798118
  8.9251159674205205  3.8098723452907359 17.4120809003881156
 -7.7676829779908596 19.9568891564001945 17.4108162993330779
  6.9880661896824252  1.1129760626720688 14.0498287493853304
  7.0008583548885426  1.1134738519523639 17.4096012017923805
 -7.7781425633217971 19.9623782519702999 14.0500195791330160
 20.0129839513313001 14.2406677732772060 14.0467700270235181
 20.0071093318958582 14.2435494692877676 17.4092512533018393
 12.8311493942799295  9.1996961612732537 14.0984591099054093
 -5.8213701762850025 22.6521628741442740 17.4045090581241659
 -5.8289791939219109 22.6488398403683817 14.0421525631668267
 18.0794167849275098 11.5506157083266192 17.4252724579858054
 16.1188587436600059  8.8464569307022245 14.0984591108526764
 16.1322755019312964  8.8557743419355006 17.4509209592352903
 -9.1179316522493110 22.9746031752917013 17.4239244381173464
 14.1690899213437937  6.1758367294273802 14.0984591122940124
 -9.1450445488047727 22.9783184060167756 14.0668858591641062
 14.1704506578131717  6.1595587698911052 17.4509209592352903
 12.2279635692038973  3.4918505111083711 14.0661580972179969
 12.2201367385696393  3.4690349983123370 17.4232493859034498
 -12.4275265387201479 23.3138502739051638 17.4510025956230379
 -12.4436430436416785 23.3209616075301227 14.0985187044870539
 10.2927548202441876  0.7889401709370684 14.0393555998157176
 18.0696750739815215 11.5318385238132155 14.0683588946526044
 -4.4545248118280041 19.6309548382736843 14.0611880366778337
 -0.3999820488547411 10.5321922736129530 17.4190874409688448
  0.7859907863849988 21.9900625820861073 17.4201902189534579
  0.7893222208180357 21.9644148725649764 14.0621738748860512
 16.7108093481710469 14.5645526790502249 14.0537172158131689
 16.7126748661707758 14.5825351143565065 17.4136182543527802
  3.6884542230571502  1.4393721599941014 14.0807107049717946
 -6.4175062175721171 16.9403028953967656 17.4146376460389973
  3.7067558560940044  1.4522325335839157 17.4358684504223369
  5.6403586056138453  4.1482993843801399 17.4138079363823906
 14.7767601205762222 11.8717700916749678 14.0810722343951831
 -6.4019751328400787 16.9467373081352513 14.0553161026877671
 -9.7123036373864426 17.2655043809371023 17.4081728034265559
 14.7731541571427023 11.8992956701792032 17.4363225194944320
  5.6393184815820536  4.1400475156563949 14.0540112469361720
 -9.7180135911014691 17.2694029764780481 14.0451094082355699
 -4.4692050813369892 19.6387048252862932 17.4190874411802561
 24.6576875886172218  5.2679413497701448  8.9841950758979596
 -7.3817102550736680 23.7655689065532698 15.7288035468876188
  1.9461890331452225 17.0384227159036321 15.7760413302751505
 20.0072553051557023  1.9074360081721977  8.9953123104021593
 14.9641035212668552 18.7257411715638113  8.9781448800971386
 13.5912040076506848 15.6959543017324279  8.9873698021407495
 -6.6051950376028827 15.0356838667550949 15.7316272588664194
 19.4257224653424103  7.6387364507127762  8.9704848273485176
 18.8363272269877058 13.3484336118055946  8.9902448592963271
  3.4965496086736314  0.2364999153877121  8.9530485363788017
 -10.6836558699366044 24.0987747587578660 15.7633723783900539
 -0.0077297767686825 14.3537458452134210 15.7760413304157368
 23.3021786561786506  2.2362419666651507  8.9781448801901664
  4.8528158821556051  3.2600066833527253  8.9781448796836738
 -4.6612953464287772 17.7296109323326476 15.7464508724668502
 -2.7109599914148523 20.4153058975330879 15.7442375200775757
 17.4756176930309906 10.3266466024784300  8.9590674909524530
 -1.9516608508258357 11.6665766516612326 15.7442375203715006
  6.2155232445698729  6.2778969882474271  8.9953123093748051
 26.5987454622813964  2.5734343036465406  8.9530485364036938
 14.7725923044867375  4.2607541767450758  8.9590674900937621
  3.8945989686330846 19.7304010649683441 15.7464508720758367
 21.3647560159127181  4.9401012570356109  8.9873698021416129
 12.2236341494616045 12.6673843918431377  8.9704848268631192
 15.5265408463147523 13.0103288708091718  8.9721720039165742
 14.1705466175206709  9.9799217778147362  8.9410075038441974
  0.5957324622046004 20.0715865430967746 15.7589721477117006
 -1.3557687424484928 17.3882276063564163 15.7760413304114540
 -6.0224519300998649 20.7470213116510571 15.7267364807593779
 18.0712677486299711  4.6068631055751661  8.9721720036792121
 16.8963195099112689 16.0366568248736243  8.9953123096054277
 -7.9681144844116769 18.0559305448722824 15.7264442912595452
 -3.3073373848699150 14.7021159953919831 15.7589721476098408
 20.7848249477881488 10.6596977994289155  8.9859471487622482
 12.8236961053473735  6.9456759426349421  8.9410075038441974
  6.8005900979651139  0.5702518215018859  8.9841950763574232
 16.7091818530891381  1.5714516481062333  8.9902448598860865
 -4.0771804914029044 23.4379723138254938 15.7183297808119704
  8.1631380359413956  3.5859342626000688  8.9873698021407495
 -5.2477933172184450 12.0052231781768501 15.7299503740089257
  2.5335395379118588 22.7608311129008385 15.7316272590904589
 22.7258683831772714  7.9662014384465101  8.9922470821190874
  9.5212894653498843  6.6047978447496067  8.9721720052260618
 11.4697414439767762  3.9158689791894070  8.9704848273660431
 -9.3307435510104373 21.0726836011444476 15.7395014143019800
  5.8306096106131946 22.4310306382233264 15.7264442910385771
 10.8708880618019013  9.6345890426975274  8.9590674900937621
 13.4064194744849310  1.2283710284700085  8.9859471478979245
 -0.7696172633238018 23.1005170839815577 15.7299503740082880
 10.1032614837291472  0.8941262843165745  8.9922470822764460
 16.1248553358497553  7.2963921012209632  8.9410075045564135
 11.0721162137320235 24.0987747594983936  8.9537332293255254
 -3.8862565046382627  8.9720617830174092 15.7183297813809144
 11.2704476797119924 10.3266466024274415 15.7580381180496172
 -12.0331765623711888 21.7613363559211805  8.9537332282735438
 13.2195245271944426 13.0103288707379026 15.7449336054420268
 -8.7360485848976381 22.1027254973580831  8.9776041947226108
 -10.0936390211360258 19.0683704977280080  8.9883020618996703
 15.1548613653659530 15.6959543016375296 15.7297358069209743
 -5.4421492682892216 22.4310306379764235  8.9906613177450847
 17.0852450002820611 18.3837966501278984 15.7329105325169163
 -6.7998709588165571 19.4004920555596669  8.9903691278864226
 -8.1576671676073502 16.3703620712411890  8.9987758275587524
  2.1473199105802179  2.5734343035767573 15.7640570740120136
 -2.1450791949635852 22.7608311129103313  8.9854783499192283
  4.0883777842719713  5.2679413498111423 15.7329105324152714
 -3.5061386253624187 19.7304010648270172  8.9706547361812969
 -4.8568510139996759 16.6985136187708534  8.9728680876240503
  6.0201969899636980  7.9662014383598292 15.7248585268694399
 -6.2116407516523555 13.6746559055213197  8.9871552347764290
  7.9612404247652684 10.6596977993394635 15.7311584612324022
  1.1580776062343732 23.1005170838773459  8.9871552347750772
 -13.9845723436542553 24.4462675048625542  8.9340795171782510
 25.2495157641822345  0.2364999159446226 15.7640570728146070
  9.3203429071688717  7.6387364507216589 15.7466207809626635
 21.9454752747258546  0.5702518216171866 15.7329105324282246
 17.8751773122088942  9.6345890424143956 15.7580381186918856
  8.7388100680211451  1.9074360081616857 15.7217932982976922
 15.9223692675319288  6.9456759429466759 15.7760981041111954
 13.9734730684671167  4.2607541763436760 15.7580381174125783
 10.6747976251463008  4.6068631057975145 15.7449336045723243
 12.0368835198169180  1.5714516480808880 15.7268607496802897
 12.6212100362162403  7.2963921012307820 15.7760981041166097
 21.1724763944027821  9.3021045613590054 15.7268607496802897
 19.2247759077379961  6.6047978453728868 15.7449336056989271
 -0.2072721192850245 20.0715865432711205  8.9581334596879785
 14.5755187551515863  9.9799217777741926 15.7760981043948316
 16.5224312240852385 12.6673843918532842 15.7466207809776488
 15.3396458984416419  1.2283710286732554 15.7311584612305193
 22.5305421285515308  6.2778969883431150 15.7217932991724361
 18.4560971804581406 15.3616620984791012 15.7248585276379185
 20.5829273371210100  3.5859342626438653 15.7297358069147446
  5.4438867170909360  2.2362419667171367 15.7389607286885091
 18.6428038894110486  0.8941262845378771 15.7248585266769751
 23.8932494912791427  3.2600066832441548 15.7389607286888147
  7.3813093570567458  4.9401012566578535 15.7297358061308437
 17.2763239291949091  3.9158689794853951 15.7466207809623704
  9.9097381460839902 13.3484336119128066 15.7268607488995613
 -1.5577286896860825 17.0384227154940682  8.9410642785147978
 11.8497458630001056 16.0366568249303327 15.7217932988270075
 12.4216369047233286 21.7613363558604256 15.7633723790144806
 19.8182117362997836 12.3339209935552940 15.7311584612297697
  9.7192038939828187 21.0726836012979959  8.9776041947275846
 -2.5176985942676779  5.9464567632470349 15.7288035469953744
  8.3565748277998662 18.0559305448522451  8.9906613185531548
 -0.5831888568702602  8.6328828008463248 15.7267364807602608
  6.9936553804328296 15.0356838665776547  8.9854783499192283
  5.6362536599447299 12.0052231783890253  8.9871552346620689
  1.3493868927855210 11.3203841697440204 15.7464508718802207
 -0.4004647945436359  5.6049870691765564  8.9776041944838525
  4.2747168475483512  8.9720617832028857  8.9987758273488865
  2.9061589370811358  5.9464567637864008  8.9883020619024343
  1.5437508626750240  2.9202850525778548  8.9537332299874457
  5.2453113561065736 16.6985136188414316 15.7442375202949272
 13.0238029888924114 21.4120556018612085  8.9530485364463441
  7.1883313014783239 19.4004920555470939 15.7267364812092030
 11.6608203729464606 18.3837966494304332  8.9841950761987626
 10.2899681927680078 15.3616620983688179  8.9922470813238817
  9.1245089276068843 22.1027254972918463 15.7395014143802285
  8.9278536365999237 12.3339209935684391  8.9859471480102897
  3.2942954374937043 14.0066936294487991 15.7589721490965466
  7.5735889795216202  9.3021045610408244  8.9902448591002688
 10.4820993638430320 19.0683704979183517 15.7288035468867982
  2.3401211936196891 11.6665766514088602  8.9728680879636027
 -2.9058350946045635 14.0066936295693321  8.9581334611746790
 -4.2658856709139377 10.9838811886778931  8.9854783499147963
 13.7819618518032563 18.7257411712785178 15.7389607286886744
  4.4656408343198120 23.4379723136452398  8.9987758275587524
 15.7222623844876086 21.4120556022709998 15.7640570726172342
  3.0994203341398823 20.4153058977496151  8.9728680877203235
  1.7442290853100262 17.3882276071382300  8.9410642787477546
 -1.1552905202068318  2.9202850522811969 15.7633723787765696
  0.3961901199029677 14.3537458452662605  8.9410642783753165
  0.9716492000524788  8.6328828008469820  8.9903691274357076
  0.7889251372104342  5.6049870689855519 15.7395014136941818
 -2.3317350450695127  8.2934349847986599  8.9906613181998836
  2.7201953879256884  8.2934349847090552 15.7264442912444267
  7.7701705985202940 23.7655689066355649  8.9883020620595975
  4.6543460135600938 10.9838811892703401 15.7316272588664194
  6.4109122731194121 20.7470213115276998  8.9903691266258079
  5.0497556893448774 17.7296109324111164  8.9706547359901094
  6.6001010946928682 13.6746559058228474 15.7299503740074744
  3.6957977274483493 14.7021159950645988  8.9581334594429762
  8.5461275105370351 16.3703620712377464 15.7183297812268954
 -0.9609265501112431 11.3203841699379506  8.9706547349352697
 -13.9845723436542606 24.4462675048625471 15.7830260923823875
