Se W 
 1.0000000000000000
    31.6613052884249626    0.0000000000000000    0.0000000000000000
   -15.8306526442124742   27.4194946967506112    0.0000000000000000
     0.0000000000000000    0.0000000000000000   24.7171056087856371
 Se  W  
 364 182
Cartesian
 -0.7752695894961190  1.6704824122158262 17.5137527959710688
  1.2765256764539528 13.3257116186846911  7.3521816228636885
  1.1243592544504435 16.6137177743459681 10.7379551073276218
  1.1193560410799102 16.6249982573151449  7.3796910812040712
  0.9675529805995530 19.9357029227837863 10.7379551101275208
  0.9602854028714601 19.9257297718450985  7.3796910814103116
  0.7954721955323717 23.2520688329577965 10.7202631609524506
  0.7914594157726094 23.2375579025015000  7.3638557248219305
  0.6110525804523670 26.5624678228730815 10.7070355677522393
  0.6115002037972204 26.5575685939065380  7.3506508896231963
 -1.3449208357400886  8.1553257337976959 10.6367832015079191
 -1.3483125647010714  8.2037853326714405  7.2801976589968076
 -1.5160139739096810 11.4756477770534460 10.6867846139586398
 -1.5155625847641754 11.5201675616686465  7.3290171398488768
 -1.6745873030794749 14.8036526239590351 10.7253569050113349
 -1.6691415117850996 14.8304686641643553  7.3670639623437530
 -1.8309674116339638 18.1389121321834885 10.7379551079522493
 -1.8186966200765520 18.1376048004931043  7.3796910809571550
 -1.9990565348714449 21.4679035310387256 10.7253569079770674
 -1.9785560597724858 21.4497793168719646  7.3670639632988708
 -2.1786592343987148 24.7854244373644654 10.7063573652353661
 -2.1522267939825990 24.7698826651982813  7.3479345350003671
 -4.4578433364967145 12.9893516710894286 10.7063573644088788
 -4.4575999873389662 13.0200137214313312  7.3479345349797054
  1.2747133090468541 13.2917552159957566 10.7108575994589543
 -4.6169841456702345 16.3317028459814040 10.7202631617884059
  1.4409368531900086 10.0207485969697760  7.3075677653635394
  1.6196124371558716  6.7088672138450365  7.2586070228282482
  6.5619299884330129 23.5220513195766756 10.6645199601331537
  6.5189429739087181 23.5063517533738633  7.3075677644355848
  6.3729838542421549 26.8258434880430094 10.6532542659804079
  6.3313978890160350 26.8263750143732587  7.2963854746946746
  4.7514257392140404  1.8824274839532678 10.5893281120884453
  4.7895181331522201  1.8933745235089170  7.2326779689736149
  4.5637081476365795  5.1845155556048468 10.6140213321556214
  4.5953127613926084  5.2129272844775087  7.2574712138777819
  4.3886805851488102  8.4874070377575208 10.6532542673716311
  4.4099338808744095  8.5231557772220992  7.2963854753553141
  4.2284089662447188 11.7935819582555794 10.6948044764998524
  4.2358637392874225 11.8227115288764981  7.3360496122992744
  4.0824567736277935 15.1045611501306407 10.7202631614346515
  4.0718963292344563 15.1152917849032349  7.3638557212185223
  3.9345886636548131 18.4167766745945549 10.7253569056136566
  3.9086423962847054 18.4080848485623250  7.3670639634319963
  3.7692799186320616 21.7268946352875538 10.7108575973794480
  3.7389666272923052 21.7114859876218631  7.3521816240488835
  3.5898881920491545 25.0339567356802455 10.6948044789108110
  3.5609338560725554 25.0258479734956509  7.3360496125920065
  1.7950946005727306  3.3625427270445378 10.5756136299160097
  1.8112734563569388  3.3896018518594566  7.2187954523185294
  1.6073885720480978  6.6664505556270717 10.6151362911632337
  1.4330395731086962  9.9756709693540202 10.6645199593358182
 -4.6024109216428908 16.3354831407632126  7.3638557205858417
 -4.7830484051827709 19.6696829782892451 10.7108575977212581
 -4.7545474802788350 19.6511352240729202  7.3521816239788134
 25.4991724789808316  8.6264076492295523 17.4059475749302521
 25.5311269901270421  8.5944161050474968 14.0484635509602995
 -5.9893744115360441 11.9217430094742927 17.3781455458087422
 -5.9724415906213215 11.8968584385704261 14.0195119574023437
 22.1620505341902110  0.4926819728022783 17.4207201322184240
 22.2036364985235330  0.4932134999414892 14.0638513415378341
 22.3495956188781371  3.8127052347377886 17.4095378440623136
 22.3925826310296259  3.7970056691625178 14.0525856502638682
 22.5293104245325608  7.1228183360442552 17.3880884692634829
 22.5680913832357604  7.1009493565865389 14.0303209936784583
 22.7014242499077028 10.4206205445379627 17.3691710741881415
 22.7281000374069464 10.4055002662809386 14.0107482433727366
 22.8677421789509374 13.7079212984999863 17.3664547228340282
 22.8722088475819554 13.7099832595729634 14.0100700398732343
 -8.6249688658443873 16.9968837234670396 17.3853662739509893
 -8.6434981971326668 17.0145509791902114 14.0264539790918530
 19.3915865010707691  2.2932090140887151 17.3810559962372508
 19.4205408362405407  2.2851002505887879 14.0223011325400861
 19.5696192725175599  5.6075709998850476 17.3649239872639427
 19.5999325627816674  5.5921623537688605 14.0062480102245939
 19.7392950399655120  8.9109721386106990 17.3500416453922561
 19.7652413075467948  8.9022803129517349 13.9917487023996792
 19.9025489736720225 12.2037652024634209 17.3532498873769327
 25.3580280494405450  5.2926173288302811 14.0803224078291365
 25.3177566723798080  5.3197844562897618 17.4369079485239631
 25.1712770781695632  1.9914048001672375 14.1019693176825704
 25.1284312398446623  2.0020269478069830 17.4584985865324569
 -4.9604799404265760 22.9945774224386632 10.6867846141697616
 -4.9221503724468851 22.9719266158645041  7.3290171395975907
 -5.1486176019566043 26.3073749026748054 10.6686420566089044
 -5.1049348555985565 26.2956972574233170  7.3111580340908473
 -7.5573523355005667 17.8607941348339168 10.6948044763150882
 -7.5358527729152494 17.8397733266754059  7.3360496121047261
 -7.7340247337271304 21.1906105411245598 10.6645199591241191
 -7.6989350038850519 21.1612324772850116  7.3075677646975059
 -7.9215097507239429 24.5065674356788890 10.6367832016399007
 -7.8778466375122038 24.4852749633846400  7.2801976596601348
 -10.6870681793332327 22.6942300845692735 10.6151362915835801
  6.6986577799101994 20.1962386516970120  7.3290171400027058
 -10.6564462082887808 22.6624355753431068  7.2586070221946937
 -10.8451266133026216 25.9872584496807697  7.2330775228794435
  1.9906531787140505  0.0636596386550947 10.5604220539905675
  2.0082782162910822  0.0634003376951008  7.2033528129433062
 30.6892414856706424  1.5568632201670720  7.2033528115335956
 -0.7662325096881848  1.6553483329346257 14.1566835531169559
 27.9071688558494486  0.1764109551185066 17.4983101521960300
 27.9386921716095884  0.1768926879134341 14.1414919775053800
 28.1021525136072228  3.5010363635771400 17.4840280860143622
 28.1331881691264911  3.4751110954775775 14.1273478023124515
 -3.3690263009697499  6.8168981827591759 17.4488909045242835
 -3.3426599182688443  6.7765225159556524 14.0923887574521807
 -10.8830963767944837 26.0011734826362328 10.5897578069152001
  6.7374387402969669 20.2181076284975596 10.6867846139069584
  6.8707716056095327 16.8984364429138267  7.3479345350003671
  6.8974473946983501 16.9135567219639817 10.7063573659684206
 -10.5007196132403458 19.3750823019285079 10.6532542633946363
 -10.4803869463735335 19.3388020386953663  7.2963854754296280
 19.2307456973514768  0.9213487638540729 10.6906516299211152
 19.2061807372894258  0.9285620066806911  7.3317393352710640
 19.0462772443968191  4.2336698784950357 10.7018268244958232
 19.0250987855934532  4.2526267949617571  7.3429925210707507
 18.8740536046183749  7.5561868895806557 10.7182826715247543
 18.8564449050915997  7.5722824976332248  7.3595143806087657
 18.7150103623271704 10.8902429180868889 10.7209595399839639
 18.7015393637841001 10.8868097941589088  7.3639243032677824
 18.5586826070849504 14.2270684373593870 10.7018268256926348
 18.5528546664219469 14.1992488948935307  7.3429925221218451
 18.3930072013829715 17.5555690643725697 10.6606623129400582
 18.3952329604759655 17.5136053291093461  7.3034949138342631
 18.2126839624932160 20.8749497272166735 10.6140213239060568
 18.2214869369372252 20.8333734649513360  7.2574712148811740
 -13.6421893067558688 24.1836258050314399 10.5756136291028486
 -13.6268448418532007 24.1560849449282529  7.2187954532097454
 16.2540989150988331  2.4523086120611666 10.7078418185017910
 16.2579445684648363  2.4613474073865773  7.3515555789006068
 16.0783376995657363  5.7666988315185144 10.7209595362542167
 16.0821000258821947  5.7800816205558405  7.3639243032724888
 15.9176342521477601  9.0896127108276090 10.7314442434098680
 21.3410382404062560 16.0181028607367146  7.3317393372774964
 21.3350026138588795 16.0429833601256959 10.6906516295465419
 21.4877252295647061 12.6984627415199220  7.3515555782039606
 21.4974758831849613 12.6996517055789813 10.7078418190306834
 -1.1584943248991504  4.8432134568986598 10.5897578072393550
 -1.1654284335093288  4.8830537550772011  7.2330775223181956
 27.7423440032074424  3.0229850826212581 10.5893281070814709
 27.7138173945357451  3.0505005475162119  7.2326779708228655
 27.5509762061637851  6.3333085162557268 10.6247168495705413
 27.5291930437950789  6.3763303100944722  7.2682147034525366
 -4.2909119188798437  9.6563170429367933 10.6686420580358838
 -4.3026401555565847  9.6999862353610435  7.3111580331702477
 24.9765106448444349  1.2093728486048076 10.6140213232742546
 24.9361030601133358  1.2225373838335460  7.2574712141299313
 24.7847101012270024  4.5172388112695181 10.6349540547974453
 15.9176342521477316  9.0896127108275717  7.3714683238284477
 24.7495468185742702  4.5485908037004252  7.2783467853059483
 24.5760800213370665  7.8737521358299460  7.3100745938800795
 24.4315260602427493 11.1709342140458325 10.6975936512679866
 24.4184417998475851 11.1980407520847649  7.3389600639989645
 -7.3916639600474872 14.5167912785678617 10.7070355678417677
 -7.3876449147903269 14.5196285464193995  7.3506508871362142
 22.0116810465730524  2.7128986722389019 10.6606623125932138
 21.9742265062210294  2.7319529802063491  7.3034949136335294
 21.8292585069633382  6.0292282719953922 10.6824981200130757
 21.7972149996797846  6.0563857261780285  7.3246928194934124
 21.6580157907541491  9.3579254492963315 10.7043446244302043
 21.6353287830407446  9.3784399056167782  7.3457565758105225
 24.6025995841181953  7.8375580320177241 10.6675962466309198
 19.9131094180698298 12.2144958373330468 13.9968424473176185
 15.7674102914123235 12.4166598852736616 10.7182826706234113
 15.6121927934893012 15.7394217127430949 10.6824981186646113
 10.3509922540090749  5.5143599121355686  7.3246928198176935
 10.1479429039994891  8.8080998172960481 10.7018268249291992
 10.1749493052599753  8.8169624419120467  7.3429925211448053
 10.0013279587696502 12.1168778143991478 10.7078418194821356
 10.0072329582724517 12.1090279833888435  7.3515555787355451
  9.8582110531192928 15.4221985492243352 10.6975936507981029
  9.8412782330037913 15.3973139791465758  7.3389600642138211
  9.7004743448795114 18.7246408821292896 10.6686420578820247
  9.6685198353441564 18.6926493366331563  7.3111580330579384
  9.5273754069352776 22.0264396615397722 10.6367831990981028
  9.4871040284012746 21.9992725322572369  7.2801976587284676
  9.3406244337977089 25.3276521930814482 10.6151363012703968
  9.2977785950262586 25.3170300391864025  7.2586070222282384
  7.7139338219276841  0.3929951396646704 10.6247168471531364
  7.7620833674863050  0.3903490212181191  7.2682147034025180
  7.5243043751652561  3.6966867146724880 10.6349540556918392
  7.5690376378705659  3.7114630161921642  7.2783467840709388
  7.3482145099205702  7.0003703943239666 10.6606623128761377
  7.3834432895235151  7.0232798217372432  7.3034949139561141
  7.1871544470845068 10.3045060077721971 10.6906516284081903
  7.2056837786491812 10.3221732641573318  7.3317393345620667
  7.0415562033942090 13.6090737277020963 10.7070355671568809
  7.0370895350949638 13.6111356889148727  7.3506508887571638
 10.3114514557161971  5.5001881495722458 10.6824981188112620
 10.5354452217498959  2.1991090048773727  7.3100745943777925
 10.4908404280736818  2.1942394420312645 10.6675962481680067
 12.0765162110740931 27.1426460320102407  7.2187954529792737
 15.6046955038346162 15.6980924948458949  7.3246928204601991
 15.4438882784874583 19.0549126022619610 10.6349540552365216
 15.4343182989106751 19.0087843112524766  7.2783467853763124
 15.2591330178512674 22.3634255609023960 10.5893281082383659
 15.2495672327537175 22.3249630599415454  7.2326779689884555
 15.0644201367247650 25.6637086545004500 10.5604220534316990
 15.0553830543000409 25.6485745743679168  7.2033528129610804
 13.4631656443371561  0.6757053701817320 10.6975936517331363
 13.4931827255606791  0.6734834017172999  7.3389600630204228
 13.2798091302988404  3.9841401003715271 10.7043446255164376
 13.3089186760725635  3.9935303984994635  7.3457565767909072
 15.7622754356257353 12.3933624992452476  7.3595143795523184
 13.1114388595982803  7.2959913572092221 10.7182826711191428
 12.9595546947140594 10.6118963824448134 10.7209595359585332
 12.9692633660687822 10.6019467181363574  7.3639243013704707
 12.8150778355191033 13.9267725825914628 10.7043446270259430
 12.8086552980937665 13.8968678279306008  7.3457565759781120
 12.6594627445594661 17.2370406596037071 10.6675962481668307
 12.6413775139626718 17.1959769920407588  7.3100745940663545
 12.4879927253958485 20.5425344733968878 10.6247168499134617
 12.4616263430414378 20.5021588035545648  7.2682147033265672
 12.3025355238597260 23.8439458880710795 10.5897578070742551
 12.2714998694059592 23.8180206256524194  7.2330775231984008
 12.1080395277272252 27.1421642975301829 10.5756136445480706
 13.1341824164068672  7.3031931351898773  7.3595143812440611
 20.0665163828376087 15.4963454581564459 17.3810559965283886
 30.6978294424321021  1.5414698397000750 10.5604220514031955
  2.8708867196908927 16.4322471930522163 17.3531813048678742
 -0.5810854129643245  4.9940939277054675 17.4844276387425239
 -2.8710979496212388 16.7071606039735130 13.9961460736294612
 11.3730526567844965 14.2990432654791597 17.3691710741420167
 -2.8613892779349204 16.7171102694841593 17.3531813047965713
 11.3728093062091506 14.3297053164730137 14.0107482433361401
  5.6668232386190835 14.6194052818977998 14.0092637877010340
 11.5280124895336922 17.6190707524514565 17.4059475757053974
 11.5397407220805110 17.6627399437730972 14.0484635509245201
 -3.0155748111824034 13.3922844042438953 14.0127609833128268
 -0.5715196306985528  4.9556314267021380 14.1277774977623221
 11.6985404015601819 20.9427266779357062 17.4488909049314884
 -3.0219973460628209 13.4221891599070418 17.3713490336539529
 11.7203235636017880 20.9857484714785869 14.0923887570351738
  5.6570725854713633 14.6205942458862594 17.3655500296015930
 11.8831647488539538 24.2685564400165426 17.4844276382196355
 11.2136684984503638 10.9873541409759241 13.9968424470491115
 11.9116913586805389 24.2960718999536347 14.1277774966780036
 11.2282417226411013 10.9835738464507298 17.3532498874002314
 -2.6964702273204164 20.0158638522596775 17.3575912285423293
 -2.3374699191458408 26.6455735859859821 17.3781455434864398
  4.9475562664092791  1.3178835056108960 14.1273477998793577
 14.8671767984556702 25.7775871476658160 14.1566835533548758
  3.4000930523563615 26.3977082236271450 14.0264539798690659
  5.9665623548759630 21.2626712613379922 17.3924127896603800
 10.7257177901264953  1.0233597301512576 17.4059475750388586
 -2.5508435138626546 23.3349168863438727 14.0127609838755856
 10.6820350411680920  1.0116820830303823 14.0484635516902596
 -2.5217339681682795 23.3255265878212832 17.3713490304681031
 10.9085022731854426  4.3471303719303132 17.3880884692519864
 10.8701727046956620  4.3244795653230659 14.0303209950331347
 -2.7192137841164277 20.0230656287391113 13.9988229391862991
 11.0761051631100162  7.6679217636413322 17.3649239855469020
  5.8273631480985513 17.9611315380326495 14.0127609838593177
 11.0476042396179341  7.6493740074500076 14.0062480091729640
  5.8046761375102971 17.9406170809335244 17.3713490343683006
  5.9986058623668193 21.2898287168882625 14.0346074890023580
 -3.1711898992841565 10.0820163271656558 14.0495093607827037
  7.9528060036968826  2.8337820249761041 17.4369079485058727
  5.3502656994119668  7.9802549486739922 17.4207201327104464
  8.7454273771024091 19.4453048515635700 17.4070310141926861
  8.7719469408621791 19.4814989568806602 14.0495093613391635
  0.0869816079352220 18.2294442764112006 17.3456372849793077
 20.0590616107788406 15.5254750287444825 14.0223011317516804
  8.9188941744175416 22.7704661831181916 17.4387588239252658
  8.9540574555352066 22.8018181763743328 14.0821515548452982
 -0.0632423518852955 14.9023971019955237 13.9988229395287274
 -0.0683772079875780 14.9256944878351057 17.3575912282553837
  9.1054504141244408 26.0965196023231307 17.4596343934037961
  9.1458580008156112 26.1096841390475305 14.1030842845796514
  5.1435844656151195  4.6248269030985352 14.1019693181785382
  5.1742064356510582  4.6566214118611198 17.4584985858848754
  4.9855260310829266  1.3317985385977371 17.4840280888218160
 -0.2184598494595339 11.5796352743906912 14.0346074904121068
  0.0869816079351834 18.2294442764113178 13.9856613638550638
 -3.1892751305049973 10.1230799941314302 17.4070310145919009
  8.6008734157952471 16.1481227727699128 14.0195119562289534
  5.3299330276746693  7.9439746825682152 14.0638513437175341
  7.9091428929204719  2.8124895480113472 14.0803224091586561
  5.5043499694079028 11.2760736269722575 14.0264539796885845
  0.4234462705289960 24.8667483749023361 14.0092637913344618
  8.1317176393450374  6.1578245097739215 17.4095378440848805
  8.0966279118011730  6.1284464479874687 14.0525856489244809
  5.5103855960426165 11.3009541266696054 17.3853662743841504
  0.4272919240984032 24.8577095798407726 17.3655500305759318
  8.2947998732323480  9.4792836595215171 17.3810559958298931
 -0.3963343440876433  8.3102726756109053 17.4387588239765812
  8.2733003089083645  9.4582628523491454 14.0223011322958637
 -0.3867643635207663  8.2641443836532460 14.0821515543123787
  0.2476850549657211 21.5523581554336587 13.9961460669071975
  8.4430077294788095 12.7994284409148893 17.3664547191419700
  8.4389886841144790 12.8022657085732536 14.0100700392219188
  0.2514473817571289 21.5389753666697423 17.3531813045915335
  8.5877891537710092 16.1210162352505648 17.3781455445977890
 14.6721583181783970 22.4758435303091240 14.1273478021714762
 14.8585888423627939 25.7621937673996868 17.5137527941767530
 14.6652242107043342 22.4360032324828325 17.4840280868350035
 16.7982056254026055  7.3833540645266016 13.9791504991951836
  3.0257922606805656 19.7467744890296508 17.3575912285294436
  2.5645803158328424  9.8054516582439337 17.4136106954371428
 16.9500086853399949 10.6940587300092087 17.3374145228700982
 16.9550118983842673 10.7053392125441089 13.9791504952525774
 -8.3063482701663478 23.6223702686755743 14.0821515537894317
  3.0434009609295587 19.7628700979729111 13.9988229381638831
 17.1071783199834648 13.9933453681608118 17.3649239847088026
 -8.2616150066094036 23.6075939710111875 17.4387588259120072
 17.1053659541136831 14.0273017706352174 14.0062480120179060
  2.3820313169621024  6.4441072581835845 14.1030842891350687
 17.2715894983943805 17.2983083897654346 17.4095378437552668
 17.2636922109696584 17.3433860183875872 14.0525856501079183
 -8.4824381384857279 20.3186865937990966 14.0564432936769137
 -2.3674869998671393 26.6433516201400380 14.0195119570960678
 -8.0685692757783034 26.9287079670135299 17.4488909045068112
 17.4502650794411380 20.6101897736424675 17.4584985855086536
 16.7909380474783418  7.3933272162135628 17.3374145251318232
  2.5623545570256319  9.7634879233138641 14.0564432935302062
  2.8843577185774945 16.4288140691612696 13.9961460677190672
 20.2405865242930929 18.7959012099661749 17.4207201330513044
 -13.8399994651965539 27.2553973487602441 14.1566835568907052
 20.2193332279024176 18.8316499512124373 14.0638513440722459
 -13.8223744279036787 27.2556566506184552 17.5137527961985064
  2.7280299644234076 13.0919885498529514 14.0152787837631312
 -11.2353398824356798 22.1061297007043791 17.4596343936779306
 -11.2669444955433526 22.1345414339107407 14.1030842852353544
  2.7222020230988457 13.1198080932028152 17.3741130889001312
 -11.0792269073183061 25.4366294990425530 14.1277774947683170
 16.4421528481391377  0.7614883934275806 17.3664547192852154
 16.4417052245691266  0.7565891644661690 14.0100700367610518
 -11.0411345116255877 25.4256824614189796 17.4844276408118589
 16.6221120603223298  4.0814990844501757 17.3532498846007428
 16.6261248402478010  4.0669881540031128 13.9968424469736856
 -8.1167188230171075 26.9260618446694693 14.0923887617669443
  2.3908342921333046  6.4856835219161217 17.4596343951365043
 -8.4472093544981295 20.2957771652830843 17.4136106949513128
 -5.6827097406496287 18.5109571716525778 14.0152787850917377
  3.2156245998120738 23.0853871075952952 14.0152787835901638
 13.9996852326542367  9.1801448553856915 13.9791505012490109
 17.4380412137077911 20.6526064321074543 14.1019693177822791
 14.1615111323867229 12.4885883246481875 17.3500416439283569
 14.1560653406497003 12.5154043632557279 13.9917487064181305
 -5.6557033397629946 18.5020945455094399 17.3741130888377420
  6.1810284015713810 24.6061583147795950 14.0564432935633103
 14.3150900595554464 15.7988894247423044 17.3880884692634829
  6.1435738632190695 24.5871040062081683 17.4136106947290372
 14.3146386698540020 15.8434092097344301 14.0303209940446258
 -5.8293246853495013 15.2021791723274671 14.0092637870382717
 -5.8234196859658516 15.2100290037844879 17.3655500293980687
 14.4823400792615580 19.1152716536744904 17.4369079482909086
 14.4857318117669198 19.1637312531004511 14.0803224086974073
  3.3755280935600847 26.3904949803392199 17.3853662718633402
 14.0119560241731307  9.1814521871992802 17.3374145227104144
  2.2038078010066449  3.1629720430741624 17.4983101496243094
 -0.2259571415418422 11.6209644933839407 17.3924127887160260
 13.8315961082869183  5.8511534563351324 13.9917487044250812
 13.8520965843178683  5.8692776700531049 17.3500416471633727
 -5.5192011879767211 21.8188688397068482 14.0346074890432337
 -5.3398122167061981 25.1248175462294938 14.0495093611241710
 13.6519934094157929  2.5336325494719572 14.0107482443987834
 17.6419261003410703 23.9294551337646624 17.4983101523562716
 17.6257472480253696 23.9565142614487705 14.1414919843850839
  3.1944461404155207 23.0664301919637715 17.3741130889334414
  2.1884633356642258  3.1354311806634083 14.1414919889235247
 -5.4796603908771617 21.8046970747709601 17.3924127892539850
 -5.2952074218289225 25.1199479823968019 17.4070310142176297
 13.6784258496812878  2.5491743223268961 17.3691710741717280
  1.1229267638872238 19.8416447148304265 15.6661998255633286
 11.2069723589661905  7.2080548481538571  9.0254375683301848
 13.1468099268677516 25.5429800373765197  8.8904352196258323
 11.3800902251184031  3.9006746655376543  9.0077675851244656
 10.8933586852982387 13.8100907719895876  9.0282590627274217
  0.9652155656584144 16.5261892352825228 15.6661998291742997
 11.5648111720612583  0.5888471457244675  9.0000677810621639
 10.7321668604272844 17.1096508583760674  9.0000677804688358
  1.4748181238599585 26.4736019355921997 15.6900589165672084
 13.3400590440005775 22.2318355273461137  8.9188452021602345
  1.2929511110442042 23.1579488620254921 15.6807275153724017
 11.0464393266157792 10.5094647778538075  9.0363780932101498
 -2.3071706183716159  8.3969442484979293 15.7542397890412182
 -2.4905935997253845  5.0872214582854616 15.7982604096232091
 17.9898635374145179 12.3083098608927788 15.6667584559943780
 -2.1379985436372273 11.7053468556709781 15.7093380230781996
 19.7376089098643668  9.2722664722204939  9.0408334750053108
 -7.7465866154902336 15.3092671259989732 15.6900589163247783
 19.9024421075115008  5.9508387733473178  9.0254375694208591
 -7.5865594192132759 18.6059959063427200 15.7098632214852216
 20.0805080435541683  2.6324070592307143  9.0072423861874125
 22.3633659595013583 14.4135932197735759  9.0270466925382031
 -7.4147178641825207 21.9099312451602231 15.7363749077030892
 22.5178259548755975 11.0805239577522272  9.0282590637971136
 -7.2311370852102899 25.2190909407504300 15.7542397893711374
 22.6801584307922752  7.7544533357303242  9.0077675825183405
 22.8558792007981033  4.4331938809693296  8.9807307060652359
 -10.3807526307261710 20.4140017728130374 15.7543372263766361
 23.0433836592523740  1.1165676888593636  8.9627683829509923
 -10.1980207455769314 23.7213964476009416 15.7856335614014700
 25.4559247220009048  9.5703401298348982  9.0000677806542075
 25.6299051740388251  6.2467593461429090  8.9628658215899399
 -10.0057296096721640 27.0328012940118256 15.7982604092293641
 25.8163055230861787  2.9285154794009056  8.9314720483311856
 -12.9729822840124793 25.5428916528772341 15.8267569336867968
 28.5879206783795148  4.7507469125390580  8.9188451979116383
 28.7812474169172923  1.4360758964750591  8.8903486751581049
 19.5828596735083664 12.5982652303427436  9.0363780933985787
 -4.2658414710589376 26.7302098422904102 15.7170378283526073
 19.4283014876335614 15.9233699924112724  9.0072423866087856
 -4.4505624190571993 23.4183823224745602 15.7093380240143858
 13.6926541009786522 15.6137101316751252  9.0077675852214316
 13.8494641257872786 12.3064809255388390  9.0408334739623371
 -1.9811885181764155 15.0125760622120819 15.6762721345760205
 14.0034551386993709  8.9985581084536257  9.0509057809228537
 -1.8271975057151131 18.3204988782730993 15.6661998260993460
 14.1658297204804260  5.6900907356400605  9.0408334741716292
 14.3417181163676304  2.3782234038042009  9.0282590636634747
 -1.6648229233942780 21.6289662523405113 15.6762721342794258
 16.1139849800346795 24.0565969038047491  8.8903486650695474
 -1.4889345278153585 24.9408335835757704 15.6888465448727228
 13.5234820250005701 18.9221127390426922  8.9628658202800313
 16.3039653323341689 20.7426621123493753  8.9314720481269454
 -5.0984857837810269 10.2094061287107785 15.7170378279913319
 16.6434882915240721 14.1099445106343104  9.0254375698145299
 -4.9372939589938065 13.5089662148386473 15.6888465450414376
 10.5580772443842541 20.4132164755827930  8.9637204376701849
 16.9535794079030779  7.4774122721098184  9.0509057839548355
 -4.7842133177648822 16.8095922101515995 15.6807275148242127
 17.1236037565507822  4.1611081251159039  9.0363780931644353
 -4.6236802853938004 20.1110021404190960 15.6916680411819733
 17.3054707681071847  0.8454550516127753  9.0270466932371196
 19.2596190841827486 19.2472152300942732  8.9627683816868213
 16.4810887757194102 17.4265185094325297  8.9807307053305472
 16.7958682098045067 10.7928677517379032  9.0509057810871418
  3.2467193550513458  4.7516731000504997 15.7977566973965917
 10.3724186624838346 23.7218136280477587  8.9326467638713520
 -15.7436710362772860 27.3692758419946465  8.8741440940495266
 11.9293491064128645  5.9498447565709487 15.6845997784747393
 -12.7766403111343649 25.8828194894635963  8.8904352182862230
 12.0940461107565689  9.2748673384351861 15.6667584559172610
 -12.5839332903341301 22.5673838875918520  8.9193489130295145
 -9.8122683020817032 24.3907093800248518  8.9326467656590278
 12.2482000130691535 12.6035823116470667 15.6730583570357336
 -9.6276713645878509 21.0703395203556916  8.9647695608214786
 12.4043527882734850 15.9279191760181558 15.7068597946715283
 -9.4556924507323306 17.7439871400283806  9.0020572588696766
 -7.0397684108308551 26.2057930030203892  8.9637204379963418
 12.5732886338788248 19.2497336368052352 15.7533851741087538
 -6.8532897103499035 22.8867738578747222  8.9841969533706951
 12.7572680338643423 22.5683100743213139 15.7982604102900002
 -6.6792524360980439 19.5620911640004351  9.0134211033700247
 -6.5193134912639188 16.2326957612070863  9.0333077429200319
 12.9505947725184285 25.8829810904793938 15.8267569450141199
 -6.3654349430924011 12.8986842901265675  9.0288192335453878
  8.7908842326588807  1.1132639846256742 15.7533851735026644
 -4.0785247770599051 24.6911885086434424  9.0102458136827845
 -3.9013035381099037 21.3692122314207573  9.0325058303871852
  8.9773629353324900  4.4322831308217845 15.7329086549189885
 -3.7366065336357823 18.0441896492647693  9.0503471527170802
  9.1514002088404425  7.7569658219076585 15.7036845063185115
 -3.5824526308816007 14.7154746755917110  9.0440472511653329
 28.9774625717511398  1.7760769509069281 15.8266703900232866
 -3.4262998555642659 11.3911378110060504  9.0102458161157557
 11.7521278655362664  2.6278684784372128 15.7068597949828899
 15.7214278525756015 24.0565236849199273 15.8266703889734845
 18.1466452158195928 15.6156667242812315 15.7036845065853381
 17.8349152199263088  8.9982199421376059 15.6545513679061994
 18.3146732888847517 18.9231965955935806 15.7523360471077183
 17.6689931092104757  5.6856609335131578 15.6667584558923672
 17.4915468624055386  2.3700190724538959 15.6837978663880477
 18.4963257975166862 22.2319167080602149 15.7977566949765187
 21.1093894936987141 17.1110822983200634 15.7150483497712692
 14.5272689575102181  0.8362760687951232 15.6882863748354442
 20.9500167409238642 13.8124578347017657 15.6837978661084456
 20.7955383141654444 10.5104511788895145 15.6730583573548277
 14.7091644287974130  4.1548046422357769 15.6730583579985261
 20.6308956349787351  7.2055404334643463 15.6845997779120534
 14.8798453092271536  7.4748950706983646 15.6545513666816749
 20.4548573333801933  3.8962055851046018 15.7036845050884555
 20.2685530688067281  0.5826859875386124 15.7150483510094094
 15.0381422274142214 10.7957231192889846 15.6545513654940631
 23.7604160971440486 12.0121893662167327 15.6882863746482535
 15.1926580157634632 14.1134529413206042 15.6845997768219227
 23.5964221025547509  8.7130504788654140 15.7068597899569404
 23.4211356412909737  5.4078262308713692 15.7329086556191768
 15.3544041797150772 17.4287287702552263 15.7329086550473569
 23.2352481893818243  2.0969240661769453 15.7523360466565183
 15.5314471092678374 20.7432471626093360 15.7844588452020123
 26.3887298884662052  6.9058405127246463 15.7533851706247674
 26.2030713065713350  3.5972433597619786 15.7844588433130202
 26.0098576032655124  0.2852483242705294 15.7977567065901781
  9.3113391525837876 11.0863612263504852 15.6837978662526805
 -3.2573640083668729  8.0693233503949191  8.9637204378516540
  9.4652177010732466 14.4203726970754698 15.6882863750934280
  4.8002429907226345 20.1135165535499105  9.0325058321012186
  4.9648856697400641 16.8086058082851615  9.0440472512429402
  5.1193640966006582 13.5065991534240606  9.0333077427270769
  3.4289664406699472  8.0718417575373937 15.7543372262459940
  5.2787368504856245 10.2079746897139447  9.0020572584799172
  5.4499000137732621  6.9050552129916181  8.9627683801133049
  3.5976488447330226 11.3956869948949340 15.7098632222604184
  5.6326318987394126  3.5976605420694820  8.9314720489669899
  3.7522070306942781 14.7207917583760768 15.6807275155479378
  5.8249230343025369  0.2862556930314913  8.9188452022115499
  7.4045955456192676 25.2221329197745945  8.9647695613313836
  3.9069562658144128 18.0467905149085084 15.6762721343529474
  7.5904829965046394 21.9112307545027889  8.9841969545326883
  4.0717894624111715 21.3682182135741208 15.6916680415981968
  7.7657694589027777 18.6060065096576466  9.0102458159596139
  7.9297634528692855 15.3068676209567229  9.0288192336090329
  4.2498553995123789 24.6866499279702154 15.7098632223014381
  8.0840660284957959 12.0097898617476933  9.0270466929232835
  0.2833323358915477  3.2624600844509248 15.8267569316120511
  8.2440932246397836  8.7130610804174911  9.0072423889847784
  8.4159347811174143  5.4091257405154014  8.9807307023077563
  0.4733126899254817  6.5763948740204787 15.7856335602099058
  8.5995155586610004  2.0999660466030874  8.9628658202778055
  0.6504361303859240  9.8925384774417680 15.7363749044152428
 10.1792049596931129 27.0338086604912533  8.9193489023676236
  3.0540123323504864  1.4362374980082677 15.8266703900331560
  4.6242046896717417 23.4228514020028022  9.0134211036837755
  7.2127310133857305 26.2024892979789854 15.7543372230265408
  4.4379004242081681 26.7363710000135733  9.0020572586639549
 -1.3033836860989236 26.4827809187888690  9.0288192363152771
 -1.1214882156053940 23.1642523450979780  9.0440472508460896
  9.6252720779073613 17.7487168576442613 15.7170378285441146
 -0.9508073350874190 19.8441619171961214  9.0625542419210259
  9.7992525285797480 21.0722976408500777 15.7542397862448880
 -0.7925104172112560 16.5233338674206678  9.0625542434151587
 -0.6379946291329904 13.2056040450696450  9.0325058324398064
  9.9856528795133546 24.3905415067044764 15.7856335613523751
 -0.4762484640055331  9.8903282161075285  8.9841969548708907
  6.0183843404664676  2.9283476071295262 15.7844588442091247
 -0.2992055352683936  6.5758098242634420  8.9326467629046995
 -0.1092247909593574  3.2625333030191874  8.8904352182524917
  0.8128356464174055 13.2091124769715140 15.6916680417649221
  6.2029812788777301  6.2487174670987855 15.7523360465733742
  6.3749601927060109  9.5750698480772893 15.7150483506398029
  1.8383404650303117 21.6333960541277328  9.0503471529883299
  2.0042625757468278 18.3208370447142137  9.0625542440059661
  6.5327133156976540 12.9054637678457080 15.6900589161789323
  2.1592108924827023 15.0107471259939587  9.0503471518933978
  6.6871733102753890 16.2385330298154820 15.6888465460976949
  2.3159925704124897 11.7033902630396387  9.0134211035043243
  2.4840206449072837  8.3958603896597861  8.9647695619670422
  6.8495057855769197 19.5646036521611997 15.7093380230917798
  2.6656731542925884  5.0871402803066106  8.9193489008257902
  7.0252265578146265 22.8858631072406347 15.7363749045970760
  2.8576703603779352  1.7761653336261447  8.8903486751813166
  1.6608942183451667 24.9490379144385415  9.0333077428615240
 -15.7436710362773340 27.3692758419946678 15.8429615200637226
