Mo S  Se W 
 1.0000000000000000
    72.0607215274413164    0.0000000000000000    0.0000000000000000
   -35.7738418233263502   65.5783904816973404    0.0000000000000000
     0.0000000000000000    0.0000000000000000   24.4856654507443388
 Mo  S   Se  W  
 537 1074 992 496
Cartesian
 37.4280170950684337 47.9487041196809187  8.4194242625056841
 38.4030602057473942 27.0398454210685486  9.6081358165490744
 12.8924889981248043 51.7674703518780248  9.2675894815451372
 54.6860238047851723 22.3802031837250404  9.1921156254555694
 44.6021577991707971  2.5038954462925882  9.1600978302946903
  9.9977093816551168 50.4113168102476266  9.4402451350337451
 41.2933709773252389 28.3913098177591365  9.5518630000038698
 15.7865764895137470 53.1197385390299246  9.0566453862824243
  7.1021732641620154 49.0540976488129843  9.5733514782068276
  4.2061698685984883 47.6938460146391137  9.6652921074386224
 47.5074465139442310  3.8527956153626182  9.0550689622040181
 51.7949090987677963 21.0475956346976183  9.2751530483118074
  1.3093250226801629 46.3333699482154557  9.7149348859021174
 47.0738080832081422 31.0743619416198058  9.3922767148473358
 -1.5863362304238091 44.9734817453032747  9.7215867787759933
 44.1830592872572083 29.7367648394321797  9.4732681016197642
 50.4096154180773368  5.1980864577579027  8.9219206368872488
 41.6945415917566251  1.1529571944408685  9.2363747276319437
 18.6773991517014579 54.4672643927392102  8.8099914182820473
 -16.3098933205300654 35.0653305195412841  9.3339085034574314
 23.9560726066271634 20.2499754489767056  9.3795304484436830
 33.1042015418852102 61.1212510171279533  7.5411163081421444
 -30.5821353258759814 61.9278918951688411  7.5788574894588212
 26.8431721402548078 21.6065025403377184  9.4987437735137732
 30.2174273613831836 59.7974931845487134  7.7263497371870873
 35.5117133555149707 25.6834762203841933  9.6345761508055556
  0.1025469342990125 64.0276401456914499  9.3047047847090827
 29.7315416099526715 22.9656400966884249  9.5818262005070647
 24.4502067588254697 57.1427361877291062  8.2498458206241843
  3.0116620058454706 65.3800447021423707  9.2850882839461768
 32.6211539243493505 24.3250089310759527  9.6268493802617972
 21.5657538358242036 55.8078944197046027  8.5355674250277538
 57.5787999166720326 23.7090119367915655  9.1460809045188451
 27.3335926061339407 58.4716635158379177  7.9723332222597563
 49.9653681635279057 32.4065830773669674  9.3323343127546874
 -4.4811602013544647 43.6158073160897573  9.6873945488574833
 48.9046627212800473 19.7086841912929778  9.3790985653502865
 17.9000681818763283 14.3608336846960096  8.9162186188948080
 27.6253399581008914 61.6363691832444403  7.8404495587638046
 24.7402543248454485 60.3082615237124031  8.1073586601088561
 20.7868435516077668 15.7102853054949243  9.1307342004127410
 64.8703176450395489 11.8676611508576162  8.2290803960164887
 21.8538537811506366 58.9757250013697529  8.3910189376168738
 61.9806589090922202 10.5397016184024856  8.3050837350681590
 40.2219985640861140 15.6616565082636114  9.5954960314013054
 18.9645780138675946 57.6368655052570276  8.6684489676695105
 51.2575571002314234 14.7025154381107654  9.1598764921469034
 16.0708813443524541 56.2921927090337562  8.9219552626181322
 26.5659741779691316 18.4197217824423092  9.4601110147411074
 -26.2571915612336753 48.7676585708834196  8.5713763469232056
 13.1746944478763002 54.9415832101399815  9.1435228301461500
 23.6758654676844387 17.0637012766394491  9.3132931611129823
 30.5109757080897026 62.9627524693758218  7.6175698774075720
 43.1188803917216461 17.0155362766628571  9.5555136382294883
 15.0152977699688481 13.0165083442524150  8.6765323723716481
 -7.3734334945577364 42.2616416182524191  9.6172643575354222
 52.8580788687287537 33.7359318710674430  9.3099996061432133
 53.3073976754768779  6.5393042552816913  8.7651520079772318
 -10.2635688202710273 40.9137198927649663  9.5196132217843168
  6.3693729859808057  9.0150014666611469  7.9377110432436222
 -13.1531933257513103 39.5735121096113431  9.4151560739239581
 56.2010224767177533  7.8757971825600803  8.5948821489812790
 -16.0445361905824804 38.2381644708339579  9.3285661354926237
  9.2516279542487538 10.3435800497822079  8.1718939478709629
 46.0125497565435211 18.3656649435592634  9.4794762679275983
 -18.9367045763021835 36.9076735234289544  9.2772726244525021
 12.1331800257858795 11.6773319526464174  8.4239413011689273
  0.0045473327126567  0.0329041524155104  7.4111898516219812
 59.0915599881958471  9.2090160690368172  8.4334220876155452
 33.3994306993677341 64.2864879620130694  7.4671291561366804
 -2.8060775892050009 62.6744816896196966  9.2939844660903095
 -13.4178032170865631 36.3975478520276070  9.3996465450651048
 21.0698544292061527 18.8954206592805463  9.2273520902753088
 -27.6953838599611650 63.2539709900033813  7.7214331869586230
 24.2350791137561323 23.4398730468541494  9.4110215939100375
 -2.1197751761399948 38.6022519678506058  9.6842862672503749
 25.4290209522979431  5.7161421141616140  9.0738570768664797
 -5.0106948009367995 37.2470553225981291  9.6227876033243049
 27.1199424167047347 24.7967119050362044  9.4991691392532562
 62.2659878876198647 13.7006668789611314  8.4821779361430245
 59.3760354823208090 12.3717246678405264  8.5725378330839508
 -7.9007532811051355 35.8982943010231068  9.5351110949737610
 30.0058482798555097 26.1551446042345894  9.5541618575132432
 -10.7911590364630872 34.5577244445016944  9.4405518642183743
 22.5283069831527811  4.3662778392300545  8.8841640721403738
 -25.9760829057578526 51.9316686941807930  8.3829011430997316
 -13.6828794220092433 33.2235779628643471  9.3634623644152679
 32.8931007050732518 27.5135200583034099  9.5743127200022577
 40.4929403635256051 18.8427134829474134  9.6349601240753771
  0.7726988622949111 39.9610421917751353  9.7132782375348832
 21.3513378059593748 22.0847263050069209  9.2932516837453853
  3.6651098482474129 41.3210478889333359  9.7061794255962841
 20.9968397677766347 49.4590588816728456  8.8593607805120858
  9.8269129445515482 16.6929231967485698  8.6167885338697037
 50.6991149837437760  8.3644491122418039  8.9958327988443205
 18.1129853472881734 48.1116829508610735  9.0858834749795889
 31.2360975012036803  8.4209142022646688  9.3602659819693699
 12.7067591078478817 18.0354235384207371  8.8049362912305913
 15.2260562965767647 46.7587741998663873  9.2839213115394585
 53.5943201585169220  9.7040997499808235  8.8521723714557545
 12.3374304021371319 45.4021461400190560  9.4473470314893628
 15.5871554715357306 19.3815869181801474  8.9849535551333393
  9.4476923753060031 44.0433557651853391  9.5730518433456329
 28.3323732914887998  7.0684588236109729  9.2329763936740950
 18.4684839061097996 20.7320265079703461  9.1497938852315919
  6.5567557258766476 42.6825450155380537  9.6597000122839614
 56.4861550357501869 11.0396270056260999  8.7027011730535246
 -16.5751360379097292 31.8927209799274962  9.3222643768834779
 29.4571979557368557 19.7777562362131434  9.5691295958365767
 35.7816382149721335 28.8702896130084667  9.5613810217192547
 -23.0888788958777056 53.2607294909848861  8.4881614587551208
  9.5402875358489698 13.5156156814633999  8.3954728353486221
  3.9348444659441379 44.5086803616114182  9.7046614832855571
 -11.5223289671913847 58.6215260666608557  9.0788843772410122
  1.0406362486338749 43.1479857269920046  9.7332523324742031
 12.4206328740874046 14.8534572303599290  8.6207721643466169
 -24.8108339262890851 64.5846322650486400  7.9269961230406114
  6.8288948675179562 45.8697525082157824  9.6348976597916316
 -1.8536578326996516 41.7883113211874999  9.7216116063227034
 15.3022794214808364 16.1962169109829084  8.8409379634346674
 -4.7464257125713543 40.4313868547683342  9.6731295505144157
 -7.6370988575743946 39.0792712498355002  9.5924876420112515
 18.1850118751632692 17.5438604427383176  9.0456793716507029
 -5.7136404568089318 61.3225586631670225  9.2529141094798479
 -10.5273448218601402 37.7348365623216182  9.4931337268473595
 -8.6195583450403035 59.9710117794619322  9.1811178651135492
 13.8486878428720264  0.3389581458152018  8.1696370947671593
 50.2315600918867773 35.5791498027813304  9.2710593513471284
  9.7216716135423145 47.2295478771377475  9.5242091476466566
 19.6306827238448669  3.0198847237601432  8.6657361309621681
 27.0450161255606893 55.3051468407993028  8.1538389889635781
 38.6704120255014629 30.2246733144606878  9.5197849123606009
 24.1636038386219845 53.9738965343257604  8.4259507994313196
 -20.2021265777291497 54.5942834974023867  8.6324993105347385
 41.5596505048390981 31.5731660376642438  9.4538657804391146
 21.2800146849551695 52.6362595299149660  8.6990416491287714
 16.7372807278577262  1.6774139951496034  8.4232736184514216
 18.3940267311044927 51.2924331805073521  8.9561823007107595
 44.4487961878949775 32.9141351427347146  9.3756654423023544
 -17.3132105584355465 55.9326592574621699  8.7942778122060385
 15.5051849672849897 49.9420565835785197  9.1834192604577982
 47.3393932404853146 34.2486300404394584  9.3081514045868232
 12.6142811543742770 48.5873233673711837  9.3735939014802909
 -14.4201799246322047 57.2747483634454113  8.9484170588105929
 29.9273221678465795 56.6322790977072259  7.9015735600994903
 23.8789362797392926 50.8002725371194757  8.6136419986632724
 10.2767424108188639 53.5883967876853617  9.3306184266174377
 -23.3691516790816358 50.0955524493664583  8.6413565334284730
 61.6908699592309517  7.3795182554216607  8.1539397461774037
  5.0411339363016658 57.2248610120679473  9.3883818116483688
 55.2194067826131629 28.7212652785706872  9.2946669551845318
 -33.1747717041587009 63.7691515209878048  7.4444693938062381
  2.1370089352188488 55.8702172432095736  9.4756943286715032
 64.5795407769709300  8.7081839194371060  8.0351308354370996
  7.9456750874207058 58.5778736143383014  9.2672064172022086
  2.8960328039041117  1.3568170868452203  7.4584396519377227
 -3.6691003992680105 53.1601547739869673  9.5368761882030526
  5.7842898677936336  2.6811294630649685  7.6000856589024766
 -23.6448727832236010 46.9293718043085022  8.7941197422868704
 -6.5684191710631143 51.8048320881013282  9.5055367144729122
 54.9529874270974261 25.5503309338725302  9.2510592499388462
  8.6687762519209759  4.0085514943072527  7.8146872110453183
 -0.7669117611942802 54.5150574074751617  9.5262439005067492
 -9.4652508698899886 50.4513549095930145  9.4348636576336720
 52.3263479856352376 27.3925447293041167  9.3271848393194166
 -30.2851602803430922 65.0934397445358854  7.5453142808075997
 63.9898736033964184  2.3862878120872799  7.7939914848458969
 53.0154203382489939  3.3752627856170903  8.7044613055152542
 40.7607232344591850 22.0255741906925842  9.6421559221698896
 61.1025902077433258  1.0565125385929388  7.9982898796054718
  8.3741093520418310  0.8417424930310384  7.7276614028736699
 22.4400191865874135 65.3028087242840769  8.2375345606954742
 10.8496957774697087 59.9293957100355215  9.1146227420768415
 43.6533034341136954 23.3770461098712623  9.5770807410743757
 19.5477723722029850 63.9669153462888858  8.4853442514415764
 46.5441117206288055 24.7208879117917277  9.4881944085348682
 16.6517915992191909 62.6251110191015314  8.7206168206590693
 58.8018726740427056  6.0476690973151594  8.3206653024064678
 13.7519916855262974 61.2795508773947191  8.9320381569366596
 49.4345290401140574 26.0591670569961877  9.3969531141389258
 55.9105772733846678  4.7133859393205260  8.5124844727006881
 -20.7554387836461807 48.2585071089976907  8.8780727691413244
 -12.3583950850654158 49.1028505845176042  9.3308573690006593
 11.5518016996011053  5.3378667654962006  8.0737872949641112
 -9.1900822971638814 53.6273413767962026  9.3557934024005274
 52.7204470093774589  0.2112734599994091  8.6867492928400836
 28.9031039106579435 13.4140416938843217  9.4347462304866383
 14.0461108017248844 64.4457619972031068  8.8813906590537499
 31.8014369747830870 14.7705611136766564  9.5479074989646389
 11.1428314099823442 63.0971519886432972  9.0494126167716278
 46.2794023422342420 21.5429527240273444  9.4971456130942506
 -6.2906477347409906 54.9807365405912520  9.4184389692801176
  8.2374486481144160 61.7465210211654068  9.1886968714450852
 34.6991673307820889 16.1283384241091703  9.6203164622300879
  5.3308270465772694 60.3946270246567209  9.2996900455243345
 -3.3872019036960870 56.3345273061385257  9.4427452435060140
 37.5965049884026286 17.4866688829484325  9.6494390686147291
  2.4238335780013518 59.0417613167195157  9.3807697242103725
 43.3872049760907217 20.1961565252389548  9.5814006349913967
 55.6166805485345819  1.5510715138786317  8.4721277667173833
 26.0054301608259024 12.0596434753368129  9.2834790397504552
 58.5086324859407014  2.8862874107106324  8.2510306785811309
 -15.2484816939298859 47.7595600164081517  9.2067615976765893
 52.0605850981713161 24.2203368818415719  9.3097076717237766
 14.4366644683361862  6.6717308421081531  8.3505496031726523
 -18.1371100339376810 46.4215016039174841  9.0868051181638361
 -17.8672244827731497 49.5930848042158203  8.9971889138915042
 -21.0267178890228834 45.0899490594756713  8.9931744398186755
 17.3235192706599790  8.0118865427727748  8.6228967861162911
 67.1748695523122024  6.8741688766595193  7.7873490490717909
 -14.9785952651413918 50.9329574184985319  9.1321655496050713
 20.2143404169859693  9.3568192922293285  8.8746410329285457
 64.2856841631032836  5.5480094460971960  7.8842543053113143
 49.1699297154057504 22.8841331713648763  9.3985000405893899
 61.3976906532715958  4.2185874206292802  8.0466320582011317
 23.1086943757767997 10.7070611402612048  9.0962084779724925
 -12.0865238018823398 52.2779881209632649  9.2580161540628065
 37.8665921286721741 20.6699166934233034  9.6726902415344291
 66.8781735199154213  3.7123867987817656  7.6507244962484933
 11.2581318061880360  2.1717225562617428  7.9659306613246290
 50.1153898134838727  2.0327259931457844  8.8792570767966481
 -15.7792469084502471 41.4111067593928368  9.3053292590386363
 -11.8080758146813025 55.4505858016415303  9.1685141915215880
 -18.6707996292278260 40.0794171192417608  9.2285052931318567
 49.6998348854107235 29.2333830750971408  9.3746544705575108
 28.6201096843934977 10.2398697788416335  9.3326642316533608
 69.4708620948152173  1.8732772947104690  7.4841249717712310
 46.8089003446283058 27.8985910491901805  9.4529140338392743
 52.5921203139009847 30.5645810252984624  9.3269874043013008
 -8.9085929839670204 56.8008149998813678  9.2640607033530404
 27.9199503792187258 64.8008383843588405  7.7778147183299380
  3.1915903559970014  4.5223488254297610  7.5634553738796750
 25.7194455553194707  8.8862707286213709  9.1720930760268189
 25.0335251138216535 63.4718917734623318  8.0187646473154324
 -6.0047582141061069 58.1525051670271154  9.3265953388583611
 66.5808212784647395  0.5489343303956572  7.5910661859142792
 -12.8898866212447931 42.7500153923056772  9.4092592142493654
 -14.7030947743161970 54.1048859248884284  9.0430317724302274
 43.9185590618491943 26.5577050870815690  9.5410654265704764
  7.3779058379593101 52.2333105640646167  9.4808881142393773
 32.3492612038254137 21.1375325241105081  9.6387094129872803
  4.4792839019305015 50.8756516702462704  9.5918328789381526
 35.2420553048418910 22.4971501982475957  9.6684994667001547
  1.5806973119511813 49.5161552876345468  9.6607844571323582
 -20.4811509775794036 51.4267169226738545  8.7562124572590303
 34.4223963229018111 12.9495939943781035  9.5460670495581876
 -1.3173620443894543 48.1574492033390769  9.6857867125830346
 38.1351637832923132 23.8546245857327328  9.6593345048955879
 -4.2140749079393442 46.7991285838657802  9.6672947725312444
 -17.5934056578483649 52.7638497847851653  8.8978731547423795
 41.0273373412508633 25.2087182381369779  9.6149167014455514
 -7.1086899544618980 45.4441026492103362  9.6094615054769630
 31.5216419133031813 11.5935756307245335  9.4583143493579875
 -9.9997720059285928 44.0935691228110400  9.5187940662681978
  6.0780016388897593  5.8478310288138458  7.7371307992028759
 37.3230880490814130 14.3061857939203900  9.5927024952395747
 22.1454042440850927 62.1402530699969873  8.2862101444594263
  8.9612841915432639  7.1754694118897442  7.9699753460587992
 17.0318703870407226  4.8434031638422441  8.5012914728097826
 -6.8406427547427375 48.6253544635358779  9.5712849331832501
 26.2872717855212521 15.2372583032897229  9.3854407119977310
  8.5325288524641696 64.9144069311627732  9.1510416118792932
 -9.7346836760957913 47.2733199668908028  9.4902851217761111
 29.1816702016643994 16.5931588938041301  9.5181265443270586
 -3.9439696486926112 49.9810937754730915  9.6156408500118467
 -12.6252514394627742 45.9263969496437596  9.3814759091288487
 47.2120534421115181  0.6858547110860378  9.0293453336533762
 -15.5146862221490238 44.5856439630918828  9.2645170630427049
 32.0764658959942679 17.9522841961425783  9.6111010543718187
 -18.4044231921388857 43.2504591337646360  9.1644285495158364
 34.9719063724253871 19.3114831081766134  9.6630617694885537
 -21.2955694625492384 41.9207728668945592  9.0987795686330788
 14.1434908599434515  3.5045646434158182  8.2322069197160701
 23.3936299592014194 13.8826240152820262  9.2147884992146842
  5.6244591662664991 63.5631551374903907  9.2455506805458842
 -1.0450619003548545 51.3384353253383523  9.6178968806825491
 -3.0991814235025950 59.5054654372629130  9.3545800729426762
 16.3593123949895300 59.4598710496974832  8.8032849508730546
 22.8203858652221818  7.5355488684666785  8.9784462186748613
 11.8439036138256526  8.5057801269444315  8.2339768324501268
 13.4611675834170992 58.1117087213986636  9.0243972767351490
 -0.1919166038217130 60.8583146682930547  9.3495844129007573
 10.5605892612214785 56.7604558409198887  9.2144335025850506
 14.7268751086533154  9.8421837788120410  8.5059383764760650
  7.6590103709935216 55.4073448442088292  9.3716324610014077
 19.9239707585686538  6.1872829356647197  8.7533945727193796
 17.6128469608980609 11.1838606661757467  8.7687541162137581
  4.7571129240573278 54.0525743638328748  9.4933391638816271
  2.7158415931397992 62.2112115698122707  9.3126088563974445
  1.8557429169003405 52.6953785838897915  9.5764679640049835
 20.5018854899377736 12.5306661187139952  9.0081850942136139
 19.2546887539333618 60.8030594502082380  8.5541817941826022
 50.4980509918471299 38.7505123007977801  9.1924062052572317
 -0.4822489410173323 57.6876914044790041  9.4292257797779193
 26.7592917034216171 52.1354817811055753  8.3619907136799565
 13.8345170338033157 30.7981556796280920  9.3062698302386835
 36.8702203785444169 41.6041351710493927  8.9153223479402772
 27.7442566636105994  0.7302073950443098  9.1195038339415255
 10.9549828641553209 29.4436910581503746  9.2856808306890333
 39.7534427867385887 42.9423045509932635  8.8346944081031307
  8.0740429762440904 28.0886324680942927  9.2471690320144084
 28.0397846014630332  3.8989371335835727  9.1567365549326869
 30.6513252711936559  2.0819907839974756  9.2240889321244310
 42.6391805799121357 44.2735730615327370  8.7767697505016979
 25.1353798391759469  2.5476601301995490  9.0081324417924264
  2.3100774580153676 25.3836059868422161  9.1248110781919163
 45.5269568945171983 45.6014531305588307  8.7594759671973552
 -0.5736120246718617 24.0355529233036336  9.0429010489954713
 33.5595545121593730  3.4334470243633279  9.3002159528727528
  5.1926781644483038 26.7351466605120862  9.1931751226269984
 35.9943416527075470 62.4454107712293975  7.4424411336602718
 16.7132691472385702 32.1529930330699116  9.3081755795567709
 33.9888835437462760 40.2610662719370396  9.0003219781542008
  7.7957371983580419 24.9000682906210571  9.0819682188557582
 29.6398745834571216 53.4658469349008811  8.1204105134555533
 28.2281921196811538 37.5640278199733828  9.1526577029155245
  4.9153672120277996 23.5495783985798610  8.9969592016417081
 -13.8365962912536684 63.6108735031099499  8.8260667964475541
 38.5890668440321321 60.6042270519099802  7.5224818384043806
  2.0340564646001926 22.2022501667023135  8.9033443832650363
 30.9457901314082733  5.2509832498880922  9.2759974826242590
 31.1084455577430496 38.9137677216592195  9.0801102335610846
 -0.8496518882902100 20.8602731202579790  8.8062017252978642
 35.6991654310571818 59.2800976688761665  7.5633020296227436
 -3.7355867010838355 19.5237534496471881  8.7216384433021670
 -10.9343651180164105 64.9584610260784103  8.9868420438472896
 32.8117939255134559 57.9562408896332215  7.6957015799837034
 -6.6240638402782457 18.1920401734469550  8.6705018299557732
 -3.4597242494423299 22.6939834255763024  8.9568878775269205
 10.6757576072666165 26.2519172114052175  9.1572399933442021
 16.4332560514833546 28.9583625375592781  9.2674850519187135
 -6.3480060548272235 21.3588165824621434  8.8866135820001571
 33.7133021242649562 37.0768595817860174  9.1925101747742257
 -0.3013463688311995 27.2158737486121574  9.2493960372387924
 48.0853689737010583 10.1894050901581092  9.1983417709627027
 36.5958521906637912 38.4249936437440027  9.1262278686761924
 -3.1875854627804836 25.8688620938192066  9.1679678669375662
 -22.2204291745414686 62.7531261164691259  8.1721201886850139
  2.5834738374101689 28.5679983933072279  9.3144236412198076
 -6.0758781096590404 24.5295359101262314  9.0866599536899013
 50.9817174785859777 11.5322881527249397  9.0808653767400926
 -8.9665498002215127 23.1975606121863436  9.0290328147316767
 42.3655604347675663 41.1035148322651196  8.9809351487643969
 20.1519668735361819 39.8948355624300248  9.2005055763033248
 -25.1059280718914870 61.4198756168000344  7.9613027542878685
 53.8743646279360746 12.8707483828159788  8.9470398576649863
 39.4795286595413231 39.7681158692060492  9.0502987721802057
 45.1846795335434877  8.8415999198310598  9.2871988154591776
  5.4672849757601556 29.9232475576258281  9.3591708207365887
 30.8313346614906969 35.7256642608291983  9.2460338983515236
 36.4679397295176813  4.7863167097830592  9.3461218695878863
 19.3115931328585511 30.3114192552883779  9.2986413118108047
 -9.2383538885367766 20.0288982762400387  8.8535611381724983
 19.8715094354814994 36.7011691653495902  9.2605712524162005
 22.1899942551902889 31.6650429618315634  9.3130813780059682
 39.3747582412261110  6.1392690450016412  9.3604071773874367
 16.9927834702421698 35.3476658521816631  9.3212224773138637
 -16.4388718160777820 65.4318137623916130  8.6263318168974106
 25.0695843356629062 33.0192854647776315  9.3088868199154060
 14.1136308161896338 33.9927401649608782  9.3636040501922899
 42.2806916829755579  7.4907797628157464  9.3416397422283186
 47.7995443477933151  7.0203620786919556  9.1174558953600258
 27.9500771435421207 34.3728595192765383  9.2858024325437700
  8.3508220887791023 31.2791700127471408  9.3829321331248554
 -19.3316892536292535 64.0904981331570269  8.4016933194223835
 22.2332097422090200  1.1989859485777219  8.8305387985035768
 32.5220252288514402 54.7920069922325226  7.9105379864834875
 25.3488405183246073 36.2124194367903272  9.2145527524303130
 13.5546525373978781 27.6044626117121652  9.2200651805659639
 -1.9966818764435408  8.1997006725647683  7.7738100381979374
 25.6285885120708130 39.4043859738475959  9.0923874822504551
  6.9464016111862694 15.3543627397336948  8.4281104404490232
 40.5972998048277205 52.4407096574081777  8.1020891882228057
  4.0653110950970417 14.0197048037141290  8.2508136220921084
 28.5079145693020379 40.7531566549156565  8.9919897464695708
 23.0311572699656395 41.2458042640074396  9.0780687587248359
 37.7127225987050849 51.1145814837163073  8.1546370916926065
 59.9303643376270045 18.7012675469414873  8.8703132349406779
 42.5665977039300785 10.6621736998384993  9.4253940381026666
 -1.7036409418569618 11.3613044450697309  8.0102888617840957
 34.8302395134247362 49.7875438528374445  8.2660792235437430
 31.3869324535437428 42.0992563621136782  8.8861447459775853
 -4.5916145345335488 10.0345440263216314  7.9841485126934018
  1.1818168993905942 12.6896366272763963  8.1044871369513114
 57.0386232405615488 17.3721788220534208  8.9355506670551499
  0.8911391551938790  9.5258604038056180  7.8440872279616149
 45.4671347747350225 12.0136959427608687  9.3686059247843669
  0.3014823343054870  3.1982030363196343  7.4743145764114471
 40.3120301904005913 49.2774129158320662  8.3488417409269893
 34.5465335673164731 46.6171256735909267  8.5310822527786065
  3.4850132027244554  7.6877506592969818  7.7467355775499653
 48.3638462353332486 13.3607474786607803  9.2766637020756040
  0.5971866917315646  6.3624467203405146  7.6251554860903061
 31.6674781744495846 45.2808518436379117  8.6641359402326010
 43.1976598840979449 50.6044618070373673  8.3342312418478315
 -2.2924042914986105  5.0374142502512846  7.5908424026749488
 54.1485744045466220 16.0400031027257519  9.0379677825577183
 28.7888728319324052 43.9389200873233463  8.8043846911839463
  6.6589584099741854 12.1830855658944301  8.1765898227025815
 22.7500584534255985 38.0534288498354982  9.1835672495021470
  3.7758669797867292 10.8528718242330910  7.9849659357103340
 25.9100773231812305 42.5935874105662862  8.9440719843664329
 31.9499059841969704 48.4567928091303415  8.4181043397175888
 10.1116544507331074 19.8757621472300272  8.8205596644060140
 -28.2858894137781824 56.9276898559890299  7.9326149431848680
 34.2664488147910546 43.4414757286524704  8.7786892030435890
 36.7584060123762342  7.9569069592564770  9.4211941546635440
 32.2345233990465587 51.6264041144115993  8.1598602274313947
  4.6352421152339396 20.3675003776881773  8.7716750657580853
 19.5913871463197395 33.5064864320585940  9.2933333494161605
  1.7539027181043134 19.0258637490452109  8.6530428065882390
 29.3543527411030318 50.2959088567191017  8.3579647984203085
 -19.6257519023659519 60.9258062558359939  8.4371854169042990
 -1.1298976599214159 17.6901904732654103  8.5461540024543563
 38.2935773618499127 57.4408685942049502  7.6817017853261440
 -4.0160534762122895 16.3581254465938244  8.4715563076458889
 22.4696177258348158 34.8597204940053800  9.2621290777923075
 33.8525002173614951  6.6029077679856778  9.3649117675370555
 -6.9044500024334523 15.0284523257601084  8.4470293866265163
 35.4067722132342766 56.1165196174581951  7.7576948954429881
 -16.7338553114305988 62.2655282170322764  8.6402747688095882
  7.5151971746289812 21.7138219985111256  8.8890825970864444
 17.2722532468480026 38.5416591416538168  9.3059162970717058
 42.9164235238236884 47.4403946214829375  8.5580734924589841
 10.3944709099156309 23.0623422889040413  9.0016650200572794
  7.2321255531116027 18.5310820613479308  8.6698999912572976
 29.0710011730507922 47.1203370286329246  8.5910243809067293
  4.3517241525514461 17.1909125659200939  8.5196555179005919
 39.6633499933721581  9.3096652933126194  9.4424762786367342
 26.1923549054423681 45.7793561391771533  8.7704602127126936
  1.4696568093473097 15.8551861097038262  8.3814473245292955
 37.1474134160163842 44.7787632421599540  8.6773108407997199
 -25.3993079303447544 58.2564467488329072  8.0594522157555080
 -1.4146767363239370 14.5242162534829244  8.2748989852479955
 40.8874120270584243 55.6024095354920078  7.8764901049129037
 -4.3014999007034067 13.1953666927680420  8.2195014586203694
 40.0307498371565131 46.1117514275764435  8.5977752722499723
 38.0012028204461387 54.2777456698726226  7.9011373687696462
 13.2735646503297637 24.4123929389919461  9.1066111626885533
 -22.5137293059441745 59.5896678758084946  8.2352340055546378
 35.1170607309151990 52.9533415480416991  8.0006578835275146
 45.2541583685720141 42.4329760385386052  8.9393568190945913
 11.2325535909216967 32.6364351197766496  9.3847994432321684
 57.3098673474545777 20.5401231161234250  9.0453622531222333
 12.0614152449720713 42.2135100430772141  9.4847301054038073
 30.2804948717506335 29.3454542140921717  9.4868093317560209
 42.0949548222027801 37.9299250813598547  9.1646579068301897
 54.4184429267656924 19.2102528142748206  9.1202996305633324
  8.9002215116169250 37.6628087489374721  9.5540320075956995
 -19.9167012134382944 57.7606068997924709  8.5197868329692668
 39.2084719209097656 36.5895683680055939  9.2387172908844288
  9.1743142760305982 40.8537290838562654  9.5832804919394281
 11.7859190217935055 39.0219958140637004  9.4857561357537712
 36.1727091639667222  1.6176421477792495  9.3037222827596704
 33.1657455713262337 30.7022117423315883  9.4821535283171308
  6.0136283200438418 36.3029955556154391  9.5884571511529195
  6.2853148968471109 39.4934326589571754  9.6447220810590846
 36.3231376004965512 35.2424637237994318  9.3053778955466040
 -22.8035372105620624 56.4257271871401400  8.3465611507739421
 17.5518643559739829 41.7345611729754538  9.2615731372116201
 39.9460143253746978 12.4834426131105936  9.5275815208265673
 26.4754201956474837 48.9605455133805023  8.5738806723433179
  3.3956002158053873 38.1322188362858441  9.6675037873815732
 36.0520853075753038 32.0572751430478604  9.4508050933835399
 33.4390691076791384 33.8900738757227487  9.3537737779700567
 20.4330368515127283 43.0867173226726621  9.1133364929364653
 39.0817765733015463  2.9702192762474895  9.3029428454288823
 -25.6898443021467564 55.0943853246699859  8.2061516501751797
 14.6694025988929830 40.3790972309422500  9.3869793826192645
 42.8456667178853436 13.8370680153654266  9.5016504478560542
 -17.0263259300722183 59.0994961279934188  8.7014406245379803
 33.2636598567613220  0.2646421155672355  9.2745286170343935
 -8.3257303886826701 63.1399113745944831  9.1285457426922658
 23.5957104876477111 47.6204564170822309  8.7914833459774790
 18.7508974248937612 23.9233841620809216  9.2268612805734165
 -14.2143541878043749 26.8787422971057310  9.2346699644683117
 48.6363519628192620 16.5341804803156087  9.3384426929342865
 45.7425496881126818 15.1888452070625419  9.4358538346971521
 -11.3220329692622528 28.2090197452893428  9.2640986960237797
 15.8702913897541880 22.5714111267680977  9.1050326571769649
 -5.4188409884803503 64.4916032974834224  9.2158025428407164
 20.7149948211746846 46.2756464818398499  8.9994277571042041
 -11.2301144982568548 61.7906722798057544  9.0125916796105425
 -8.4303929981071679 29.5420064994965408  9.3304450384047968
 24.5135257586437092 26.6321057860264361  9.4087255306771045
 12.9910061665642491 21.2223919504837433  8.9678233758862334
 -5.5401587034363180 30.8828710643587456  9.4156141620647187
 17.8320995198186587 44.9252203523794194  9.1882869839628789
 -14.1305072665220592 60.4433756897163406  8.8691778319866934
 -2.6513020837755339 32.2313067266256752  9.4969342846063149
 27.3962562455686758 27.9886787943093260  9.4621617187492220
 47.8745946524334443 40.5921268113370530  9.0789242945111699
 51.5282139560507275 17.8745544552854305  9.2250416770643522
  0.2372673669648996 33.5854422054155961  9.5566289541390042
 14.9476909620037262 43.5703562133518503  9.3517207118073102
 44.9840007844563274 39.2628348794070021  9.1049682152845133
  3.1255053217010169 34.9434045038602719  9.5881401251695415
 23.3131177255624387 44.4350185153220920  8.9472776313071130
  0.5051166156856951 36.7731643848708245  9.6543026262195131
 21.6316478194793795 25.2766478789423701  9.3291289094895475
 -30.8790091153420150 58.7643305765623936  7.6945298681301741
 56.7647121486270407 14.2050868449197889  8.8196845625818998
 44.8957087213822916  5.6721118194778226  9.2106208460564698
 -2.9183698856901938 29.0483374925162039  9.3489707591628797
 41.8264010068207170 34.7529790963994856  9.3235359387288170
 37.0436974950488889 11.1298263887349904  9.5106950289079322
  8.6258832314963705 34.4711937485813635  9.4864353911905432
 62.5465875105676403 16.8633230922779163  8.6686716912905997
 -8.1649415175548512 32.7188456524735614  9.4467399707903486
 -5.2751833622810462 34.0641656721056520  9.5362544302470127
 21.9110783660266826 28.4702284744484224  9.3356872102195201
 -13.9481948694297664 30.0504513375183855  9.3079800933359902
 16.1527113028854394 25.7640246773909176  9.1997686169067023
 30.5555612375491243 32.5359402158508857  9.3826702369276180
  2.8549769466882315 31.7551235218036148  9.4696081217568597
 19.0315735310822021 27.1169213636121249  9.2764785649936385
 44.7157138833993031 36.0897041084045824  9.2516645986928072
 -11.0560251441397508 31.3823561687125512  9.3635407860674125
 59.6553561221495769 15.5356978898370297  8.7216178462461613
 -0.0314786361457875 30.3995408441152684  9.4213363045230825
 11.5097695560200055 35.8293475141039792  9.4520203844153201
 -27.9913370534704420 60.0900071708212167  7.7939587093165104
 -5.8069491672987859 27.7045514825190828  9.2644569757606394
 14.3915482496138676 37.1864088838133000  9.3906479276529211
 34.1402148801738363  9.7747012504807387  9.4537719615998608
 -11.5892336165764860 25.0376065085069683  9.1455411118710632
 60.2020947537928635 21.8685696276799497  9.0128936136457707
 24.7910254066704923 29.8256227960828575  9.3741229523102039
 -8.6977255980046468 26.3682781631637617  9.1897144510663029
 38.9387509815486013 33.4080473079795723  9.3960216174743074
 27.6729677426991678 31.1808453590388552  9.3899631042151732
  5.7409763518270918 33.1125889123022716  9.4920314258939005
 -2.3851031071335660 35.4162580804442015  9.6092066385325730
 47.6065096491056181 37.4209621347758414  9.2027239600933104
 48.1438137445139844 43.7616778514891465  8.9412263684527886
 41.9894603852972068  4.3214843771707825  9.2721637660347636
 -28.5768089715274698 53.7662943695301436  8.1194380872324192
 -29.4337178058413222 63.4006347849847884  6.0482250882980892
 41.3112914113670513 17.1515125183418569 11.1545629575336882
 -32.4592022874901645 62.1435530364562609  9.0721933109739208
 34.9084075479270908  8.0666663960225318 10.9725772267135877
 32.0439541627095252  6.7936198417274012  7.7730345187908423
 -29.6091983249179584 63.4492320130108638  9.1716530236355762
 17.6275189530095417  0.0114212363279384  6.9237744858426957
 37.5450610439979044  6.2544398087668904 10.9353446224250881
 37.5261464878644659  6.3288525419858459  7.8149803479127202
 31.9831866166796139  6.7172260919371105 10.8928506531632134
 41.2475747954324916 17.1955310201256246  8.0373589186870298
 -32.3599730270388619 62.0582428619934419  5.9465322390622566
 43.5783349456797993 12.2117422815999994  7.8737279394157804
 46.1787807185321952 10.3933629392417846  7.7266031566934386
 50.0203730351547478 21.2006075174619646 10.9094987687628251
 43.6789195253865614 12.1287118334109234 10.9910374468157404
 37.8142388241870577  9.5078789434869382  7.8984438775775931
 43.2957710890850578  9.0415231102362430  7.7924810363701349
 43.3969617433829455  8.9515998715854419 10.9103420459848302
 26.1338637217814309  4.0253661569090706 10.6377749594545286
 49.8955803316783459 21.2316791818656903  7.7914255876979777
 26.2717810533902316  4.0765628933671909  7.5188818699288618
 47.0073268023329263 19.8885968466005387  7.8932806176984975
 40.7578159805688642 10.7727643507350095 11.0248590658132297
 37.8335508057356691  9.4195309045047679 11.0176202283420412
 52.9035564091764172 22.5301127935115879 10.8173417875289282
 23.3886888938019766  2.7189095341680751  7.3473152920709381
 52.7943986712586977 22.5755135261079793  7.6985375466879535
 47.1273470781372765 19.8607553044109437 11.0109985319268002
 40.4118391328203472  7.6865783999410038  7.8213271472199732
 29.0580473807348341  5.3706813302599175 10.7806573397726027
 40.6972428936161279 10.8605384493346921  7.9062601221274988
 46.3177261635661779 10.3021567660144022 10.8431007252976084
 29.1571948440667619  5.4355897593158389  7.6610970265639038
 55.7814482908155611 23.8488790195594724 10.7548480743136086
 55.7016320307549293 23.9167313634454395  7.6353084559367970
 44.1253508144644115 18.5439935920891195  7.9806474702149011
 34.9295938026238346  8.1509090933167965  7.8530177904570095
 40.4719110614779680  7.6020886536976358 10.9409659143120432
 44.2225440430520393 18.5105890393832375 11.0980714863712713
 20.5072699909511762  1.3637734368510648  7.1476347387191073
 20.2929488221828223  1.3448109031474915 10.2644005670251595
 46.8636816072675941 16.6713297712133866 10.9768882656905600
 31.7521405410518973  3.6081988551028070  7.7052917830971852
 17.3819091567774429  0.0125709848413857 10.0401443474834480
 35.2134646681727403 11.3266014550753660  7.9442314117828339
 60.9438498796197976 20.2777110758069696  7.3522762434740736
 35.1943198524829199 11.2388419514183973 11.0630736930030675
 61.0312803135327613 20.1261825482299983 10.4691377429280958
 55.5330689498589436 20.6716796839049657 10.6771132187397306
 -15.7795292182262301 63.7832027335754930 10.2544326945013005
 32.3302386406728388  9.9720275923471320  7.8644022227091117
 -15.5596576680441654 63.7500776058771024  7.1379524723351668
 32.2719765658537909  9.8819532513084649 10.9834920830945428
 55.4148713970940676 20.7552578901904496  7.5588295222812558
 58.0327021468662565 18.9346905013663793  7.3905291219889211
 -12.8608620265176423 65.1188845359661599 10.4388035065152476
 29.4457742976236858  8.6180600808624241  7.7488357601230842
 29.3497285930695746  8.5299892596298594 10.8674151496076217
 58.1582500151295321 18.8126337217159758 10.5075518855059755
 -18.4393645594293112 62.3974213659051387  6.9335965192786677
 52.5120500037931350 19.4120949890267234  7.6472842726512464
 52.6527074527551164 19.3489261097873602 10.7646481327462435
 -18.6880744168013777 62.4539821464886415 10.0493426472907164
 -27.3304925364881086 58.5017439511873576  9.4838148003882825
 43.8541352421978203 15.3778812957497610  7.9397026568091915
 46.7341298541916714 16.7250341778904961  7.8598641368360029
 -24.4633570411277539 59.8135412164275948  9.6406995040262160
 43.9537789270313866 15.3167035327350671 11.0567692810333007
 -24.2175020656354043 59.6965411357269673  6.5243357932662001
 49.7646785274438059 18.0145459714517244 10.8724203756371800
 -12.6781400606523498 65.1064835847876111  7.3207326699750297
 40.9751540760361053 14.0293106660955385  7.9834694915455984
 -30.0392616697280381 57.0042079783170124  6.2708168009288459
 -21.5830712118143353 61.1309729364289254  9.8369735184456815
 49.6190974446843427 18.0678802707844817  7.7556557410030322
 -21.3237844020722029 61.0465413733144331  6.7215741385479566
 38.0957493554166078 12.6794198293806364  7.9849662171449074
 -30.1877184520576307 57.1945428358309655  9.3896712850070170
 38.1169598824052045 12.5980407458344761 11.1034269774060554
 41.0372885522494286 13.9576370210052367 11.1010466816594935
 58.4081193070060962 21.9867850311962414 10.6259081902259833
 26.5616889708377570  7.2618473413910607  7.5999978987472137
 58.3234858453225797 22.0967102427018212  7.5073273181624138
 15.0380183668520111  1.8563109513447791  6.7145736431761378
 -27.1219463354363626 58.3484693483276899  6.3664290937716546
 -24.1740807528432740 62.9463355110979990  9.5756118395757603
 14.7806674186327918  1.8183983085539122  9.8307309492451065
 49.3415797912605640 14.9048569296348923  7.7005350855263801
 -23.9190865803342660 62.8904597498665794  6.4583168407079699
 49.5015047373948747 14.8301757937581407 10.8164799275340133
 31.6893287649787112  3.5634995275276000 10.8259629804697752
 12.1506378981467105  0.5115595173720636  6.4587915285812540
 -21.2903539708372946 64.2643063605301705  9.8035542041979085
 34.6176449737211840  4.9071204621271685 10.8964531002695573
 -21.0285685924958443 64.2383637196991089  6.6872781752029207
 -26.5218070602233240 64.7446251459948741  6.2275186150548105
 46.4588570603734894 13.5607008667164486  7.8025668264299206
 34.6400717041735859  4.9679385350915117  7.7758299164779743
 -26.7506808915467467 64.7588739894650303  9.3478327287479601
 11.8946145113592152  0.4965090588319596  9.5761171882596638
 46.5941414166431898 13.4834587065045568 10.9191084282388591
 52.3973870845732890 16.1678989395967427 10.6984358754341446
 17.9192571341271858  3.2041142768870929  6.9704212763139282
 25.8364355104292684  0.8791559849237290 10.5966506590727931
 26.4286712845831033  7.1785153098544408 10.7175390912039585
 25.9788167888486932  0.8864615362352000  7.4768507336634222
 -29.9011169863094786 60.3248301577473356  9.2450061566616171
 55.1270828015029650 17.5922408980839364  7.4717503046857923
 23.6785452469130000  5.9075322366803009  7.4192834022171334
 23.5084236002346678  5.8311522366849831 10.5360801583780557
 17.6812339202898841  3.1496250073862400 10.0865453663249198
 55.2809047510877392 17.4955868406639325 10.5886229891889343
 28.7620593086914589  2.2205298404396303 10.7255851485661484
 20.7983949078450330  4.5545114240022553  7.2082544429310289
 28.8644480319312855  2.2470825845253293  7.6052906500206605
 20.5920733188925951  4.4877654039856276 10.3245327404890848
 52.2302016256463304 16.2479870272136573  7.5823208742373120
 -27.0431044211326750 61.6324401631558061  9.3816112365549778
 -26.8198663140882516 61.5421991870682916  6.2616341814508658
 -29.7351815951287826 60.1971401523627136  6.1234497621491322
 23.2115465236425216  2.6828666238697361 10.4651434341425702
 24.3796641830696146 15.3500568835557889 10.8630986397866405
 38.3942245672471003 15.7893964254384240 11.1721875403340913
 28.1322033059750076 26.3344278388237960 11.0646029426090440
 25.3365993079316638 24.9506494600443283  7.8801479657996172
 25.2375883392880880 24.9608304231222711 10.9986998324103151
 22.4604331309363268 23.6126338928672439  7.7846127571678014
 22.3464496874542675 23.5870841054023295 10.9030485015964711
 19.5823357607659183 22.2782777819047553  7.6632936957219000
 19.4591661899433284 22.2139184431082448 10.7812061349267765
 16.7022506895271299 20.9472650776986740  7.5200198368043774
 16.5756998232401180 20.8416648693875253 10.6371144458578772
 13.8205073720741183 19.6195899058590371  7.3592932846396470
 13.6970141299715884 19.4718454949838211 10.4756353967305404
 48.6845124443061579 38.8624570312011883  7.5972900438438593
 48.6375663035601278 38.9858550531383443 10.7158454890444119
 45.7771957865629773 37.5226826375337410  7.6265673122137407
 28.2107725874504531 26.2923051483295716  7.9461971846798578
 45.7619283984322180 37.6662875154514296 10.7441507930707907
 42.8810503579698903 36.3381617618921595 10.8045713052576673
 39.9873860634340588 34.8421017723807935  7.7612865016932862
 39.9928716377400946 34.9958823328245359 10.8781042176726981
 37.1070237225820208 33.4993229735311644  7.8259013344628849
 37.0989667002800800 33.6422600165794918 10.9428857401763100
 34.2300482619109516 32.1533389793177165  7.8705554838390057
 34.2038824751492854 32.2805261096259315 10.9877559273258196
 31.3533037342505949 30.8092136086018122  7.8918745685527805
 31.3094514303972282 30.9135431927871487 11.0095532949638173
 28.4777387730461236 29.4673503635932192  7.8869250937254511
 28.4168963999872446 29.5427659446031825 11.0054072430061325
 25.6014741369214249 28.1287895080054433  7.8548659676199071
 25.5266088914014375 28.1691786232218320 10.9739207864066923
 22.7249727597035438 26.7920761877617366  7.7971490246653410
 42.8771537649197114 36.1833128550011196  7.6876288631642504
 31.0303848264405673 27.7059711518042171 11.0982036160031363
 31.0850261096759546 27.6363959207682122  7.9797708298087429
 33.9302002391636677 29.0750312020716457 11.0985518230641365
 33.6910336227080052 25.8138741178155797  8.0536217097691232
 33.6570378813763824 25.8676107253080119 11.1714949599836597
 30.8165663437775414 24.4656870186561655  8.0291198795399694
 30.7527423186500890 24.4974528886533136 11.1475142145027455
 27.9427279226325957 23.1187674957144829  7.9679369775444187
 27.8497684685611588 23.1252646028215594 11.0862090252082126
 25.0686298961244596 21.7754328929809837  7.8709966079343481
 24.9501204812119113 21.7538184187417833 10.9888727986970842
 22.1929465163775568 20.4357354154166160  7.7413239516258709
 22.0543453553411624 20.3823077988446038 10.8583419674556438
 19.3152659179965589 19.1001079927827639  7.5822326712837524
 19.1623522734879081 19.0113749138202373 10.6982055015752664
 16.4357709838829358 17.7694498765676805  7.3979968014792901
 16.2755859932555467 17.6422308042137814 10.5139268327613227
 13.5532981839807380 16.4428484199481524  7.1966033778492777
 13.3949408715413618 16.2772147797991522 10.3114299559507199
 10.6668489477972628 15.1207537054134296  6.9849906081186610
 33.9601261903142913 28.9831670183848153  7.9811243253903079
 36.8299512710954033 30.4391914704230189 11.0695704174440781
 36.8365336230033122 30.3304948664809970  7.9526332731766418
 39.7296316072483293 31.7970597688990750 11.0155487888911061
 39.7153183285364051 31.6768863854663429  7.8984535039549089
 42.6237134819660852 33.1457886486989324 10.9431581359603545
 22.6401643583466630 26.7935474914466596 10.9167231625638141
 42.5992820302752051 33.0204535326210120  7.8255446218781923
 45.4938842223165736 34.3609031864248493  7.7518159593178950
 48.3896507220815550 35.8036487343146916 10.8191483856062085
 48.3980336772311972 35.7013384058840160  7.6997602831510816
 51.2648478313960894 37.1213337518992361 10.8053199173534615
 51.3083151783098330 37.0430086610893952  7.6855358494824877
 10.5201693957982911 14.9179340069091158 10.0999185426789904
 45.5097640616484327 34.4798611560275958 10.8703299401324198
 36.5618986707574152 27.2343579272014473 11.1605200508186666
 19.8464634031515885 25.4591901796021745  7.7164632770769321
 16.9666862617752443 24.1276121621099833  7.6164093609668706
 31.8901118171558906 37.1573564581199065  7.6138377447652381
 31.8727694076543848 37.3215526101838009 10.7302747772211244
 29.0083996633981371 35.8221953005115878  7.6682633224349033
 28.9916151760490592 35.9543820590315164 10.7860503092129800
 26.1278482527249132 34.4880222175989886  7.7088328730167461
 26.1110588852701504 34.5826178662386923 10.8284836615982805
 23.2481512723386921 33.1555693179588147  7.7332053125504716
 23.2310008453007022 33.2085978061590623 10.8537443625802670
 20.3690731397522242 31.8236947393251128  7.7395486112701448
 20.3525650652282444 31.8324361208035072 10.8610047312832858
 43.7360050510081848 45.6647010309157295  7.1389514421660945
 43.6515604227006406 45.8851422111885370 10.2540933769740281
 40.8304192535209509 44.3280431226138703  7.1775783980899215
 40.7828174757095212 44.5633507122603589 10.2929806533937533
 34.7552768305916615 38.6838174545977225 10.6638916286999716
 37.9327290629652651 42.9932289804808363  7.2508066154194593
 35.0433319506131085 41.6615871701290388  7.3397173409524994
 35.0348407949939400 41.8797176540478446 10.4550816052955806
 32.1585741109099956 40.3303551377244816  7.4296400966879270
 32.1580190086442599 40.5212582708677616 10.5457283954120573
 29.2746687090083704 38.9990546956915480  7.5150779672095718
 29.2818005570410307 39.1569207998426236 10.6323735322166630
 26.3915092666892086 37.6680930530281373  7.5922771212646776
 26.4053399567652711 37.7875254762021058 10.7113405894177607
 23.5100673579933712 36.3370596780818289  7.6585925416629808
 23.5288717928111772 36.4145614692825035 10.7789265325256594
 44.0324071721598074 48.8262584624469937  6.9284899974977678
 43.9117077934794580 49.0544998808166426 10.0432992411231812
 41.1219355588950961 47.4881543267917579  6.9423959409860307
 41.0487104594125540 47.7372590374429677 10.0572316743461574
 37.9101426806425579 43.2282596572842905 10.3660455909710016
 34.7711467878809160 38.4944446535990608  7.5481777324450858
 37.6388677351363796 40.0383656103666752 10.5885376610274822
 37.6539501850180258 39.8304455869807157  7.4726258808076125
 16.8764013407038469 24.0445686737135489 10.7351598123022196
 48.9726054320169624 42.0244773772813716  7.4792304711300224
 48.8854166686437139 42.1649541448352139 10.5966692763953194
 46.0632874756364501 40.6832128394499932  7.4812841432941157
 46.0138153867650033 40.8481741610649323 10.5981571765141052
 43.1585936309989080 39.3447985305415315  7.5244523484802812
 43.1374193569425657 39.5258154670006050 10.6407286663831577
 40.2635788483520827 38.0060706834386295  7.5929896442663463
 40.2559529855954992 38.1913095646807221 10.7091516575987971
 37.3793282868248511 36.6657724731312342  7.6655305599174026
 37.3687648035376867 36.8421275731420081 10.7818825793162905
 34.5001694381325947 35.3243609366046627  7.7256198939897036
 34.4783908679036344 35.4836530884813399 10.8421272357879808
 31.6218111595252260 33.9831137129127683  7.7686456871658658
 31.5900401561349113 34.1188964218135453 10.8856149720890603
 28.7432280147524324 32.6444348986264998  7.7930268455518181
 28.7034498379068239 32.7495534870382841 10.9112910529666536
 40.5187692589956683 41.3811146686371458 10.5125578496728327
 40.5442207598803677 41.1679604668620982  7.3968225637203115
 43.3942544541145807 42.7082767182515326 10.4555133194513470
 43.4448449752307653 42.5049152742656062  7.3400416574063998
 46.2649880154629969 44.0260625916621677 10.4362861612829381
 46.3524856720908289 43.8438641536613503  7.3204312653917336
 19.7566340519028820 25.4191629489535487 10.8360700779154389
 17.1764626441728261 27.2506268550044233 10.8066517636965855
 20.0543226618594979 28.6253926534010574 10.8626247189941036
 20.1086542716750039 28.6408477584277286  7.7418684449918773
 22.9343253536505394 30.0011623025941923 10.9001348470101718
 22.9865515475213158 29.9733764227379744  7.7795182958712052
 25.8180404380895148 31.3763605904929257 10.9165021671224896
 25.8648605957224476 31.3077646089941304  7.7972202618349895
 17.2288539387715076 27.3101718914597313  7.6862790315892457
 36.5676451459434801 27.1620949795074935  8.0432899540663954
 39.4654384657228263 28.5961918301657505 11.1192637139280652
 39.4450513020265561 28.5112164865262656  8.0017031100383456
 41.5793061038115042 20.3497563695269683 11.1788908639298530
 38.6392443852778129 19.0125713495544879  8.0943131160445425
 38.6664329942409566 18.9875396764627062 11.2119091369872166
 35.7623770064718585 17.6618630081258239  8.0861866340696640
 35.7503689863612735 17.6210658880861715 11.2040621681655281
 32.8848621344129342 16.3114951048958687  8.0348730500841778
 32.8344608434677880 16.2541789138773289 11.1526812188654070
 30.0063016514666288 14.9607709861472404  7.9419417085316830
 29.9197046545163197 14.8868739369448946 11.0595586500203389
 27.1263367755294666 13.6127023050388338  7.8097203776458581
 27.0054372035076504 13.5236206931934397 10.9266531359492340
 24.2467784427849971 12.2647975547823371  7.6401319941911332
 24.0929438395197124 12.1627177195940543 10.7561821975523948
 21.3678798370542999 10.9180657165276926  7.4350785866686104
 41.5163058982160251 20.3617704320219772  8.0613407107920363
 21.1821050485155880 10.8044852024725273 10.5502485286710694
 18.2759381717172111  9.4526693981954288 10.3118267280323170
 15.6111342601259242  8.2376653982161869  6.9344806384305127
 15.3785354018308471  8.1066586211837013 10.0485342247881189
 12.7274585993399665  6.9032448894710718  6.6592931203088455
 12.4925466747160936  6.7679848253217383  9.7742970498461919
  9.8349000720753992  5.5713927338918854  6.3902999822338913
  9.6176090060975259  5.4396085529249980  9.5082446489568824
  6.9305772488033570  4.2364345387906734  6.1518767711257096
  6.7551362984534560  4.1190222082299206  9.2730266346022034
  4.0116299517146246  2.8992131198927704  5.9723249163126875
  3.9030675862433224  2.8067650362380903  9.0973785525158419
 53.3628844863049991 28.8991384051360605  7.7546891766622679
 53.3996321846677304 28.8934343671791503 10.8752142657674025
 50.4548705856648922 27.5574916092328230  7.8052985555635361
 18.4900547226364864  9.5758024860765705  7.1974384516773693
 44.4869202911256281 21.7060254327153608 11.1112971676463506
 44.3953212609232466 21.7093112224858338  7.9934858950208580
 47.3850632678761272 23.0512645154201756 11.0203882424839925
 35.4910701200777012 14.4954168317461605  8.0278241118424791
 35.4751088727763815 14.4245257745053532 11.1462244683312441
 32.6106665171436276 13.1438220357234403  7.9585643923209082
 32.5555100638530419 13.0614367592150611 11.0771763553929254
 29.7293244188598358 11.7924752850451906  7.8496641455890055
 29.6372839313785619 11.7013478445310710 10.9676750352063124
 26.8464301266160881 10.4407539388593253  7.7040173339092712
 26.7190227109828236 10.3438171015105418 10.8209090367173602
 23.9650801058569733  9.0900875994362984  7.5235716390709140
 23.8027491662459454  8.9900472005574450 10.6396845228645738
 21.0851994764080359  7.7399010674826405  7.3100626990249173
 20.8886227942477483  7.6394559807330928 10.4256231190909450
 18.2065721734785662  6.3931164184063922  7.0669542881616367
 17.9793942811055345  6.2949812932093003 10.1821942056172610
 15.3272779012799258  5.0498213063667441  6.8017317161139630
 15.0798680862127288  4.9565324477452322  9.9168708596480801
 12.4417873637432415  3.7103570636203624  6.5292924436456774
 47.2798026731078380 23.0522106849467470  7.9020267478707087
 50.2720534482516044 24.3865948744807888 10.9272130190325747
 50.1739806180441406 24.3950351604431432  7.8080011949674510
 53.1522930520403705 25.7115604708839314 10.8547802574165217
 53.0782128077989412 25.7375281857893690  7.7348637276145142
 56.0283690284263329 27.0277891107229742 10.8188714934702990
 50.5221953278056262 27.5717230829374174 10.9251918023592136
 55.9886715473951000 27.0773350488089051  7.6986330678481147
 -32.0598468682950610 65.2678055062957725  5.9135238454214312
  6.4593708746723939  0.9931663023113344  9.1809841638287608
  6.6380129677278052  1.0301907951341396  6.0573074815349495
  9.3191865179233897  2.3069404380295451  9.3915601350826758
  9.5461049287060877  2.3711082013704798  6.2721229265208018
 12.1928456160850249  3.6274986607714750  9.6457971068748982
 -32.1655796151958882 65.2639912316167567  9.0398594354753872
 47.5546072895895620 26.2158969942864886  7.8861364155102098
 47.6390071534790707 26.2421984080486261 11.0050879808622000
 44.6655032087686692 24.8738316715392074  7.9765816566642620
 42.1059981279620317 26.7496751067982785 11.1291428424563339
 39.1760755360401731 25.3447348119792402  8.0692732261369056
 39.2006702556569309 25.3928227197864302 11.1871418514592076
 36.2991970189711424 23.9953619447891064  8.0959973254204698
 36.2929635853474082 24.0289335438860263 11.2136636324242485
 33.4229442437996127 22.6455026105528070  8.0864670141343495
 33.3838663742386288 22.6603567772011054 11.2043169343727964
 30.5476108656006495 21.2963175744005255  8.0383000267369678
 30.4756615548273473 21.2895354421389591 11.1560985586058887
 27.6731383998312488 19.9482756426413204  7.9509647218076900
 27.5690779833099846 19.9185013877640174 11.0688175830399000
 24.7977607255014370 18.6036124269410870  7.8262126270729464
 24.6646147857958518 18.5490773459722433 10.9433354664082110
 21.9220694402041936 17.2620237387624087  7.6660080843105982
 21.7634405295803077 17.1803990137754745 10.7818843865858476
 19.0447485371887311 15.9256195375872895  7.4730164155406698
 18.8664092162979671 15.8136434641120847 10.5881678817692944
 42.3652415867455758 29.9489904082572664 11.0526458207640097
 42.3250563392409802 29.8564794507432509  7.9343640569281266
 45.2576506988913181 31.2902963210412466 10.9728556062082987
 45.2143974755651641 31.1991517403080252  7.8539769315590959
 48.1411101557087591 32.6191478380356443 10.9030444574314558
 48.1141928650618524 32.5405827392140807  7.7835362871539413
 42.0544120844257421 26.6921568579323356  8.0107754046593520
 51.0181809721499206 33.9394624550518742 10.8631871294319531
 10.2185987481206713 11.7424272885709957  9.8853678589761849
 10.3944554357339509 11.9445819128140176  6.7706984912113279
 13.0931842098355133 13.0928130358286197 10.1293205326169602
 13.2820242359607175 13.2679525981971320  7.0150237430042424
 15.9760499319497580 14.4500030998140900 10.3675068970236399
 16.1654620724511453 14.5943455993464131  7.2529617462522467
 51.0218481541347160 33.8813836792309857  7.7430520561545766
 38.3697000088745810 15.8466140898883587  8.0544034408266096
 45.0036571197688744 28.0977907168170447 11.0485366203511450
 47.8911586923702473 29.4316913995472156 10.9657400299548335
 44.7469148238317587 24.9023121916894610 11.0949981405216622
 41.7846741835667146 23.5274641950322767  8.0529911308578281
 41.8439223141607712 23.5496515875362533 11.1711094525506773
 38.9074290352095531 22.1786200545087411  8.0999053765192670
 38.9347191688825731 22.1893244584787297 11.2177277859477247
 36.0310374248243903 20.8287372552333352  8.1100535903567028
 36.0226212316054699 20.8239291349257272 11.2277764084143605
 33.1550529051408418 19.4780331340071307  8.0796012561841728
 33.1102946211849911 19.4549143606806325 11.1970534526837895
 30.2779452809090692 18.1279495355787503  8.0080357433466105
 30.1982728151645468 18.0846518346733482 11.1253601595703060
 27.4015068503462338 16.7805086792993379  7.8964830778378836
 27.2883516204471732 16.7167084465247164 11.0137041336015660
 24.5242436606042382 15.4343015571009463  7.7467037257844744
 21.6466505552322452 14.0910839102463523  7.5604380632735397
 21.4732264465332641 13.9861276601045201 10.6758013145066535
 18.7699574956506119 12.7521198176103105  7.3401246778328693
 47.8330044520833297 29.3785383603772985  7.8459695512093983
 50.7708108404566687 30.7560680669789086 10.9037550593119139
 50.7372444108116483 30.7195494627218224  7.7831669489488888
 53.6465735786604938 32.0741917255754814 10.8788018332862055
 53.6486819759607840 32.0600935444337978  7.7577493715775816
  7.0523290499660272  7.2545999872006748  9.4364860863491078
 44.9385761822310243 28.0370646973163744  7.9296503529275180
  7.2178296530083470  7.4352230831837014  6.3185803509918212
 10.1177675167486534  8.7621811958052493  6.5644959123198507
 12.7926841711387418  9.9227428548439409  9.9429755289835597
 13.0071674574660126 10.0888677186057691  6.8286243435006257
 15.6768750527286027 11.2708372579947369 10.2061320483518614
 15.8905585707868440 11.4187058780181232  7.0922313699236303
 18.5713787485627577 12.6251929475339590 10.4547939184294680
  9.9177711091914293  8.5834267341019554  9.6801877478782163
 49.2311187411120201 11.6494162102725429 10.7434620481902670
 26.7014381814856705 40.9892583978115255 10.5670456921718490
 52.1342522558156389 12.9893621410431148 10.6200588588825315
  4.4708586195667959 39.6287817559504703 11.2316885689697585
  4.4256324015299287 39.6693779376454785  8.1146227586234794
  7.3771756912367801 41.0008022512681549 11.1880298375787284
  7.2998890305586883 41.0202733726186324  8.0711188617966894
 10.2803931359478025 42.3723609010652709 11.1057110059676027
 10.1734964054811101 42.3690557273478774  7.9889628885894144
 13.1810911609568837 43.7433286909396415 10.9861972879552603
 13.0486178654594251 43.7151045757970493  7.8697727789131040
 16.0769904863938571 45.1139252232006029 10.8320685884261234
 15.9244721654499788 45.0567461491800287  7.7163262561324881
 18.9681787507375539 46.4834868074981671 10.6481083261614184
 18.8029925344819873 46.3929804393162328  7.5327799296158942
 21.8523982011616127 47.8495774299242598 10.4399853947173664
 21.6833406857951871 47.7227487479450048  7.3246947977786192
 24.7297553341253753 49.2101979780202328 10.2158301650990975
  1.5505735941734797 38.3190239517465443  8.1204261665181416
  1.5648661622770197 38.2599820659713998 11.2366898106952871
 -1.3258880892181388 36.9676800297444714  8.0913687855769982
 -1.3403185574337004 36.8946992483127758 11.2075670312261071
 25.0306339144979866 52.3893664800440320 10.0225646985377246
 24.8357425550813105 52.2194519624885842  6.9080125772074892
 27.9010842302465676 53.7323730837073654  9.7672915048708528
 27.7271102308497639 53.5410262418331868  6.6514984171784199
 30.7623003509320760 55.0670899798876050  9.5327279553920903
 30.6290580335406339 54.8627107046401434  6.4148178896229213
 -15.7863835226777400 30.2086107406283269 10.8672524106485398
 24.5672506060069473 49.0463349646340632  7.1005046069265791
 -15.7856803050321162 30.2390340834418510  7.7464200865858253
 -12.8767193974286052 31.5818392610218339  7.7840476566926426
 -10.0295490786945383 32.8506749402434508 10.9755620794650959
 -9.9751082895537238 32.9250249718865575  7.8570312918637359
 -7.1410900620512985 34.1852774857015547 11.0648608720102448
 -7.0846705655693540 34.2700088620649552  7.9472933673969557
 -4.2429200678367929 35.5346497373324510 11.1481449858849651
 -4.2032205828779725 35.6179486643972538  8.0314055357011256
 -12.9108637589384436 31.5268856717853829 10.9036584561481611
 21.9510068582923203 50.8944581960235567  7.1659559419116050
 27.6001108041514520 50.5642702486875564  9.9873162950183563
 -13.1579640382653036 28.3436105284657742 10.8275606241575808
 15.6583559453372558 41.8812997254360297  7.7740066782765105
 18.6707952029427133 43.2820575794607620 10.7451753460735215
 18.5367617014834032 43.2176952433360881  7.6282113394904485
 21.5522923900074801 44.6520554064399988 10.5770281328251645
 21.4169745794445738 44.5481019744021793  7.4602211308113988
 24.4284553653025789 46.0187874899473854 10.3931330472967343
 24.3011566403625672 45.8734793995173291  7.2765700821449490
 27.2993203023612274 47.3809276362761835 10.2015570344128363
 27.1880383034396438 47.1949003745937361  7.0850308215796742
 -13.4043672560999774 25.1635584797809706 10.7337954305938261
 -13.4477736811585515 25.2580222367715024  7.6141857531198696
 -10.5303970763893986 26.4800501739063279 10.7577951414143147
 -10.5388175780967082 26.6009546889970601  7.6393393419720610
 -7.6507688680787700 27.8026792619041387 10.8193173215623553
 -7.6361306782015994 27.9423821055328503  7.7021869313524167
 15.7842269511185496 41.9089844718820430 10.8913581931110262
 12.7817132742087480 40.5419676026548217  7.8933771072733450
 12.8933850253514173 40.5368230805067071 11.0109191860973734
  9.9067477880250596 39.1968591954595880  7.9824120066411606
 -13.1612037320213773 28.4197364791391820  7.7076726795200967
 -10.2802990590233154 29.6634320102821150 10.8778387712559717
 -10.2550038034423388 29.7624683243751420  7.7591234202039381
 -7.3964377329242366 30.9916931829039868 10.9558621027811967
 -7.3582877830361166 31.1053682520242774  7.8385665645789144
 -4.5046070296218010 32.3348609079680571 11.0412597131924120
 -4.4722716190029121 32.4522444149304761  7.9249387218243523
 27.4558717159727017 50.3664125611484934  6.8710961582105075
 -1.6058443406447227 33.6899832235887260 11.1123773237523800
  1.2950159415461631 35.0529560895584780 11.1578874559800045
  1.2825468132172897 35.1496521194048910  8.0417429446736222
  4.1973863231855200 36.4200996310786209 11.1733526303807036
  4.1583665651433792 36.4998617051953929  8.0565500778241343
  7.0990605906874178 37.7913847982194966 11.1547412827144026
  7.0321361028432650 37.8498672448034270  8.0375171948094088
  9.9985324252952079 39.1632315330549190 11.0997752156570471
 -1.5935222596364298 33.7999480195987942  7.9965021344178320
 -4.7647010222864177 29.1384159916030399 10.9008659185805712
 22.1515645240951287 51.0376165937460655 10.2798654712236441
 19.2640505312865535 49.6790943843573416 10.5238865949530638
 -6.6241126041270908 40.5813390277755417 11.1866805094754991
 -6.5461708002358989 40.6010611138514008  8.0693122910517499
 -3.7172336168771047 41.9398270676014988 11.2527658051525865
 -3.6696897122272483 41.9510413534234772  8.1359637446202324
 -0.8059647260382301 43.3035816866007153 11.2841652125490146
 -0.7928699189258880 43.3027568842435073  8.1674445360476362
  2.1066699402745694 44.6717623445517589 11.2763459562126211
  2.0835672830244887 44.6552445006198369  8.1595766949370265
  5.0195617561000283 46.0409784821723989 11.2267685968709738
  4.9604517155834991 46.0068419332211462  8.1103181351244231
  7.9310274879368849 47.4111841610891531 11.1358635340970071
  7.8365670548969950 47.3578113224683861  8.0195492902833792
 10.8423370944086948 48.7785526022945106 11.0039796006312187
 10.7133142905162710 48.7057008083327858  7.8883119741911631
 13.7519284369600943 50.1448552888257524 10.8323077415053177
 -9.4263603757023038 39.2534040418275509  7.9760982844439647
 -9.5234072811631165 39.2331485408361331 11.0937473528694568
 -12.3168456012425942 37.9087782184298590  7.8760031187817248
 -12.4124073064898504 37.8986875064706368 10.9944098675718926
 22.7493269992043814 57.3699614538012526  9.9468230787265064
 22.4984022517960796 57.2481649236848114  6.8334566599064201
 25.6302465232834891 58.7014780194279240  9.6646730916722348
 25.3868349730378249 58.5813967098535286  6.5492539516771826
 28.4994672036813199 60.0249292856675751  9.4018113365564950
 28.2862199415662836 59.9131287140908597  6.2828666146533152
 31.3560002543322049 61.3412931292484558  9.1841904771756724
 13.5888367550965263 50.0529811348154112  7.7178470722968440
 31.1999355341947400 61.2482939879975419  6.0618916292711251
 34.1284244177349905 62.5848916911696449  5.9142781790279475
 37.0492590121927421 63.9587293112108028  8.9902409922179345
 37.0656334953928948 63.9266058034787577  5.8624095290606943
 -18.1681971162304379 35.2553207383372893 10.8658167731078539
 -18.1270222864109272 35.2224999076649254  7.7453959928676852
 -15.2927198617695215 36.5733943393683916 10.9126187953661464
 -15.2179037743314343 36.5649233023358207  7.7931203429261497
 34.2042494388385094 62.6508579979043390  9.0405633520212252
 19.0705786085965912 49.5647581374755930  7.4094567157650664
 16.6589998750190205 51.5061461315389550 10.6223924659247171
 19.5598677445133617 52.8625014299403517 10.3777396065741030
 -3.9364715243564237 38.7841087625268912  8.1019855044294165
 -1.0738787037209181 40.0994615245481043 11.2648256907630699
 -1.0595511964494722 40.1354063420318141  8.1484894436175601
  1.8352171685424745 41.4666944882387440 11.2761860535120810
  1.8173707014566358 41.4874920084745966  8.1594778717207816
  4.7445577114674071 42.8365535104365520 11.2488698360618198
  4.6926402552775990 42.8386970823775570  8.1320344632332500
  7.6538324211636901 44.2078453350623235 11.1811538716495011
  7.5676961272162746 44.1894304285206303  8.0644835605271581
 10.5610702365551177 45.5785474952445782 11.0732382747847424
 10.4425553057308012 45.5387892989213583  7.9570434737212876
 13.4665041845793514 46.9471747185842858 10.9261289166441316
 13.3174570855070673 46.8852406671233837  7.8109172595968124
 16.3687426764925377 48.3143292574473904 10.7417073736293958
 16.1933552183596419 48.2276788036084696  7.6272128254122329
 -3.9810566523397988 38.7369373230039571 11.2189765758063391
 -6.8140785395822858 37.4349711983579496  8.0248364901933709
 -6.8836115732677365 37.3820664372688825 11.1426587021838124
 -9.6990679686717343 36.0885378043284106  7.9300003306847691
 19.3412501750834132 52.7356978224781727  7.2647151470893352
 22.4509320525662481 54.2112218815018068 10.1085174879995137
 22.2221503346821123 54.0682493397494639  6.9955139277099319
 25.3308748688040026 55.5527539990752999  9.8313916318796917
 25.1082830363838418 55.3971499367942357  6.7168296728724108
 28.2007768728645303 56.8852738393147277  9.5643562515206284
 28.0032154964214577 56.7225873610884790  6.4475028266160672
 16.4645804198561478 51.3963894046854080  7.5086826632771322
 31.0596696878945053 58.2097837472038862  9.3300023251331989
 33.9094582442392181 59.5262193725917612  9.1561484878278652
 33.8332322034767827 59.3811721582536478  6.0326994628185231
 -15.5404998151601124 33.3904287692947648 10.8986891493016422
 -15.5011929925661516 33.4019905389706153  7.7783027757430094
 -12.6623663364765040 34.7114246609692998 10.9599883424949205
 -12.5951487930563761 34.7443672296423500  7.8403838331071132
 -9.7777615256074526 36.0407953672318939 11.0483542381673612
 30.9112343246920993 58.0500427928303608  6.2097664834450974
 19.6173615062430002 55.9106768146085287  7.1140758362215850
 -4.7442157359171810 29.2870724937051641  7.7847566122759915
 -1.8627375948939715 30.6331667009987356  7.8646249015024416
 14.2998657580134267 25.8751765088957626 10.7337168432540473
 14.3486689560740324 25.9794546267837170  7.6141530349011424
 -6.0725413260005761 13.2508651260207060  9.8542718897555321
 -6.1876673076115996 13.4777002812053013  6.7380132966295561
 -3.2133329301683888 14.5658156891606421  9.8774161899476596
 -3.2727654477723171 14.8201526433201689  6.7620626706463440
 -0.3526918793973317 15.8896303130790457  9.9562694757741497
 -0.3643589793920216 16.1572555412638650  6.8414956497063262
  2.5122960619327985 17.2249280758303307 10.0737198510440660
  2.5359066000217090 17.4884977300645374  6.9594596392026187
  5.3814253882810181 18.5753081846190931 10.2095428144249745
  5.4280124568780046 18.8170281046319268  7.0951139136763999
  8.2521303563323070 19.9359560024671403 10.3488672942741733
  8.3156173078570106 20.1437007575251421  7.2340192208035727
 11.1243591753677826 21.3028700346491462 10.4866596705301394
 11.4662058088310648 24.6489819610821819  7.5278827848481411
 11.4239581162556316 24.5029218806651414 10.6459637520687824
  8.5824693974018924 23.3178373461073001  7.4312516270273594
  8.5495005820030734 23.1339009993471016 10.5476166862666219
 11.7220406442501126 27.7068390720071029 10.7790260239996325
 11.7294793162821467 27.8287014386237992  7.6602239183856060
 14.5993950504456684 29.0805769086076609 10.8233712476214112
 14.6096861840798944 29.1610320614370337  7.7031347822758169
 17.4761501718133552 30.4574436869279275 10.8506496888968922
 17.4897209131210616 30.4934858848586181  7.7292268096695524
 -5.8063216862213665 16.4120529128361063 10.0859161829578188
 11.2019446521733599 21.4711619517560699  7.3698482609953651
 -5.8867129636335518 16.6419048230354427  6.9702244848878587
 -2.9783615025980685 17.9830684495050015  7.0208634441172970
 -0.0721243735638465 19.0645196608465675 10.2244602339042228
 -0.0782173308843720 19.3203298291106549  7.1103023049741356
  2.8003990994068197 20.4101007732009663 10.3320800098654733
  2.8123719949483350 20.6536371476389675  7.2179796506708147
  5.6754850596936448 21.7685849552268706 10.4420595808400822
  5.6979036411993542 21.9858951304818859  7.3273111413340857
 -2.9406148310387876 17.7324089435750878 10.1359840128070413
  8.8485673004977556 26.4933672817682577  7.6022590030726862
 13.9985802776254626 22.6719115032560090 10.6172589128915806
 -3.4891992093822775 11.4103648914857185  9.6265134393853273
  7.7760383876410932 13.8002456592425684  6.7736263661039935
 -1.2056265165511697  6.4406510149990490  9.2193179600043464
 -1.2544362050170244  6.6245223642894224  6.0969614489521007
  1.6420477839835639  7.7520478563328421  9.2939797824716468
  1.6737828240277695  7.9634794648154648  6.1737766896361075
  4.4928705686684705  9.0722011506541556  9.4445399174472833
  4.5925180248992294  9.2952455361580277  6.3267093459660124
  7.3512560429359803 10.4030691852787651  9.6499812228167752
  7.4994256648238142 10.6227044199046556  6.5343563285322528
 -1.4954573504397177  3.3142477392545233  9.0731056190082313
 -1.5567775734173603  3.4243370593734337  5.9477530820537918
  1.3497393023145106  4.6213386967954992  9.1105146085757944
  1.3777429441625335  4.7660999963591726  5.9863980424451304
  4.1978533752479175  5.9336873146896760  9.2380521700167950
  4.3045134084485461  6.1028192144745734  6.1165681514234356
  7.6518676751088259 13.5661496515020623  9.8885684362565573
  4.8759949567041252 12.4760897624824612  6.5768068562344641
  4.7888166513300323 12.2247867044459415  9.6918226567828771
  1.9654587038340947 11.1484050674449247  6.4157486210431918
 -3.5730995850951861 11.6503540316778302  6.5095069578564804
 -0.6345390996839059 12.7269178916280676  9.6854081121984787
 -0.6563402996173313 12.9892486813110022  6.5687367033336015
  2.2231503947131954 14.0533165730418581  9.8007426726834712
  2.2534735364013190 14.3216029825411049  6.6855636588896843
  5.0849157569165682 15.3927597635192388  9.9546850154286535
  5.1540982741600097 15.6489166273656402  6.8403215870286882
 14.0852959781540008 22.7987875016394668  7.4990170141295645
  7.9522877516783401 16.7448387377811763 10.1271487724523155
 10.8227383772976840 18.1069130378521912 10.3033863022166212
 10.9356170042706324 18.2952316014193705  7.1879311715177368
 -3.7689029268542238  8.2673550431903173  9.4041502294254915
 -3.8778989436304108  8.4715768684590813  6.2843837538924694
 -0.9188996735278154  9.5772915708500364  9.4316011585566688
 -0.9535473329643391  9.8128794061374034  6.3127264442750421
  1.9326776088159445 10.8960649703181645  9.5328868679501966
  8.0472163887606794 16.9721092388354080  7.0122909807873786
 -1.8717606648388727 30.4876371269313786 10.9803772426629003
  8.8444929882555403 26.3348100418253068 10.7194616643537888
  5.9657698956305047 24.9672190913696781 10.6474014155105898
 -7.9044290715656933 24.6190743815012958 10.6590561024525456
 -7.9185049834455414 24.7811678096604311  7.5423441697499483
 -5.0245799954286339 25.9468353588820904 10.7303422365920778
 -5.0207202643768563 26.1235406475149112  7.6146656937068320
 -2.1373074730419424 27.2884503703010424 10.8133016803225566
 -2.1341632369764967 27.4675361399581703  7.6978106522732510
  0.7549612607515876 28.6439445268732982 10.8862120175324382
  0.7447115831313066 28.8134112294669471  7.7709907616201628
  3.6467699756910412 30.0067805893537169 10.9387085148390746
  3.6215402466960511 30.1592950673801070  7.8231355830182467
  6.5376173433528475 31.3739497288380775 10.9692096902283289
  6.4995551707618837 31.5046814582241907  7.8528316878233051
  9.4255135431782211 32.7457554277943146 10.9763144898730705
  9.3767307766933818 32.8477093172731074  7.8586113312763581
 12.3123954503181228 34.1202183361122167 10.9587156523315539
 -10.8256079636001203 23.4390206766830573  7.5019819674417905
 -10.7795034773309695 23.3008805958168743 10.6198885449786484
 24.0361787861336182 42.6975280115019800  7.4288912408619519
 24.1277591877509288 42.8209832036091811 10.5473013427498756
  1.0256338074597218 31.8471985111136853 11.0407063313051612
  1.0140387209161930 31.9808340652186303  7.9246987925620935
  3.9229146335756053 33.2124891589695821 11.0749268100192069
  3.8900316507259189 33.3300010255740844  7.9586555304742603
  6.8192635550587806 34.5815859193014390 11.0808333382291053
  6.7656336085953468 34.6779037409986870  7.9639066049811102
  9.7135427177283571 35.9541140520356635 11.0559744344638506
 12.2547459383194308 34.1873866009658514  7.8398897906594236
  9.6413370813940045 36.0233364274052903  7.9384731455254167
 12.5173912439790769 37.3654229224707990  7.8829098522615073
 15.4901950116376508 38.7027239495559030 10.9197317694338736
 15.3948175725539844 38.7036110575148129  7.8006843641457220
 18.3728755383280493 40.0773867974698206 10.8141735589425600
 18.2728302115415708 40.0387996876832730  7.6953153723141874
 21.2523269452804762 41.4501125111484185 10.6886161380470153
 21.1531436484842637 41.3697657317313130  7.5698962824643203
 12.6038725467021475 37.3285292151624404 11.0014278826237071
  5.9663775747386119 25.1575199255902611  7.5318445866674057
 15.1948916574430477 35.4958354165606877 10.9174974226978456
 18.0745518287089730 36.8710216480105899 10.8549630398562229
 14.8705862545983933 32.3429531594214552  7.7645367508738703
 17.7754860549297469 33.6643287506755158 10.8668570342820718
 17.7502645433488127 33.6762589877107459  7.7454565818985852
 20.6517027874692722 35.0393409354243843 10.8311971097225612
 20.6296892273559855 35.0068555162826271  7.7098598917670049
 -8.4130816650136921 18.2662695801289985 10.2874470647564600
 -8.5005644730324246 18.4593224614034561  7.1710605428102667
 -5.5437473354660689 19.5824569868808318 10.3162707171009682
 -5.5914327880851804 19.8021587103681789  7.2006048886253682
 -2.6711950664201307 20.9091485627239031 10.3850645927822622
 -2.6908877658173140 21.1436226986109794  7.2701726322391433
  0.2063551960744501 22.2500426567207938 10.4740601644222817
  0.2006521714710698 22.4828300308762863  7.3599766394723316
  3.0864091512919534 23.6043042748314917 10.5646460882146620
  3.0843912647288594 23.8205288699667896  7.4504516684297135
 14.8978310362275845 32.2879400078530452 10.8848881277365663
 11.9921713817745736 31.0087094640686942  7.7649451657677133
 12.0182313642735270 30.9129159664974438 10.8841702234150421
  9.1130855435994054 29.6702592800449665  7.7454288465211869
 18.0108997613930839 36.8579393657613181  7.7342470209533074
 20.9519924144580223 38.2455978857615335 10.7736304625363264
 20.8910482331805838 38.1891022618834270  7.6530978786322521
 -8.1583385617254294 21.4400536938921569 10.4796819280286453
 -8.2066902082311817 21.6202589448531626  7.3636464302519578
 -5.2838428654807723 22.7609406915824692 10.5338363331589164
 -5.3029742391866179 22.9620326009429334  7.4178507297885847
 15.1323375933425801 35.5243097933356111  7.7972912399978656
 -2.4033781422330183 24.0951715987626471 10.6133789711133435
  0.4820164078631352 25.4440271213525762 10.6962527264897158
  0.4736389104886767 25.6471002058723165  7.5817196062278160
  3.3685147324256750 26.8036249461204044 10.7677979583834631
  3.3536818433664131 26.9893019330291821  7.6529014774298014
  6.2529042802873782 28.1693608673439151 10.8236709162325901
  6.2330958038970472 28.3311143728403891  7.7077158266840193
  9.1362780338194494 29.5385922939171728 10.8630198280124883
 -2.4095903682026667 24.3045666078164082  7.4982903815810262
 19.8563786243228684 56.0299792651887216 10.2265646083059334
 16.7395009566852089 54.5686248843924346  7.3726702685043293
 16.9509742774745220 54.6833482439918157 10.4856599668316832
 -10.6692136357404497 56.9062640131076307  7.6121248151168501
 -7.9005372647874585 58.3516071929342601 10.8153599500202837
 -7.7865908194038189 58.2608782928095508  7.6979395372960475
 38.2161843504830827 46.1546367118327936  7.0059944676554364
 -4.9031330213467665 59.6186851337256272  7.7508437411983921
 -2.0452886439209284 61.0410153476142625 10.8921230147930270
 -2.0175064616046527 60.9789634170566686  7.7713210320108317
  0.8841312448905170 62.3844176212225747 10.8817289588004762
  0.8683770840718534 62.3416564783486251  7.7605322295930357
  3.8143136737382917 63.7260859030232041 10.8401076578897850
  3.7558369132949641 63.7041305811483980  7.7192917386104138
  6.7439530043670954 65.0666718594852966 10.7695187163369912
  6.6445740198311878 65.0661833456980645  7.6493186102633617
 45.4449523256718280  0.8289184548367059 10.6717689665196449
 45.3058604352831011  0.8495539893505456  7.5524842900101623
 -10.8232173897382804 57.0064599525726265 10.7280045944271780
 -13.5489621140596235 55.5554540197322737  7.4957467441598924
 -13.7383325363796178 55.6634579484890750 10.6107654067037078
 -16.4294575439392645 54.2082912398374006  7.3544839717368733
 51.3696821595387121  6.7450115747326578  7.3360204489930130
 54.4867273595642416  7.9872381688575507 10.2937787387691699
 54.2549709769284760  8.0929786937882628  7.1796127618179950
 57.3786263864616046  9.3120446131717607 10.1325465054615282
 57.1467375956021115  9.4394172884576086  7.0186293133068238
 60.2571317229423400 10.6296047963798976  9.9925787314775434
 60.0471267403908371 10.7866575387342252  6.8779103254632883
 48.3701537488494395  2.1677940064302370 10.5452547357670312
 63.1263119784395386 11.9414230469421554  9.8943931212741258
 -25.2847502558299091 50.3662559966751360 10.0871100407925152
 -25.1169318554824130 50.1687551104812712  6.9729626617198601
 -22.4136036154631526 51.6786529134440613 10.1839851022019321
 -22.2116035521800654 51.5132683998557397  7.0705358202242916
 -19.5347501646104682 52.9983941907531459 10.3178932889347301
 -19.3160671666417727 52.8601812412445184  7.2047122984228613
 -16.6436423748403683 54.3270863311561314 10.4684473421382940
 62.9568671988440158 12.1330377764781936  6.7787948957218678
 51.5804388943112713  6.6549515483747452 10.4513980896255436
 48.1908975703830791  2.2087673472874787  7.4279033368277538
 51.0752626600553370  3.5639926062041680  7.2761839426923327
 -11.1053049658483172 53.8348657919495679 10.8186232112087914
 -10.9499010778178789 53.7346776748791726  7.7032953260693846
 -8.1886983435634431 55.1851074083454378 10.9043702945329262
 -8.0710055604110575 55.0857696343789840  7.7877790437234431
 -5.2646836837983448 56.5356984157975688 10.9548448512687795
 -5.1894001522717561 56.4394351788301876  7.8366241425925462
 -2.3378888582303525 57.8853624849964348 10.9679745056775779
 -2.3066503978232213 57.7964242828979806  7.8485716809080808
  0.5896938484777090 59.2317918125399956 10.9455476902161664
  0.5777310012844772 59.1550051673497919  7.8257576577459913
  3.5183200428695987 60.5775608806592061 10.8898328786658301
  3.4639313690040656 60.5156524630973962  7.7698709814000146
  6.4465078531252251 61.9209689126958764 10.8032015621982556
  6.3510519439173887 61.8762519450375237  7.6832697572026438
  9.3737385319774642 63.2623896433449531 10.6878756504264132
 -13.8297152846796525 52.3876373769383932  7.5872650166114362
 -14.0151062549713412 52.4897293373311484 10.7016853968983874
 -16.7130226983660890 51.0412431364440522  7.4514747336070011
 -16.9121432875026656 51.1542832024040450 10.5653154696322940
 54.2025981353962152  4.8355965480474428 10.2166588402927303
 53.9593633009610869  4.9157379456530457  7.1023787066731563
 57.1010689605953701  6.1605395347453262 10.0312625655018337
 56.8475336167419627  6.2641227539194819  6.9172617860093508
 59.9843972069460847  7.4793005625463023  9.8579280288978985
 59.7442886505827815  7.6122553964855060  6.7429715321060550
 62.8553258298213251  8.7924773810068579  9.7200334172626022
 51.2906589771417032  3.5038183860699768 10.3917237788366190
 62.6506363929096395  8.9607657677439931  6.6038974795637211
 65.5671566705523503 10.3070815910968125  6.5210839484986849
 -25.5423167705283021 47.1991787449103839 10.2639735149686029
 -25.4144855022408613 47.0054909791188464  7.1490422937753637
 -22.6721982793465457 48.5111318868572781 10.3268254822203502
 -22.5055776492169741 48.3490885327251192  7.2125765437448077
 -19.7960897879183761 49.8277602926410594 10.4330676127006718
 -19.6044347001474755 49.6939247573081104  7.3189238912966275
 65.7166135872605963 10.1010829362992016  9.6379682522452743
  9.2378176125262765 63.2371845815352955  7.5687323016220160
 48.4855908524073769  5.3937957730068513  7.4722711632855532
 45.6003098898553461  4.0381151486888749  7.5817272937394034
 -10.0891012087518313 63.2741163914869489  7.4817702944238187
 -7.3100610022843400 64.6529824677468525 10.7133398223645635
 -7.2040415252462617 64.6340963723337580  7.5931338816141745
 31.3922167283937803  0.4160838090590649 10.7973077669735638
 31.4574341311017811  0.4177909424016638  7.6764085964147943
 34.3217953814325298  1.7569832853919118 10.8523998697557733
 34.3452344573369146  1.7797372021886446  7.7308388753621911
 37.2521886982694781  3.1001390398610904 10.8771891738475333
 37.2333992037683572  3.1428190033651013  7.7557339608779152
 40.1810947887226035  4.4441035762142267 10.8710483965814486
 40.1204745004314702  4.5049720826511086  7.7506019812765334
 43.1082882320153473  5.7879299841503826 10.8334854076880376
 43.0068782902455027  5.8638207867648955  7.7147419871048974
 46.0330052097473867  7.1333158275445081 10.7629770609855751
 45.8921996695257874  7.2198691006536464  7.6460723395232622
 -10.2359773099045182 63.3130317981255288 10.6008865199027600
 -12.9721557394213480 61.9169233810029098  7.3428373721600062
 -13.1584936506582970 61.9756887052512440 10.4599141251774164
 -15.8523993699082002 60.5614626507874547  7.1781818344073445
 51.9468176439125671 13.0840852821521825  7.5047732714021800
 55.0245545271025946 14.3203044548982525 10.4917176486990815
 54.8388766754716528 14.4279503291688194  7.3764172869149949
 57.9047314445740184 15.6412163424600337 10.3820183255372189
 57.7396399358902812 15.7721494424234230  7.2666116171016517
 60.7787038358132676 16.9553643761818549 10.3098688649850754
 60.6481796495308387 17.1162715361904993  7.1939711238657855
 48.9519247634663728  8.4774387207377071 10.6616794887743414
 -27.6110203931147922 55.3628916477083308  9.6407142384215927
 -24.7451422854781704 56.6738444671804800  9.7591406234823488
 -24.5169157506092397 56.5116197410121117  6.6440909816275049
 -21.8695055698423531 57.9906364565045322  9.9222023817092992
 -21.6201835203541854 57.8607207579008787  6.8082013692988053
 -18.9798657079824693 59.3119592165738041 10.1086474635086230
 -18.7335588770463488 59.2105183738417864  6.9943728732502537
 -16.0743145690871536 60.6401616224058699 10.2937441611274174
 -27.4251869385988698 55.1648391387429697  6.5251616580318013
 48.6642678172820524  5.3174927729435737 10.5887744831596251
 48.7765454016522426  8.5713334819223181  7.5454869945995080
 51.6606864785726714  9.9179254964308274  7.4185684236686269
 -10.5323924213030740 60.1645516962590889 10.6483853395160715
 -10.3814537684177726 60.0866390256196823  7.5312294307493213
 -7.6070880698073164 61.5057313926103149 10.7459133441514219
 -7.4971028307674183 61.4443435501962938  7.6268648778565185
 -4.6790683399626136 62.8483510701169834 10.8132819503591548
 -4.6112451267031531 62.8055001705513263  7.6928233173986547
 -1.7492757549789846 64.1891195348499508 10.8507388048417486
 -1.7240777185877689 64.1673876852049858  7.7290599012070436
  1.1814513992653675 65.5314478345735694 10.8574965986549650
  1.1635329289722993 65.5317409478703183  7.7356594217248338
 39.8859803243934223  1.2940707321652294 10.8339067552046480
 39.8254292550481992  1.3166202976100168  7.7129477405613089
 42.8147204736835434  2.6349616405772083 10.7814383068373107
 42.7135820691320092  2.6782667428086380  7.6616956801216052
 45.7414057635442717  3.9769535442017370 10.6998681655829806
 -13.2631947019817087 58.7317406456413593  7.4068082631168215
 -13.4519817043790884 58.8251284140584190 10.5226479513765909
 -16.1427593285983946 57.3806732832963746  7.2569160544761813
 -16.3635073936017861 57.4895401710657481 10.3715521501605483
 54.7609909990473298 11.1495477367199420 10.3905956671687107
 54.5486270816036907 11.2624940950409691  7.2761238965460162
 57.6460519188998859 12.4733638961423576 10.2544552574300898
 57.4444403518897246 12.6077990732386827  7.1398174697818213
 60.5215855565235898 13.7890848126536056 10.1481614129893973
 60.3488083949141441 13.9535524906680894  7.0329245833743173
 63.3900603902978261 15.0993642502206509 10.0888685665521010
 51.8623919747404116  9.8170070228079478 10.5339371391914778
 63.2611442381577334 15.2976559027183825  6.9727459851565623
 -27.7278928054879792 51.9917102270101310  6.7188403300715809
 -25.0194848495668829 53.5252646279409063  9.9138307427136940
 -24.8174818147746592 53.3363089443724476  6.8001785534240788
 -22.1469293381046732 54.8397673646661374 10.0439908050861426
 -21.9168462794877712 54.6829615758618885  6.9310236234285378
 -19.2628425547019795 56.1607625520573990 10.2044286844815968
 -19.0256593719986817 56.0313555774998449  7.0914435861207954
 -27.8838517725975805 52.2143022781169677  9.8337333257137356
 12.2992518407327012 64.6019968141391701 10.5440745433944922
 12.1225318718588682 64.5975263522756364  7.4265832834246615
 50.9955789260039367  0.3603120950895362 10.3720494501071947
 -6.0960919006458782 46.9780806776653463 11.1743022624158748
 -6.0119873581020364 46.9342830512358589  8.0580188668703343
 -3.1815174127510888 48.3393921920228280 11.2146848274930910
 -3.1348894927554256 48.2849859908170203  8.0982705210411581
 -0.2633652866367798 49.7041315446540608 11.2136694730147752
 -0.2573456652999972 49.6367246831988567  8.0967151679668330
  2.6562140130233240 51.0680856880527969 11.1686955124049767
  2.6210809117815423 50.9881993014031139  8.0514075909467344
  5.5755056137509866 52.4316541422640228 11.0807639839250758
  5.5006862576185194 52.3412476125571757  7.9636234327792197
  8.4951175200067919 53.7903642644744764 10.9523516728785228
  8.3813891039263844 53.6930588350128630  7.8359047812464322
 11.4139678394045649 55.1458017702789789 10.7866245269953804
 11.2616926005694733 55.0446881090811360  7.6711742591165031
 14.3312676649801496 56.4972254409056660 10.5862960193641786
 -8.8893206130519626 45.5861066441081419  7.9814374236653887
 -9.0050789176757355 45.6225050469639157 11.0980502773111631
 -11.7692962449724075 44.2393775908450735  7.8780438375959339
 -11.9043749656975226 44.2760768178642508 10.9946740225734914
 20.4509531372533395 62.3253997187641176  9.9972009345336730
 20.1849741347076410 62.2801716766968809  6.8828502305125516
 23.3462112320697770 63.6500572334110188  9.7354258909435210
 23.0710303732662538 63.6260455438728343  6.6205951703942620
 26.2257380217503346 64.9680230190656545  9.4863792123230848
 25.9662494746073662 64.9704056803781498  6.3691677261018169
 64.8641015422590215  0.7025011794735787  9.2766261054656045
 14.1412132985215475 56.3961119875211452  7.4718427737244602
 64.6480162874283764  0.7373939357970462  6.1559070082915639
 67.5706747779419459  2.0810805938106745  6.0078539650944105
 -20.5497249233706754 40.3015232009692070 10.7309979630842545
 -20.4659053862126292 40.2051290924735696  7.6124138678138609
 -17.6734846924784357 41.6173262201997431 10.7904492947010802
 -17.5581367863343374 41.5474972319972764  7.6726738382607351
 -14.7939257753890878 42.9416695931319339 10.8839990870666767
 -14.6592984987645352 42.8926654509238858  7.7670629970333955
 67.7182236665207427  2.0092337822170645  9.1316395131364807
 17.3047667501881968 60.9302522295518685  7.1339340685557726
 17.2459329039700222 57.8439897720266103 10.3534418423706818
 20.1531851996434916 59.1835592976845959 10.0931049826868318
 -6.2793779097788320 43.7675290284701859  8.0799892304857792
 -3.4508137129880532 45.1408742017727604 11.2506657693311567
 -3.4025908127700375 45.1179838230654582  8.1340650538549344
 -0.5364425600671073 46.5060792928591837 11.2662342730406237
 -0.5263118198686657 46.4699878854770105  8.1494321133570065
  2.3801975563002991 47.8728330993657778 11.2389803530827770
  2.3513218737640429 47.8216107589119659  8.1223958642550294
  5.2959305617201506 49.2410323340639522 11.1686460358469493
  5.2293328586670933 49.1741214153037660  8.0522378091261206
  8.2110764149727338 50.6073008249701033 11.0564441639405171
  8.1075871115558336 50.5248424042906592  7.9401908685091689
 11.1255107922637446 51.9696310018875707 10.9038470357247981
 10.9852720414223590 51.8733251084745319  7.7883253311646126
 14.0401253389650904 53.3291119980273791 10.7126863559642285
 13.8634078359195971 53.2215560829342138  7.5986062013345537
 -6.3620347963067250 43.7807516854287186 11.1966416553772099
 -9.1569305916564740 42.4193275208202465  7.9934227936792572
 -9.2661470680449050 42.4272948765124553 11.1105567890379255
 -12.0414900535705307 41.0742072798276681  7.8887641894169951
 19.8982402955410222 59.0926272512481106  6.9797018856466551
 23.0481089756485851 60.5152850912612692  9.8162055551756442
 22.7810752390760669 60.4345018015707041  6.7019864431651985
 25.9293237616409549 61.8384314057578592  9.5436081424578862
 25.6730078246188462 61.7731569662590729  6.4269980077903464
 28.7960176840079356 63.1547370945318676  9.3007544094588965
 28.5764863864745138 63.1122912970591230  6.1804935161821994
 17.0199492956195719 57.7466187800356749  7.2400374514916797
 31.6512827012774132 64.4656351586326508  9.1151293175029711
 70.2726229967854437  0.1931053570671033  9.0113646291018448
 70.2017781145662099  0.2160595447472591  5.8844920863002121
 -17.9219388937435440 38.4367106266795773 10.8363854878768073
 -17.8425694693008765 38.3849615796418817  7.7171971070601453
 -15.0433823322818441 39.7567575300144327 10.9080099430815221
 -14.9367542076873026 39.7276552057928640  7.7892693874796848
 -12.1600003609925533 41.0876058720285187 11.0061426384337810
 31.4956951767441602 64.4534980109477260  5.9907381830683306
 17.5429160514720550 60.9912853278465903 10.2483108890071382
 14.4243485682578729 59.5783018834639364  7.3610478078945425
 14.6260545409842759 59.6520076006552742 10.4761435616525755
 -11.2264952347476523 50.5692832775679904  7.7838967096685616
 -8.4671812511353366 52.0040758319653378 10.9903038777706037
 -8.3476781198799213 51.9168142211667885  7.8743481723320778
 -5.5493056012993760 53.3608703942481739 11.0457777751411044
 -5.4692455572874330 53.2687892022719609  7.9286489169547218
 -2.6259945653687611 54.7166734318401637 11.0610741266464885
 -2.5891181552981086 54.6212509480411654  7.9428571701427106
  0.2998332756234375 56.0694487415501754 11.0360006893080058
  0.2932305387530970 55.9754498770319699  7.9172966364972908
  3.2255870465009036 57.4212392232901365 10.9737511792139859
  3.1766863608041551 57.3328452254474001  7.8547717303139946
  6.1517177365175524 58.7693477618509021 10.8769419414813999
  6.0615648822135668 58.6905379020557163  7.7579948057001191
  9.0773195491584886 60.1147132533944557 10.7480598462728132
  8.9467067353191663 60.0491191993767259  7.6299186473791698
 -11.3793396282797534 50.6527402553753916 10.8991165936319856
 -14.1069265514644986 49.2226953228422417  7.6656835008102107
 -14.2817547672209404 49.3090949711368864 10.7804033064717721
 -16.9949768931168421 47.8755844834267918  7.5385519637561185
 50.7799659905392247  0.3769957871848670  7.2563321600459787
 53.9108889512563678  1.6920802672363424 10.1769063074417812
 53.6630361358986008  1.7304095626976121  7.0621626690271819
 56.8145701676356438  3.0182839495014893  9.9670613388835516
 56.5486020581407161  3.0813650155269818  6.8528076543347591
 59.7028725577995090  4.3381945493722558  9.7610361892619135
 59.4414906877154579  4.4303406237589993  6.6460141193479245
 12.0016458823546124 61.4574026460013982 10.5891927921809703
 62.5767408976766077  5.6526113800976798  9.5834973537607571
 65.4387310396088537  6.9614712139715094  9.4574315279353396
 65.2589302698911808  7.1271299893367406  6.3391878380728768
 -22.9253960496478300 45.3398614014034322 10.4657997205632984
 -22.7979159714609594 45.1868489298341842  7.3497692776098162
 -20.0514046371319345 46.6541047858566742 10.5425166091752569
 -19.8920338895569166 46.5297139727176230  7.4268328997733946
 -17.1716393565888410 47.9764812102071687 10.6533975028566275
 62.3442524831713243  5.7797699176551074  6.4668961099470659
 11.8307398031892639 61.4078995231622997  7.4722509640370429
 14.9237506843725445 62.7973865217706191 10.4008930735047436
 14.7130936057949757 62.7658766420568099  7.2852793791987276
 -8.7390170859809597 48.8151520291006520 11.0570733740071194
 -8.6202142133693158 48.7514800445801626  7.9410481123546841
 -5.8256374736727157 50.1725628991895221 11.1224882839148762
 -5.7425827976109884 50.1013201376923547  8.0062584222267095
 -2.9074306532213470 51.5333788298336444 11.1489336486533617
 -2.8648339899168165 51.4521914131175180  8.0319684177953281
  0.0147871300311542 52.8936606978033552 11.1326772018915161
 -11.4988895554328163 47.4044207959268675  7.8429839054644308
  0.0148112484828218 52.8037988859899343  8.0147581597112172
  2.8957742317906034 54.1571096415362447  7.9560432268140451
  5.8610551674202300 55.6076098636542540 10.9763912941973008
  5.7780913631190760 55.5122430063111025  7.8584430491841415
  8.7839999949570640 56.9588169480538724 10.8422028053358392
  8.6606772496861755 56.8674364454090622  7.7250665009452222
 11.7062177197961343 58.3068964317584317 10.6747845072902692
 11.5433793348618359 58.2227527390066584  7.5585887646727343
  2.9377364620887114 54.2519294434701891 11.0742440292493676
 49.0616469089322678 11.7405009961978504  7.6274751315197413
 -11.6453940579096606 47.4649824752100855 10.9589180116119280
 -14.5402823440627014 46.1258551819076388 10.8415032054408940
 17.8404723819195965 64.1316901809111641 10.1866091256208176
 17.5944479493156436 64.1193877310416980  7.0716656474829902
 20.7480271521320958 65.4605306933583364  9.9535066376605847
 20.4780698335570293 65.4708507512589506  6.8390358065785364
 59.4145028597781746  1.2032854375087616  9.7169894772117491
 59.1410981244068026  1.2408994764474486  6.6019463786703856
 62.2912495896520113  2.5190063296169720  9.5014558887373788
 -14.3826273233343365 46.0579106342100886  7.7258468610749453
 62.0402677117336978  2.5887971699926191  6.3840357563350389
 64.9519133542738842  3.9364814761410130  6.2119521143211651
 68.0074392722111583  5.1345695881518782  9.2322840595079469
 67.8759414616425687  5.2812118147164497  6.1102727041144460
 -20.3020423831972963 43.4785634856137833 10.6425304317738156
 -20.1791496215915274 43.3669181057778061  7.5255237227519345
 -17.4245313103587911 44.7972063070150099 10.7291444786900261
 -17.2762651902495818 44.7109254203352720  7.6124706467361483
 65.1546286029566346  3.8291314217078174  9.3320357763356174
 -4.9741112007790180 59.6970931834513934 10.8702054995750679
  1.0788887410911721  1.5588829808038855  5.8778962268947526
 35.3186468672844427 44.8261631829735947  7.1036117182361131
 35.8851114804380202 51.4175048600418947  9.6958995584731635
 32.9776942622457341 49.8341864364637672  6.7207270714456033
 33.0280957007732425 50.0838107728581221  9.8370286119442198
 30.0795461004982450 48.5145449570865495  6.8956748298255484
 30.1658181069444993 48.7378263438014656 10.0117876257488465
 39.0968381772442939 55.6653675533800296  6.2558714010630334
 39.0218321247529971 55.8860961085802330  9.3750848519985031
 36.1746656759966427 54.3322328858822061  6.3227617472009188
 36.1729274500263500 54.5706835840437350  9.4421350327246749
 33.2585188868274102 53.0059849395195499  6.4612706587686146
 33.3210082729549555 53.2454666904748635  9.5788255057776226
 30.3518981901149729 51.6853447983793259  6.6516792277420853
 30.4637815772887244 51.9102875324561950  9.7682347496316169
 39.3985524981264703 58.8564891133576609  6.0659730290633656
 36.4684956935323612 57.5185396673156220  6.1012265484079888
 36.4630861081169897 57.7092796338947593  9.2234978509189833
 33.5439336176384018 56.1873181175942733  6.2230864552252649
 33.6151257401562304 56.3922200747571765  9.3434925557734676
 36.7659310790572178 60.7182394674701271  5.9407196523841295
 36.7554075586366054 60.8374780734209466  9.0660670272468824
 38.1836598873785604 46.4094812489694490 10.1207372995151310
 35.8843277605067001 51.1574530357477713  6.5792047484296381
 38.7389422047005851 52.7394244172106781  9.6078490470288322
 39.3097911531648592 59.0197955383788155  9.1890600229194064
 41.5923372825655377 54.0540411970702834  9.5873519412160846
 35.3163090405137154 45.0696762342657706 10.2185892968959759
 38.7991300540091473 52.4865310470239024  6.4908207617468099
 32.4282261775660032 43.5002450087251873  7.2172880850458068
 32.4459236378428457 43.7174892334192151 10.3329811945304257
 29.5418414126680453 42.1735631480194115  7.3341169774330517
 26.6563904542325751 40.8461121897785304  7.4489296570944008
  1.0564458694413019  1.4992131294518607  9.0054487972730328
 23.7722312877254822 39.5182820753011086  7.5566936215555494
 23.8275363035118595 39.6192112432844894 10.6762408043899448
 41.4175798560637816 50.6523057399928121  6.7017154588324743
 41.3178063830019937 50.9016371428359093  9.8165053245767790
 29.5742261975204670 42.3564524340194808 10.4513393748773975
 38.4596956526651894 49.5806775277598675  9.8625589269574583
 26.9996515038907958 44.1878549751551830 10.3965414451449760
 38.5050697122520091 49.3179757170577133  6.7477233729500785
 26.9220659907139819 44.0217785781588731  7.2793856302385311
 41.7181093248724721 53.8232702433085493  6.4710236659394420
 29.8099031036431228 45.3451475436373812  7.1266342520087083
 29.8691533137797087 45.5512085831307445 10.2430592245673608
 32.7357859747141902 46.9070493149725962 10.0942168983180576
 32.7009467988837628 46.6676275369487925  6.9782230630234974
 35.5996760220009918 48.2500104387657132  9.9611073429274732
 35.5986157934341279 47.9903133057699591  6.8458999152235984
 -14.8197470414076626 64.2300958458204718 16.9286837530446235
 23.9405768561305372  0.0939023686748841 17.1041114138572183
 24.1166835921393492  0.0942160069033013 13.7505888166449317
 26.9313352150814254  1.5332507819136283 17.2551861110743623
 27.0672011639998686  1.5495857709564922 13.8987618814974372
 -14.6133001459346534 64.2126487542083453 13.5787410579693635
 29.9249289451177241  2.9716964188119754 17.3742197414554802
 32.9652870560496183  4.4533987590425603 14.0985759976688403
 32.9201830504165400  4.4102152352501784 17.4579605522054493
 35.9165710186787663  5.8488609945860386 17.5062275186358143
 35.9164654081796400  5.9033411938244029 14.1463248733725830
 38.9137816452009844  7.2885764683965890 17.5186405831859595
 -17.5785460206176509 62.7467456238821697 13.3957602609911337
 38.8689397868371955  7.3524923966423756 14.1589332637375911
 30.0157880208142380  3.0021547802199415 14.0158656632598166
 -17.8001558580327703 62.7854333957145059 16.7430483564096413
 56.9329180582189025 19.4070972777825546 13.8182893276242975
 -20.7750539742793165 61.3361040522838721 16.5637435661282737
 41.9112603524110838  8.7293360919638392 17.4954500468722323
 51.1104673124657225 16.3755713451314300 17.3302816517934062
 50.9604890483175126 16.4597892777107546 13.9738485485584309
 54.0858632175577370 17.8306525607392530 17.2422803922859735
 53.9426533054124420 17.9292459960059460 13.8869322785825808
 57.0566782096745442 19.2891622251130030 17.1725915537564617
 -20.5556092827655377 61.2728930216466878 13.2183346831350264
 60.0248873850846039 20.7497133097441697 17.1327892203977861
 -29.6822437568056081 56.9541367533623415 16.2085826640019377
 -29.5594789491503001 56.8092886018782295 12.8659631183392822
 -26.7160159823318075 58.4182463442759996 16.2826852961343640
 -26.5459540608412397 58.3013399118101319 12.9399069111360774
 -23.7468011654293250 59.8794721256138160 16.4058925530703341
 -23.5447069000332547 59.7900527671599704 13.0622168622422485
 59.9293651269969487 20.8890289139275680 13.7790739767949244
 41.8233696966094683  8.8008359624109627 14.1359240230229570
 -11.8752344991051473 62.3421984134678837 13.7582757442197359
 44.7805740303880455 10.2490494960681726 14.0792886314396206
 -14.8336263680443299 60.8800775002645977 13.6027169051780454
 -12.0523986639450182 62.3785933266200274 17.1116432711336692
 47.9849276526569426 15.0008028457474971 14.0661421959479451
 -9.0614523526108091 63.8176517138714559 17.2486576313144866
 -8.9234364132645911 63.7993097546382515 13.8925212939147311
 -6.0682701451929368 65.2554884987291217 17.3555183596167417
 -15.0384794216882689 60.9366931842878046 16.9531662690345470
 -5.9747129192943573 65.2537186661973578 13.9970439305240895
 32.7478122343829270  1.1286421761370566 14.0688484650987373
 35.6955212547020935  2.5532183352686855 17.4664848741917957
 35.6977734609749362  2.5809530860780630 14.1070893421046684
 38.6913118471659274  3.9921742840224330 17.4704956810724923
 38.6483399324357251  4.0329132886292003 14.1113150210030120
 41.6871080482102698  5.4321038017361758 17.4398980292912569
 32.7003626962109308  1.1151631006857328 17.4282207694139615
 -17.8020568907500980 59.4125783347804415 13.4399382880218479
 -18.0187772553195664 59.4917581803262792 16.7880570382813232
 -20.7829137773885222 57.9365328741338601 13.2866348789543700
 47.8995575347288209 11.6168898336271980 17.3503689123575136
 47.7427325058080356 11.7004930848572712 13.9939033578990557
 50.8841282335600837 13.0643543316369009 17.2462164762734957
 50.7127589850884917 13.1574661009766984 13.8910942756254521
 53.8613977023189534 14.5155192159318034 17.1414940448790141
 53.6908947905022345 14.6242705316346484 13.7880635643959550
 56.8329257391430644 15.9724214910892872 17.0505759534046426
 56.6774994857834571 16.1007923465108931 13.6987922072969202
 59.8010957359319022 17.4320244480887538 16.9872785719887567
 59.6728578609009404 17.5828907990705119 13.6361944551125251
 -26.9361679748046008 55.1200218242155202 16.4068614375005239
 -26.7787823445607032 54.9619632657476131 13.0633717486682972
 -23.9666981259589527 56.5824615582592401 16.5013012905021057
 -23.7751694311502817 56.4518762567677825 13.1571240049240057
 -20.9943995253153268 58.0407654737433276 16.6326438236047736
 44.9076028215209746 10.1714418025390092 17.4376278576812531
 48.1281042882682755 14.9249081320835728 17.4236693498757695
 -23.5293001665100547 63.1745675706981586 16.3548448533803743
 45.1374746948898391 13.4762351281605781 17.5066783049563277
 21.3927277579488155  5.2372509242599152 16.9951049295773657
 21.5903566539784322  5.2974727271288042 13.6441228572060549
 24.3809566936943511  6.6811783631177803 17.1914151547486043
 24.5477673356002200  6.7476220698164591 13.8371711047568482
 27.3741277731202324  8.1237576057147685 17.3589867120441959
 27.5018432194457425  8.1939490051886246 14.0014715523340545
 18.6270263354338823  3.8416269105994121 13.4323071596763022
 30.3709827229939471  9.5653981673684676 17.4907983900076935
 33.3703644102011694 11.0067189890392783 17.5849592378695547
 33.4120696518245097 11.0807194537824785 14.2239501626772231
 36.3715478915801782 12.4487609986160557 17.6396035138954090
 36.3694050609026505 12.5209835582686022 14.2776409314764905
 39.3736581171521891 13.8925452597698484 17.6530787529072093
 39.3289619629684424 13.9598439171190876 14.2912133538750261
 30.4561242094207074  9.6381606619278006 14.1313252108041052
 18.4099749730821358  3.7907581232893888 16.7802935964505622
 15.6544246663920088  2.3781819653223737 13.2151866033836107
 15.4329993888144426  2.3420667803378610 16.5611977283597369
 48.4821748083967492 21.5886067152232357 14.1687025868426879
 51.5628606307893023 23.0140061434166867 17.4566990646947566
 51.4666953200870765 23.0556077666206356 14.0977224569314750
 54.5356383990810727 24.4725319981201501 17.4022978664648882
 54.4576422897754568 24.5306660383057675 14.0439314329960290
 57.5055556007245485 25.9331870558564113 17.3753032296460539
 57.4517500797131646 26.0111475449926743 14.0169232364189291
 -32.2098649830826318 62.0823032835889776 15.9710648446995140
 -32.1333317800670599 62.0216193031362408 12.6286338051139246
 -29.2461899932431031 63.5476896791069734 16.0446436334298213
 -29.1106685664721248 63.5148065297331428 12.7018763279914726
 -26.2806518918961771 65.0092972836624199 16.1777971136445373
 -26.1008803703412227 65.0028439737092043 12.8344449309682815
 12.4615457257518614  0.8890912778132457 16.3550172711495776
 12.6695612258093018  0.9058444109814326 13.0106957830242802
 42.3742740596732688 15.3386725100209294 17.6263927567844689
 42.2914007721692045 15.3993394119520950 14.2656639682936142
 45.3698758163384639 16.7877456938990584 17.5662742523866129
 45.2582483530402513 16.8433019557151162 14.2065323145205884
 21.3762877974032719  1.9679227428683823 13.5926540386130572
 24.1595903258406288  3.3871115286228775 17.1317515649122996
 24.3322748027215994  3.4237867911339821 13.7780587839024680
 27.1510482008887877  4.8277710649881778 17.2940296625481871
 27.2837401499786338  4.8752980981210463 13.9372631462178127
 30.1459769028010456  6.2676605612259033 17.4219415563010891
 30.2339962064973022  6.3244030732313776 14.0633644713687040
 33.1428453034661956  7.7070680165586838 17.5134508757189025
 33.1859685164504654  7.7720401820181193 14.1535102472678869
 36.1413710241189534  9.1466969006637200 17.5679954910339156
 36.1396835771886060  9.2179080048263078 14.2071480078923340
 39.1409474795128034 10.5879173670191484 17.5845696463687773
 39.0954553828353681 10.6622961402260987 14.2236845893303716
 42.1405566465406736 12.0306549081030134 17.5631201071235417
 42.0543831419700638 12.1053532318090191 14.2029818039031852
 21.1725711267627119  1.9444485642914073 16.9429971038409910
 45.0167112278934312 13.5502646843869901 14.1475907387108890
 18.4128253515125628  0.5059392157969088 13.3923276513888077
 -20.3351551955433933 64.6143109739396806 13.1928964338462276
 48.3574187387574668 18.2388701432233233 17.4862261799755458
 48.2317555884356750 18.2957669124830886 14.1271388628119574
 51.3369347112908017 19.6927416449253805 17.4029393883432384
 51.2120139814008724 19.7585349097493541 14.0451123743051642
 54.3107973080050428 21.1503282456020578 17.3311634023295156
 54.1986777848669021 21.2308481220400544 13.9742179049554469
 57.2810938771069047 22.6098036367609048 17.2828856181470059
 57.1915457654531423 22.7098618189175561 13.9261751598436607
 -29.4634621568405883 60.2517510843355595 16.0994143410666126
 -29.3320757289498353 60.1586180632446315 12.7568162202064421
 -26.4975980213995825 61.7146850512036451 16.2034946051775393
 -26.3199317188317288 61.6492211305047562 12.8605716957681349
 41.5992858980085032  5.4850616744105887 14.0810739551537409
 -23.3215481109851375 63.1353124734099325 13.0109802633987552
 -20.5581191535754471 64.6291354582487685 16.5383517129629780
 18.1911859297987064  0.4993282849886683 16.7398359973821869
 44.6820809272092774  6.8723615248284773 17.3749500449276368
 -12.0982025847999282 59.0155360417415835 13.7983753484755205
 47.6737916735751028  8.3149119656448196 17.2793839213240616
 -12.7303967488670065 52.4853989847582341 17.2997758717238170
 -12.5666197814316263 52.3892996091376588 13.9439879582829853
 -9.7377097005052722 53.9289103340580738 17.3996121386294114
 -9.6007697314568965 53.8431258853334214 14.0419271369898322
 -6.7398992661925048 55.3695892213431691 17.4750880372519646
 -6.6401038202872478 55.2916729094958157 14.1155950661509380
 -15.5405755855523999 50.9280891260543100 13.8349748688291534
 -3.7405127051345497 56.8088279091366530 17.5181121074605741
 -0.7418005868813049 58.2476114712520143 17.5261500532435122
 -0.7293632064126440 58.1867281301919519 14.1657923204532956
  2.2561918532512668 59.6856246613474326 17.4985128627008670
  2.2228215863037830 59.6355222867612227 14.1389771483332840
  5.2528122524353238 61.1243616447457967 17.4357678644386347
  5.1730790176651222 61.0864489108898425 14.0772002688818318
 -3.6833812093888287 56.7386803861485660 14.1578223442528746
 -15.7158825704894110 51.0390063033346237 17.1888840903378863
 -18.5232901617994372 49.4564123695954549 13.7315140162390428
 -18.6944116563390779 49.5864360586909072 17.0830201327487714
 50.0137031302505051  3.2038493979898748 13.6980267915616825
 53.1980939992377557  4.6078845444387841 16.8852200305295206
 52.9760218730998176  4.6680621052999758 13.5365577871221259
 56.1711140395247526  6.0562864455601915 16.7234437497278421
 55.9499154712221767  6.1398145857558122 13.3762696302477533
 59.1401889170524839  7.5108522255092627 16.5808413018412075
 58.9356434593784471  7.6216290887627602 13.2354201712594648
 62.1066568315076495  8.9701176354685916 16.4706459175668556
 61.9331751387185463  9.1095907590028613 13.1261898661081915
 65.0704299142740865 10.4318060054365169 16.4058623129618439
 64.9413838600044215 10.6008317653309501 13.0615319349313435
 -24.6388202598061667 46.6661577436662043 16.9412374255997271
 -24.5134511178761691 46.4906744323249725 13.5915481132026130
 -21.6683470707113806 48.1279940439413920 16.9962630248716025
 -21.5142855913545645 47.9756533093491555 13.6462745837881485
  8.2480141504549049 62.5632135773415143 17.3373306679192787
 50.2184639609950025  3.1630207215682118 17.0493425850867055
  8.1215627191854765 62.5383786125300745 13.9802765316735957
 11.0699611555384987 63.9924459928784515 13.8494357558911538
 -12.8109995703763513 49.0889341273367847 14.0224316393561885
 -9.9716813204328716 50.6243268706519061 17.4732832460638612
 -9.8394415619383633 50.5432428340223794 14.1149590599739607
 -6.9745359979245585 52.0681302026198196 17.5468509729817157
 -6.8740205477827896 51.9899901218065210 14.1868852852823828
 -3.9732365694492935 53.5095639051798599 17.5891029660519393
 -12.9623146005613865 49.1781474109084087 17.3793456472135439
 -3.9126013482114512 53.4326270606907912 14.2278740121565352
 -0.9548084915084023 54.8750226840287212 14.2329133228785238
  2.0298198955578912 56.3885194174172426 17.5617831139981924
  2.0004484345239804 56.3188740112307542 14.2010860864799273
  5.0288355226169514 57.8274514724219770 17.4920262491971386
  4.9536554348671391 57.7655125587305847 14.1327332978960012
  8.0254881574634087 59.2668104841617023 17.3857597787106251
 -0.9712487145584509 54.9497078497846161 17.5943717602508869
 -15.7903258538359310 47.6244207023852226 13.9256935003858473
 -15.9453399009911045 47.7281118461345883 17.2808304376495840
 -18.7768625776608999 46.1500262421164749 13.8395718742105593
 14.2269020894581306 65.4451249903162875 17.0402505363635157
 14.0219098734336889 65.4500758344804865 13.6894081630799835
 52.9814381730387396  1.3116815410573670 16.8577055324484668
 52.7546612661730308  1.3343237433856514 13.5097337955176222
 55.9555893422116313  2.7595935190349734 16.6720162943129608
 55.7241217031822984  2.8036749303796689 13.3258633000906741
 58.9243032612364814  4.2127452518767043 16.5008908064202551
 58.7057050579713504  4.2833412580719514 13.1561822715496159
 61.8901495260850467  5.6708277728015286 16.3594609650618104
 61.6999277824476096  5.7701458745669916 13.0159476684718705
 64.8533404384594974  7.1314079570582489 16.2618139606037317
 64.7069227399173457  7.2611765174671730 12.9186167887382464
 -21.8948856108972265 44.8133602786950931 17.1282954093278370
 -21.7707407464795359 44.6683304934803402 13.7757873718042170
 -18.9221634379046115 46.2728084264642234 17.1930363928784935
 11.2399728192254944 64.0030169258677404 17.2039203603365074
 47.0602530744909231  1.7437719621160572 13.8436993306619023
 47.2324833626131309  1.7203608544268747 17.1980542597722597
 44.1114347135497908  0.2880263527591973 13.9621053685578289
 -15.2602991742379537 57.6417790224257658 17.0119315593038962
 -15.0606486953961234 57.5535046424795240 13.6602302629369401
 -12.2740079582529731 59.0839038147055930 17.1523762401284401
 48.5860617370518852 21.5575359869263785 17.5287056382406767
 -9.2822629711539637 60.5232156015256635 17.2747894633791503
 -9.1430718147263992 60.4728116512367109 13.9184513514305372
 -18.0341350317635580 56.0856129017053178 13.5184415116003720
 -6.2879840806052583 61.9611083058694945 17.3686046373436191
 -3.2930596810125170 63.3994189039523164 17.4293858194453755
 -3.2425963417209380 63.3803921201160421 14.0700865071917711
 -0.2976783034927907 64.8372625346893301 17.4560664142793343
 -0.2926215822444895 64.8330122463915615 14.0966508458147537
 38.4713469512006370  0.6973067565405007 17.4493116691642918
 38.4311020938388594  0.7077163129125771 14.0898414911232628
 -6.1922083909943835 61.9268430126051825 14.0103111872730679
 -18.2411753778764272 56.1956316584440003 16.8679854422143194
 -21.0189069556588137 54.6080565371070676 13.3894927363911869
 -21.2170651378274542 54.7418247895648875 16.7363074144851289
 47.5075191556679712  8.3910124484511037 13.9235514413309112
 50.6593529616360740  9.7596960150863410 17.1622616757940420
 50.4709809557225384  9.8489523325714785 13.8083530167445563
 53.6377309105597391 11.2070708406521575 17.0390768577574825
 53.4445147206775530 11.3139639575305289 13.6872375825600905
 56.6101110545511617 12.6607913592493997 16.9262815755044862
 56.4275964468289359 12.7888135775605658 13.5765814242622849
 59.5787336270320367 14.1194711442603253 16.8379685893252216
 59.4204749082867707 14.2708707063754048 13.4895356866590408
 62.5453385093068661 15.5805805689247521 16.7863976257803529
 62.4213403413474808 15.7568134081811646 13.4380144812833979
 -27.1584075179009226 51.8186734199633960 16.5646957826360222
 -27.0187435089984689 51.6332755686477896 13.2195063849451664
 -24.1893033029869606 53.2820223284205596 16.6309839251866585
 -24.0138978190086867 53.1226642025535085 13.2856730739169659
 41.4664766640810285  2.1365177218892812 17.4080585823027363
 41.3802353330904182  2.1614358028172203 14.0496552692127210
 44.4606355680252534  3.5759216851061169 17.3326023669907201
 44.3293232737915304  3.6151261063342974 13.9757636866667845
 -15.2967770605692639 54.2367988587855194 13.7422536245242206
 -12.5001050990858840 55.7868390409603663 17.2193935055905847
 -12.3285089700584027 55.6971666863156756 13.8642626821109527
 -9.5073401997999323 57.2277539926714098 17.3285966177082607
 -9.3683538395065646 57.1527533556174205 13.9712797265606898
 -6.5109653138473949 58.6661861603166486 17.4111039647615442
 -6.4131684625161780 58.6046088959702018 14.0524148180639337
 -3.5145316588123783 60.1048280393923378 17.4611446754928394
 -0.5180405535835891 61.5430768954869549 17.4771181933605568
 -0.5094203839319652 61.5073587773014197 14.1175801090833630
  2.4779845212750868 62.9811308720496967 17.4590049309285362
  2.4409494291541125 62.9594249186201509 14.0996166268421739
  5.4733969336273969 64.4199273690912548 17.4063536144368349
  5.3898690765280266 64.4126757986666973 14.0478810377591685
 44.2412643774618672  0.2803660133111560 17.3189220558080166
 -15.4866968940245364 54.3433792336020787 17.0949608670382673
 44.5517438242726982  6.9367454855889799 14.0174700752742094
 -18.2751116957399553 52.7675554908075028 13.6205825030198966
 -21.2631190264746053 51.2884570104402542 13.5139964930493495
 47.4516908567307070  5.0168460084723714 17.2250172519547000
 47.2806163585460695  5.0709090107068686 13.8703294178760217
 50.4374078095140703  6.4601857245398175 17.0925216112090688
 50.2378356927708509  6.5309722567891653 13.7399883485404324
 53.4163585080640431  7.9054288946153566 16.9487908264999696
 53.2053632071930309  7.9954874160743978 13.5984900646153317
 56.3892843743636192  9.3555561632084849 16.8122426124544404
 56.1843217610049379  9.4689143163201006 13.4637305954912883
 59.3583293542467985 10.8123528468100343 16.6976406975869374
 59.1739597712560794 10.9509931379178891 13.3509295181567165
 62.3247321335664921 12.2728088562023778 16.6180316946184163
 62.1740713085251144 12.4385107133160506 13.2719242491146421
 -24.4134298894220585 49.9768937594837510 16.7819707475354498
 -24.2605589664930434 49.8027326119291516 13.4350871563125907
 -21.4420893750853381 51.4377206235943518 16.8620404662139336
 -18.4669836056238772 52.8943934090708510 16.9707529116619362
 45.5039522646348118 20.1323157072051906 14.2445308348906341
  9.8871568466668336  2.7784231615572410 12.8670397835483694
 42.5327880054321383 18.6864246386207284 14.3083557694463064
 20.0712482747117775 26.8848353814332413 17.4493352723777626
 20.1373252059737418 26.9237432503509666 14.0903112498143663
 23.0711453231799730 28.3506746417559157 17.5030959749316430
 23.1280604235553042 28.3453702504659653 14.1427400551250617
 26.0709479924399723 29.8157630789457535 17.5285346431859956
 26.1164456250298365 29.7673377184850700 14.1678229203039443
 17.1446129945622694 25.5025298489007568 14.0116870318593953
 29.0693559715937369 31.2787212424789089 17.5262669667075777
 32.0654180210614470 32.7397241003288073 17.4985720221858010
 32.0873122132831341 32.6181969268027103 14.1386473675626618
 35.0584279491018904 34.1992145237115324 17.4488833113184825
 35.0700545445505369 34.0508863397947508 14.0902292149892858
 38.0460741707871719 35.6562042345794268 17.3847366759978250
 38.0540888662171284 35.4909834465128355 14.0272256689656913
 29.1028736876452072 31.1910186984895041 14.1655987411988011
 17.0725277072030046 25.4188722953181667 17.3692924736086347
 47.2910263213798885 43.1844498282071427 13.7448152952597233
 47.1962199011545422 43.3507296096470895 17.0970014087961886
 23.3460274371768186 31.6189905939059663 14.1171132096981342
 26.3208980395824135 33.1232669121884129 17.4598697280162298
 26.3373183622395004 33.0415170399885341 14.1002822584641390
 29.3171971789586898 34.5869957161986008 17.4193168908248097
 29.3277283985903239 34.4662956036570591 14.0604232982350492
 32.3103182958106601 36.0492724524312393 17.3590386310771372
 32.3172024757209471 35.8955594994153131 14.0014728287777253
 35.2987118545879213 37.5101486637242516 17.2857096533242220
 35.3062471387154275 37.3312606917490299 13.9294415586610736
 38.2805533575052905 38.9689723740766283 17.2094354482167802
 38.2967666008389998 38.7753501715704019 13.8543310246038445
 41.2562212295766528 40.4276353011074789 17.1435133661942203
 41.2908559101347521 40.2325042370787003 13.7897611737044503
 44.2271333635900632 41.8881364153517950 17.1027789535548322
 44.2904057717644122 41.7038452705926730 13.7502720722709313
 41.0263895209002314 37.1126221429497321 17.3187544519533780
 23.3219417693051696 31.6572388702965384 17.4770828751711385
 41.0415095024119125 36.9418115016523032 13.9619204045620968
 44.0352768806857711 38.4067608093406818 13.9102428594044429
 37.8109042338849619 32.2092316289087321 14.1705792844312715
 40.7946624794616852 33.7955378699603770 17.4683490104240242
 40.7929583612227020 33.6549322108681039 14.1089308355622514
 43.7722057937007918 35.2529211979326504 17.4083067466107444
 43.7805771979915193 35.1137905271683692 14.0498967703255300
 46.7447488609002448 36.7117259076807443 17.3668611793853849
 37.8089353182539156 32.3409530531025808 17.5301430447461613
 46.7747950662092435 36.5844785417076253 14.0095726290580718
 49.7706697133149092 38.0632301076846460 13.9974966282256581
 10.6065105811703368 15.8933372283898553 16.7886736952973159
 10.7305865341679247 16.0805367482515464 13.4408729977831722
 13.5921504024924928 17.3531903702171668 16.9752543518207446
 13.7269759497613624 17.5146097649084709 13.6250093611283081
 16.5816218142576659 18.8137544985478087 17.1546463945997907
 49.7150078183898501 38.1720418690923395 17.3548998666903387
 34.8327943411261316 30.7722559137881966 14.2184040079271306
 34.8162808109143924 30.8854175580994728 17.5789377424066373
 31.8555629759259595 29.3421144593841667 14.2416648712244935
 46.9705759969456338 40.0319765685055486 17.2409031396746464
 47.0333277195299786 39.8825540503641065 13.8859707866851636
 13.8319303812768908 20.6523936646982911 17.1308994211871699
 13.9383555966231345 20.8001077543863033 13.7778477150029861
 16.8252576523394310 22.1153745733451252 17.2747526913491107
 16.9312804703797610 22.2251111842788447 13.9191443553457859
 19.8222612660284057 23.5797786653770380 17.3977748356307629
 19.9212661940968552 23.6481384651304118 14.0397494887251870
 22.8207970536788878 25.0438983785618490 17.4944297804246958
 22.9088468466266555 25.0707535602002736 14.1344732258991641
 25.8205319659715400 26.5070500064186092 17.5616094162803478
 25.8938468796698515 26.4931458856334778 14.2005531397644393
 28.8203918811871205 27.9688875563971884 17.5978753774013406
 28.8760979314793040 27.9163435628235987 14.2360667662044715
 31.8194138010167080 29.4281081106349340 17.6032718937107866
 44.0003380448112296 38.5715081944158271 17.2659298725846391
 20.3529496078789087 30.1981426403664059 14.1085546493577336
 20.3218493438321239 30.1903994029928455 17.4681760131688613
 44.5442514799991471 45.0061438591835596 13.5758850639592037
 33.2162421507973846 49.0476198569741797 13.2140674280487822
 36.2275424165728097 50.7238593891090659 16.4432652093307787
 36.2315839859252407 50.5101818009227088 13.0984303499557218
 39.1932228751439453 52.1880745128763337 16.3744910211406598
 39.2503695984764036 51.9851272679185783 13.0306202207912865
 42.1581720147739745 53.6544724931855725 16.3621279107653557
 33.2582424194926389 49.2613677992820058 16.5604390697427810
 42.2685747125030389 53.4711010230690107 13.0186019826745110
 26.9901652202570332 42.8737442104919921 13.7096872351402670
 30.0469401090608024 44.5004656746511742 16.9179435429066025
 29.9903226772023572 44.3064742051295326 13.5674459829672731
 33.0272672577398581 45.9630741903252016 16.7790264461541092
 32.9942896547257334 45.7469353070935938 13.4302786517990551
 36.0008093175819610 47.4247991738484487 16.6609770698171040
 27.0608123290259215 43.0362770332387328 17.0626901069761345
 30.2068629874351302 47.5985424592782920 13.3645456999578727
 30.2832702787907557 47.7996532576405428 16.7122997412225729
 39.4800973683348246 55.3179802332512054 12.8521498235518727
 36.8881039510172357 60.6158127737994121 15.9661747462019878
 36.8989180559539136 60.5279189393954198 12.6236211741996485
 33.7074219309947694 55.8541657216771625 16.1722909126631222
 33.6539216784203958 55.6942278753165212 12.8288941078678214
 36.6709074674641116 57.3189426576477317 16.0806964211782564
 36.6792930689716741 57.1746496446329644 12.7379719096757196
 39.6336313434701992 58.7852587497112964 16.0562475100158615
 39.7059401412653727 58.6649070878594685 12.7136042199141794
 30.5142686454518710 51.0957355161307518 16.5074073607274698
 30.4219302979187773 50.9034776959561341 13.1614573920506235
 33.4845320963107369 52.5577755176404438 16.3530165905319009
 33.4361605597825218 52.3633123160270415 13.0086309350623512
 36.4505853936494475 54.0218816683764516 16.2448251681534579
 36.4567403163612340 53.8350894474624369 12.9015035744584097
 39.4144249397293507 55.4873137521037236 16.1949430108639660
 36.0033424582151298 47.1994917344276175 13.3133853255914580
 38.9692671889439950 48.8873436877375909 16.5799206610415766
 39.0165873005112260 48.6661267597897051 13.2337269019454649
 41.9352905446117674 50.3524515972855866 16.5466316741653436
 23.5726126030379213 34.9631048494186984 17.4167155973001542
 23.5628039490211840 34.8932270323082179 14.0576482557092817
 26.5696860742139762 36.4292091143768673 17.3572732262877238
 26.5568391356580520 36.3165191946093415 13.9992553678318021
 29.5633135534370055 37.8937691434570141 17.2792160477276511
 29.5508365071036785 37.7429462463210470 13.9228664455650968
 32.5528880175005355 39.3566970020863920 17.1886032688293220
 32.5448783241762172 39.1748939239259713 13.8338549256655270
 35.5362673196945664 40.8182533697971053 17.0947227518492930
 35.5405019261520607 40.6142516021727502 13.7410575636953904
 38.5128302701701060 42.2785191622737742 17.0104715570888452
 38.5385134696781293 42.0640887278688851 13.6578356190128041
 41.4842519918841788 43.7394802352591228 16.9499410017464953
 41.5402099978401864 43.5284479431871318 13.5994943558433050
 44.4530646737464821 45.2023809822878562 16.9253750193065144
 20.5685866210607387 33.4720711293165962 14.0936628661610044
 16.7185068727368780 18.9434377093110839 13.8008924717012196
 20.5733014502332985 33.4961058551533455 17.4534113402515416
 44.6784568406845395 48.5129911212543306 16.7420282016163959
 42.0305264853702383 50.1455488691285609 13.2014515616496819
 23.8221289231835094 38.2678234222901850 17.3237667050364905
 23.7784374391383935 38.1687551982929776 13.9660855223904328
 26.8164348632424314 39.7336252763225204 17.2232480175915761
 26.7746401178353075 39.5933044745346621 13.8676597542656932
 29.8069229333534373 41.1984003309477558 17.1100822605898806
 29.7718866527628698 41.0222722377165567 13.7566281456824697
 32.7920946913922222 42.6615778505613719 16.9927231531678551
 32.7707260231768913 42.4577498052058715 13.6409778715825833
 35.7704349291017252 44.1233472868771415 16.8829502217760137
 35.7729681535623385 43.9021963865258087 13.5323722186276445
 38.7424409983404061 45.5846298406224975 16.7965292357493574
 38.7790018082603183 45.3597816359533681 13.4472338955897168
 41.7108499458585698 47.0476946868651282 16.7472411099852962
 41.7876214783315874 46.8319474750395273 13.3994621569538062
 44.7954595371829640 48.3154297841410738 13.3952514999975190
 19.5751031759193452 20.2756945531739063 17.3163868953942846
 19.7047945593162339 20.3697595937741482 13.9597308068049841
 22.5719693965192540 21.7373887306508919 17.4526952630416829
 19.0548003247043205 10.4881111346236686 13.6158291848149187
 21.8470453294631071 11.8278674582335448 17.1805756990320582
 22.0233194259216667 11.9288359812745384 13.8262236861280261
 24.8397579200091734 13.2771812325996184 17.3683259597174882
 24.9880478151509742 13.3650849783917405 14.0111810213938419
 27.8372121327977098 14.7253458511133459 17.5223912741651233
 18.8597454215820406 10.3774876523691191 16.9669367123865982
 27.9522671172987849 14.7984863659459602 14.1630887517591493
 30.9161566473596352 16.2309227139495853 14.2773174450522742
 33.8425671320548247 17.6214650054654776 17.7132487055857908
 33.8795706864518209 17.6624907199530057 14.3503725117122158
 36.8469679732327577 19.0704390444843241 17.7434384492757644
 36.8432622248828707 19.0946127446278702 14.3801995016373709
 39.8491083918677944 20.5202777674069736 17.7314804788655884
 30.8383791190901739 16.1730452110020408 17.6387254721867031
 16.0797023684572871  9.0419076191907006 13.3909158579154894
 15.8775335456086957  8.9253262657152543 16.7389051716571409
 13.0947282174027286  7.5882052576011940 13.1656123174033208
 46.0634552233099797 26.7454214981072340 17.5985675202620619
 46.0053284199215398 26.7079391700853499 14.2366189415104270
 49.0403259489117005 28.2027009834180724 17.5368618430271006
 48.9915804352502704 28.1741836712068014 14.1763325668504621
 52.0132205473975375 29.6608322426528197 17.4948221048244292
 51.9843322441518936 29.6485736284812589 14.1345824304518555
 54.9837817944827307 31.1218790414769479 17.4804878235647720
 54.9786969325102248 31.1293018780923418 14.1202800415804823
  3.9950674912154915  3.0951713895313593 15.9890775511887799
  4.0746385411696568  3.1663073495059066 12.6463022754648122
  6.9599876092214972  4.5568128680834477 16.1200837219510724
  7.0928604749082425  4.6506395336165394 12.7771323947482127
  9.9287293314124234  6.0160268841322653 16.2995600272571615
 10.0988314325766471  6.1246717235316579 12.9559560593814602
 12.9007348207565897  7.4719359911090804 16.5109739132703837
 39.8084756229606498 20.5295696798037710 14.3684020476719887
 42.8454863899053819 21.9712092876496037 17.6843673507635977
 42.7776012735267699 21.9703082307160251 14.3221125916331378
 45.8336537309745466 23.4235896284380907 17.6169671279622264
 21.6171085451372029  8.5315128671527170 17.0781833388326021
 21.8052623962852756  8.6187687384336851 13.7257067782873481
 24.6071042758574237  9.9774157395004472 17.2746812160443319
 24.7656900881218967 10.0623340718526268 13.9190130862189978
 27.6024620729772856 11.4221153975014111 17.4398942916472315
 27.7243271075477793 11.5024152787984804 14.0815009435620073
 30.6016099732033702 12.8664450500367273 17.5686632524851056
 30.6838434744520150 12.9404241436563776 14.2078729797489380
 33.6038801997516146 14.3112314765145801 17.6573785870073507
 33.6437547979292688 14.3768969082688010 14.2954294226058121
 36.6074708009873859 15.7569166673026313 17.7036454794929874
 36.6047183357561536 15.8118725941650933 14.3408066118316260
 39.6104221703306010 17.2038490337508385 17.7065731154453161
 39.5672391047243934 17.2474709233462455 14.3440040489772223
 42.6099311063747592 18.6529743824410872 17.6701059647928993
 18.8402933326753406  7.1700613342567712 13.5103901284785213
 43.0257613946947828 25.2535150964658541 14.3027258354100795
 18.6323163698318481  7.0835221920467841 16.8595372291502095
 15.6529540447459254  5.6331444869935394 16.6308045797693396
 45.7532702391684580 23.4200156808447240 14.2553518465464180
 48.8136795513249524 24.8793175019957324 17.5463782719397123
 48.7355939822094086 24.8812777004384138 14.1857372036885181
 51.7885172847744144 26.3371567522446135 17.4876759289660697
 51.7244918609833846 26.3519615625143331 14.1278300819037081
 54.7600034239037399 27.7965946535905104 17.4526930516129291
 54.7178232573580914 27.8300146411442384 14.0931057163644624
 -31.9938321222663120 65.3785589318536040 15.9475203194968032
 -31.9151433601424124 65.3831675070200475 12.6049728362447837
  6.7439277867416845  1.2636426612789424 16.0512464233375240
  6.8795104735309396  1.2955696256083540 12.7083921041267391
  9.7102634714818326  2.7237604367037775 16.2106966134238952
  7.9047505651273777 59.2143099737943643 14.0282582595249092
 12.6795486442203753  4.1806325383890108 16.4088364981109649
 12.8832081199602762  4.2518015919697518 13.0642012540983039
 15.8675855813148612  5.7151069418293341 13.2843408714200564
 45.6023318013339534 20.1040862084206644 17.6050616656042571
 43.0798495258759147 25.2912822226103096 17.6651290936421930
 40.0876361473426854 23.8390825897469014 17.7206914510261733
 10.3757634046624165 12.5995899045696333 16.6033007914547994
 10.5201679339905834 12.7772271452568855 13.2574443234892065
 13.3568741071806762 14.0570289428185120 16.8101515694780090
 13.5162107981957345 14.2197047843893198 13.4616720687665286
 16.3422547540488381 15.5148366905087052 17.0163961071864769
 16.5054605749856762 15.6548388766614313 13.6647290191264847
 49.5105321059509436 34.7644480243156053 14.0804361677552734
 19.3315293619119437 16.9731520113269312 17.2103843590991303
 22.3254627818301117 18.4317620268579923 17.3813858848785934
 22.4667042803205312 18.5133114687303681 14.0238274445698909
 25.3229264992098670 19.8891581804337640 17.5223783298708646
 25.4425389080256750 19.9390807603366440 14.1626084984105773
 28.3230954394923877 21.3452107339273134 17.6288928599009473
 28.4157196674340504 21.3648031117153607 14.2675771551835986
 19.4886016334566996 17.0857574565139920 13.8553119663599862
 49.4904973662846501 34.8488671128805834 17.4394304935570936
 46.5163880054702972 33.2896860784003366 14.1113860752048517
 46.5184824632863609 33.3904930633248469 17.4709143537364149
 22.6885322999201087 21.7937918715529904 14.0937065799489201
 25.5706396075414375 23.1979696140570510 17.5590856756148916
 25.6693933172463460 23.2175712160424155 14.1982473532721318
 28.5711632840786791 24.6574456875224151 17.6324058595319713
 28.6469299840155500 24.6414094329899029 14.2704147777494015
 31.5723940105561205 26.1147282927411233 17.6701675639535587
 31.6215677354041205 26.0665637087064681 14.3077493473677730
 34.5729347411119150 27.5694399733765927 17.6720978282167849
 34.5946654295501190 27.4950052912938290 14.3100738133908916
 37.5700544973005108 29.0237406298173610 17.6413956100472298
 37.5677985991242096 28.9294577635280454 14.2798240955227467
 40.5608089254093755 30.4774778447583969 17.5871817760968199
 40.5450216519353006 30.3712779245222535 14.2261759166338919
 43.5430444381324477 31.9326999794771602 17.5249165100002529
 43.5274824724412497 31.8240750655518312 14.1643216650894583
 31.3257596792884989 22.7998817203767210 17.6972686046315886
 31.3862933757706237 22.7906813604834326 14.3348001572884431
 34.3286529997160130 24.2524779266164927 17.7255167120606565
 34.3558270702824231 24.2186702527704405 14.3625577785438505
 16.2923206702097723 12.3556257133257006 13.5226658325890359
 19.0928411850934765 13.6736943250817866 17.0890821877519699
 19.2714618976252190 13.7930394594040386 13.7361239676515758
 22.0833550930452347 15.1281355495360454 17.2869146645366278
 22.2445115830329421 15.2261325145031581 13.9308557802823785
 25.0787498570215881 16.5814902317932997 17.4557209812682821
 25.2145872917635252 16.6561280729177632 14.0973749256576664
 28.0779385342813228 18.0336570007214725 17.5898101262580546
 28.1834468504703217 18.0846755738482514 14.2293589292264802
 31.0804572802641133 19.4850504980419750 17.6851559540194998
 31.1507878778645591 19.5129322114226369 14.3231766377434351
 34.0848080760347685 20.9360150121136073 17.7385377797452470
 34.1171251635394981 20.9418150775243248 14.3750749568491347
 37.0882402329688219 22.3870896396902559 17.7488482925730970
 37.0838565639850586 22.3734182926433967 14.3854873592783914
 16.1073021709040383 12.2188328913302531 16.8725831078779613
 40.0524544887682836 23.8098857925460194 14.3577728972085765
 13.3055972941261622 10.9115790745113461 13.3029059423917051
 10.3097848122525804  9.4581264778348562 13.0906811521725022
 37.3296656387503845 25.7053111858274690 17.7151332027583557
 37.3256078905150659 25.6510325953357921 14.3520460661529246
 40.3251064130988581 27.1585497167641918 17.6722393657025343
 40.2981139868622620 27.0900423683951423 14.3100530446657945
 43.3123000351303205 28.6119272002027998 17.6115917678595935
 43.2760339519490955 28.5376089861945594 14.2495411502301135
 46.2914644610387143 30.0680631958670510 17.5491845584535895
 46.2596331539861723 29.9977472432416938 14.1881123590965341
 49.2658439114145352 31.5258437949097612 17.5007315938375889
 49.2504062524635344 31.4682450718190907 14.1405953726996945
 52.2372015070594031 32.9853008444054439 17.4778487022219267
 52.2446435194639420 32.9463383284131908 14.1178907998664478
  7.1784261860023779  7.8499416452092889 16.2442323134896647
  7.3046172626448094  7.9947076951719147 12.9008557640553274
 10.1501941274939025  9.3079256765301270 16.4349211680947853
 13.1263819509530588 10.7637702671039062 16.6496990888392027
 11.0192135737088268 60.7068176986558186 17.2429907658135804
 -3.4607691455676695 60.0560989915942329 14.1017401305840995
 34.1426209726309011 62.4474015701149838 15.9480800170763413
 25.0227559520921758 54.7669792058132288 16.5598985680894337
 -6.3844101970543541 20.5475180438966909 13.6223978018096918
 21.8519249853258017 53.1818580423891660 13.4404214228897079
 22.0448254586899068 53.3097930751930988 16.7891728337432653
 -3.3555570099307102 21.8122660579100440 17.0230569852577531
 18.8722384846298787 51.7403121702316113 13.6644098524122697
 19.0611520253886013 51.8547502687633255 17.0165482827070988
 -3.3831454839160791 22.0182575241150751 13.6703579653616281
 15.8990351110898818 50.3041890133259315 13.8728154710316947
 16.0721972184784825 50.4013092348583385 17.2279530654845736
 -0.3808988351882261 23.2669823690911777 17.0985053053071461
 -0.3863300497035996 23.4750056098960798 13.7448354270505391
 12.9293494953158934 48.8719359881876514 14.0545739387296997
 13.0779841294569206 48.9492748639725122 17.4123486703492389
  9.9605893618150105 47.4421758543318930 14.2030546107496889
  2.6000238765120862 24.7216051303273474 17.1863720045964286
 10.0793638428261669 47.4993154444134760 17.5630123691693463
  2.6073470995055401 24.9193604138400424 13.8317590062146198
  6.9925697387490588 46.0139650641331812 14.3142942794462265
  7.0774700243019808 46.0505741425180659 17.6763272676530647
  4.0260939470506054 44.5863756066151495 14.3849472194573842
  5.5875040308918935 26.1782793616443108 17.2732346060945723
  4.0731297543241496 44.6027256413862361 17.7483936731339931
  5.5999929628842615 26.3546293565618441 13.9176880550176367
  1.0593865122772850 43.1574316923061971 14.4129462902698435
 24.8405147713787535 54.6316191321541851 13.2144946680417554
  1.0683346281914414 43.1561739861170892 17.7769504382238850
 -6.3254480608188830 20.3548248843777095 16.9734788672474011
 27.8396894725170796 56.0903675746311947 13.0023827530318759
  0.8169992723329489 39.8790001746273148 14.3930483180280486
  0.8227618445466991 39.8391611443305393 17.7566332693346602
 11.8055790858790299 32.4830376902492333 14.1367338818150685
 -2.1536384633121055 38.4440675070192768 14.3643492011739120
 -2.1764129968809192 38.3906563153221256 17.7275209419786961
 14.8241365118804307 33.8708847130083157 17.4926866837576647
 -5.1275717164278669 37.0018734359734012 14.3087940222644203
 14.7971397314331217 33.9048082470180390 14.1328877529557122
 -5.1699563219298303 36.9422545677435537 17.6716104481421894
 -8.1078351723211490 35.5492110259270149 14.2413279614225026
 -8.1550695949645693 35.4923629893606218 17.6036990254606920
 17.8247225633795416 35.3360168135709927 17.4621202338782560
 -11.0945089187360839 34.0842272090383815 14.1799588261086509
 17.7899828382619880 35.3254666893326856 14.1023244553651494
 -11.1328325644634933 34.0384581453837072 17.5409601092815457
 -14.0870425150995828 32.6097686142197745 14.1365447037218797
 -14.1063965565277929 32.5818715255356963 17.4966578317152432
 20.8244827663038841 36.8018275843062312 17.4050454209432104
 20.7838446119758729 36.7463297840834429 14.0459131917049529
 33.8704774161117967 59.0393930037455661 12.6899594561928932
 33.9263998081710270 59.1507079257551709 16.0326983108488044
 -9.2927809569082314 18.8935361593631441 16.9606366647518492
 30.8494319115229914 57.5597956725483400 12.8212855908120655
 30.9628018072390745 57.6871177667768436 16.1647217617294068
 -9.3871568950614570 19.0667530240500014 13.6098380619711623
 27.9950253007661125 56.2256086838523998 16.3461744034653620
  8.5792790234882972 27.6376827348450291 17.3500467088399226
 -1.9084629211856674 41.7237673202963464 14.4007733748273719
 -1.9340603474256042 41.7086831815391861 17.7646065814457721
 25.2483974631309920 58.0633922564250682 16.4257890132695650
 -0.6124687045003742 19.9602158321360577 16.8825199400068833
 22.0651311805707486 56.5001620066404158 13.3085469026999466
 22.2755004352977046 56.6069539674305133 16.6552583973499537
 -0.6228263361596560 20.1841827476310982 13.5317401632395455
 19.0884808200978213 55.0492882207673802 13.5404473675151724
 19.2963507944636063 55.1534743343792897 16.8898551969083677
  2.3636866812479447 21.4161476983255987 16.9791208188096547
  2.3778781967172589 21.6346787170556567 13.6278088759808558
 16.1191384802633912 53.6051077713105926 13.7612542612902455
 16.3112027852264916 53.7024917143458183 17.1141684940935974
 13.1543317170538305 52.1662373135209876 13.9593971795191578
  5.3461584853911406 22.8732102652449889 17.0868669268694582
 13.3201680677496075 52.2536495046576448 17.3155229318201478
  5.3763906986331600 23.0743238862844144 13.7348538395268456
 10.1908898598153588 50.7312078367767114 14.1262918071883288
 10.3239510901261848 50.8068883963988682 17.4850454053709967
  7.2271759567850262 49.2984303649155535 14.2567799180217083
  8.3345748615403146 24.3328108491406176 17.1944612334467877
  7.3233888830358200 49.3616657162234418 17.6178421750142142
  8.3736380279360301 24.5061263198284536 13.8404013012079563
  4.2638319816792958 47.8673446017506095 14.3475480715283403
  4.3194496494203261 47.9163841617468265 17.7103605456556004
 11.3271103888794347 25.7945754837950183 17.2923674296639547
  1.3002796829459644 46.4368122267155741 14.3953051161281476
 25.0528465876689346 57.9597498269746438 13.0818053396771212
 -3.6273736172071334 18.7198474619665731 13.4615869700704049
 28.2167348820143076 59.5218226174599252 16.2203021533146234
 28.0521749351584262 59.4291368918345455 12.8771079113830300
  8.5933996118071612 27.7837107578364169 13.9933870591669454
 -4.8791441042333927 40.2841865085081992 14.3558425048888942
 -4.9317286427424509 40.2608213631465333 17.7190185854896889
 11.5745552708707464 29.0997686062875900 17.4109939635948514
 -7.8548914994271808 38.8365068283241328 14.2898364519271723
 11.5871604260321384 29.2084844130124388 14.0527788580510116
 -7.9220765549992000 38.8126542926839164 17.6524166332691905
 -10.8376463136364318 37.3766454044001790 14.2202494683886460
 -10.9039580668288174 37.3605105807754470 17.5816662848420435
 14.5729361273232403 30.5643974953639379 17.4504259234910641
 -13.8267402585758550 35.9064257333859302 14.1615769571313024
 14.5800546180678658 30.6309930058994730 14.0912751755349408
 11.8242777488945183 32.4063267686559868 17.4964681540007767
 -13.8806054218122608 35.9050107953430668 17.5219009297966934
 -16.8530469927017705 34.4468699877444635 17.4848891003698164
 17.5731048310319409 32.0298340921585662 17.4649845306696605
 17.5739286337158056 32.0515647538543007 14.1049830327967864
 37.1170243772593196 63.8900016527247701 12.5689811425271625
 37.1040923567748706 63.9129134515398150 15.9115800580020661
 -6.5494520293836000 17.0432847571618851 16.7772341919236041
 34.0873558776302445 62.3963262388747566 12.6055396351051510
 24.2062475592971005 44.7281422770378398 13.7011823729158362
 -6.6340814066327098 17.2421053864345062 13.4288894309044533
 31.0634091152138261 60.9086953508164939 12.7123445025152346
 31.1809591456255966 60.9840076131043034 16.0554939803781487
 -3.5827290596900889 18.5035399083014660 16.8110462063127528
 -16.8210012904614779 34.4283031429985797 14.1247151583978994
  3.8251566822599830 41.2869566984501688 17.7499342515639711
  3.7867940272229585 41.3086231257220078 14.3864660165497895
  8.8154551921986766 31.0592065101177859 14.1155170887703783
 -5.6286509627894565 30.4309098084524123 14.1140031962517707
 -5.6394630171622948 30.3044888044903367 17.4739855772273458
  3.0842907031759923 31.3417754926116743 17.5193403723493120
  3.0735358571410991 31.4783271937760532 14.1596051679324013
 -8.6181324204939713 28.9666962341558225 14.0566970024628421
 -8.6153443518327624 28.8503611807177229 17.4155283027018442
 -11.6132123696643941 27.4916791865069072 14.0215952018063206
  6.0792497713836662 32.7964191434437566 17.5551110897838072
 -11.5862232870230706 27.3933682719988099 17.3798797346186866
  6.0557281470304778 32.9081138612512163 14.1942562913641037
 27.4157971402696319 49.4556811533228569 13.3446837475710254
 27.5379821136592362 49.6349488145086113 16.6922944813159617
 24.4180030365400391 48.0172570250874173 13.5394873157267757
  9.0765740802465569 34.2534403269115941 17.5652739672999765
 24.5547364230664407 48.1735086286312608 16.8895030332814677
  9.0396936962520886 34.3338802851080160 14.2039773195581347
 21.4261746156686321 46.5855238184909695 13.7300900277925564
 21.5669350643676978 46.7119866167631486 17.0830626366871812
 12.0758325457166773 35.7140141090994803 17.5472989394888543
 18.4389428388164660 45.1576459971657087 13.9058145006227161
 18.5748285146548042 45.2508814538445421 17.2618847733987693
 12.0259965164641365 35.7569781658149424 14.1865638617664906
 15.4551956333511047 43.7321034464726637 14.0587156481955482
 15.5791083809355335 43.7904737890838049 17.4176051832858292
 15.0760839689964321 37.1774981793616419 17.5004186789203118
  0.0918685290568171 30.0420636410099533 14.1043099733967843
 -2.6561312016566800 31.7548133519808324 17.5403436580635983
 -2.6455501446260357 31.8816368062333702 14.1801619229486224
  0.0928501136569696 29.8890965283879204 17.4629401679411131
 27.2036581309620935 46.1602114819841205 13.5322178828427013
 24.3141263067077524 44.8735789566950700 17.0539913176085669
 21.2129001572745644 43.3013890065704317 13.8599520222320276
 21.3220216982413540 43.4102945021029498 17.2152456654772514
 -11.8112768185332175 24.0706835885611312 17.2654220602378601
 18.2228222247318961 41.8770936892734866 13.9998318257962371
 -11.8729069761108033 24.1916286158834382 13.9091119934400620
 18.3262720493341575 41.9467323795885747 17.3573910180891566
 15.2343488212854865 40.4541876101042917 14.1148211765938125
 15.3279524955797140 40.4839464715774398 17.4744706380644566
 -8.8428855414161216 25.5300685452322078 17.2821521927189110
 -8.8752414660456136 25.6704305931781533 13.9258355826319224
 12.4742713242249597 42.3074011596993458 14.1827938163101432
 12.2487295137105132 39.0312208238430642 14.2016451129248775
 -5.8705381705979880 26.9861477945664987 17.3295327733911151
  9.2666832280635916 37.6083138106124650 14.2573033693882749
  9.3277621316202151 37.5641065893329724 17.6196536782041093
 -5.8805511504510637 27.1404432868149250 13.9721919215612633
  6.2875097684230115 36.1834666054373670 14.2806252355439760
  6.3280810738318856 36.1084458527748495 17.6429119790824060
 -2.8923867735484201 28.4384398419550983 17.3948892654648652
  3.3098753432474748 34.7552936630948963 14.2731068080865420
  3.3299167685336490 34.6555174396020576 17.6346338309856314
 -2.8920390947184789 28.5973420774805085 14.0368864212630768
  0.3327868028810337 33.3221360320367026 14.2374696244520234
  0.3345887262297902 33.2042538129476839 17.5982645937238615
 12.3282973199758956 39.0229718084490429 17.5629487254329355
  1.3137815844126235 46.4710718502375286 17.7590962667439669
 15.0152659272562570 37.1787052781757481 14.1403629673462596
  9.4965829481443436 40.8833616238357322 14.2742262335823966
 -3.1255321013157715 25.1239436360576711 17.2204511929795672
 27.6276393084827738 52.7653440358876367 13.1625726413464488
 27.7692707875772591 52.9303796317295436 16.5079262273011445
 -3.1379037631764541 25.3099290167237960 13.8649205788465952
 24.6289076885093792 51.3173991900970137 13.3718261029485692
 24.7914183387882687 51.4709402018397881 16.7193909175035280
 -0.1457562718290771 26.5766447491663769 17.2944658427572300
 21.6388449838739518 49.8776479190965034 13.5859896374003206
 21.8079952780633199 50.0118170257270691 16.9367606974493015
 -0.1479697286619480 26.7600480289970193 13.9381877316851632
 18.6552256468398951 48.4443561040285360 13.7908489147049238
 18.8203069455697580 48.5536901356338575 17.1451870373354041
  2.8406281155482196 28.0302318427643264 17.3683830554369969
  2.8392265278748758 28.2000633681818407 14.0110429948526498
 15.6771852434133816 47.0143108943178873 13.9758096476054483
 15.8277429473017097 47.0969038709643542 17.3330686450708988
 12.7020213826570370 45.5868367226639108 14.1322849894551528
  5.8320629239448358 29.4861159818462681 17.4308696570865926
 12.8307330375711448 45.6416179282185439 17.4917196349014148
  5.8264518643114265 29.6321681099370977 14.0722433166057801
  9.7282871450703698 44.1605636722734971 14.2550119042106900
  9.8306931467850642 44.1885229181615671 17.6161920690669014
  6.7569079065148108 42.7349358452047312 14.3406626053750728
  8.8268246947756985 30.9445832025852212 17.4747880772412643
  6.8283134844797395 42.7364198936349666 17.7033295398243098
 30.7405863925837508 54.3909096431290919 16.3198412271143347
 30.6360722147721880 54.2243760305379539 12.9757635972630858
 10.8547738160283647 60.6646378842501903 13.8883744246389984
 -6.1326988718710851 23.8463601961647029 13.8062368861261167
  9.5796168259569043 40.8761545278124032 17.6363343904663630
 18.0758373524360501 38.6418631062249176 17.4253826397458447
  6.5214848411492081 39.4586536439122000 14.3299144796698812
 18.0063255267484479 38.6003427791945555 14.0666199789650808
  6.5780058688318865 39.4218832703399968 17.6926680531119409
  3.5477001708176887 38.0319166613590838 14.3491903773560754
  3.5769517120708838 37.9708860113898652 17.7120647111666507
 21.0743082163236153 40.1066821222707972 17.3245269417631746
 20.9987196893131483 40.0222523898903759 13.9669292479491922
  0.5744786147628370 36.6008329200161739 14.3342939924152528
  0.5779733581605179 36.5212854433859704 17.6968185687013673
 24.0697065399467611 41.5714503557477286 17.2013694169469815
 12.5802931445091737 42.3324357172901173 17.5435403641797976
 -2.3993217520792709 35.1635955768003754 14.2902379372413204
 23.9929406348450236 41.4463878615048529 13.8458390513471414
 -5.3775336939798768 33.7177842284236036 14.2273533053697268
 -5.4059666620634630 33.6233916180829837 17.5890098804350004
 -9.0684550365910059 22.2109245670795481 17.1288133595645107
 -8.3623575175876041 32.2594474484971698 14.1629862729927503
 -8.3860873052012916 32.1712769341699385 17.5238741903743325
 -9.1320428404314207 22.3704871938530445 13.7750101648552494
 -11.3534108522169479 30.7894230858478331 14.1128110887425677
 -11.3603215290519355 30.7158739110047740 17.4726791054903892
 -6.0993039221290672 23.6693752644013031 17.1604920551580271
 -14.3481243296600507 29.3113853965435212 14.0875737911180643
 -14.3309208712958043 29.2575900482085274 17.4471896392122758
 -2.4174362329646297 35.0723998103052210 17.6522410691833507
 11.3700064821845359 25.9328077026760297 13.9364352551414896
 27.3015330191202708 46.3369103725392648 16.8823035773301235
 -1.6650519686100262 45.0040487593567633 14.4001941902349433
 64.2563946473591443  0.5571986568810999 12.7806893288826355
 64.4234185981099330  0.5360317144821819 16.1237384571185736
 10.8423083287002537 19.1907334664150930 16.9738815344761811
 25.4807152993824140 64.6498268699230465 12.9411416054701789
 25.6860483899061940 64.6548495986172185 16.2847601266900526
 10.9415151499845109 19.3714678731393199 13.6230521622232565
 22.4917833857130098 63.1718263839459766 13.1384466901974282
 22.7197876537254224 63.1991236223664856 16.4832230890325917
 -4.2450232975995883  8.5946605851552249 16.2203973565859876
 -4.3373357583071916  8.7544170764721763 12.8774018758832387
 19.5157416046979151 61.7041370580217858 13.3557397459915741
 19.7480064176454810 61.7472714311469701 16.7020148296464299
 16.5507373560486926 60.2443381410777405 13.5739295574359673
 -1.2823629714108824 10.0576814149143168 16.2398993218258774
 16.7696118038639490 60.2981747033457225 16.9227834337974201
 -1.3167679095726990 10.2424007602946734 12.8970685272791741
 13.5923300170552626 58.7912509288096103 13.7770810592524882
 13.7849079506304673 58.8523259260493887 17.1295010231702065
 10.6379402487284604 57.3429782044749956 13.9543084991852258
  1.6831245528442513 11.5184087464210485 16.3177518384920965
 10.7941552477845999 57.4094953791906661 17.3100431676750510
  1.7032424723338453 11.7202946351012880 12.9741348470032296
  7.6843260492682983 55.8976761149331693 14.0981739217164446
  7.9410631517258681 17.9369660030564972 13.4647908257667002
 67.3849881253177188  1.9986334926449791 16.0151996546616040
 67.2722798645140472  2.0492578000092680 12.6725247644823806
 -19.3751799241849234 39.6335850244531898 17.3745585336186856
 14.1507865699421647 24.0797672652616939 13.9102738151854446
  1.5382595346723067 49.7207552633920784 14.3456195685268089
  1.5572694450484588 49.7822225464088319 17.7087018661890312
 -4.0273648030232545 11.8951384351990548 16.3945859542942287
 -1.4239293819138792 48.2868691159962253 14.3657741972764690
 -4.1048059877958289 12.0898201569568347 13.0505049053669513
 -1.4481582997144653 48.3386284502926387 17.7290652141010341
 -4.3886711517201569 46.8503811921398921 14.3458153748079305
 -4.4514309287079223 46.8937340566149032 17.7082554683031361
 -1.0627748003030211 13.3567001584195335 16.4380454330466996
 -7.3569121148646390 45.4087174234298914 14.2922958526131971
  7.7983634566227646 55.9686599077283518 17.4568432064398635
 -1.0883519971433504 13.5701604002488327 13.0935768872978624
 -10.3312558552488252 43.9584875201332181 14.2167895673498492
 -10.4412135253333922 43.9999009410657607 17.5772124895760236
  1.9051201962402060 14.8154781133870230 16.5305692878453740
  1.9259452832112025 15.0387893870121889 13.1851866671745626
 -13.3129891421164839 42.4964346852281807 14.1366632259941074
 -13.4241763165140675 42.5478798565245526 17.4957342891867036
  4.8780180968240980 16.2730049449102125 16.6604811820626821
 -16.3010089254741786 41.0250506459966502 14.0665385468793218
 -16.4017320137270382 41.0922932392033076 17.4242493159176774
  4.9358080270439828 16.4941479095387749 13.3138835770855781
 -19.2945098440612064 39.5457875426218806 14.0171303915783962
 -7.4499102261296084 45.4475728136298045 17.6536799375860340
  4.5620309843423401 51.2253890796876590 17.6448455191402367
  4.6520917030397708 12.9773036481729562 16.4445474535861429
  4.7990550600035977 54.5284939448960344 17.5663548178979276
  7.5159039403498538 11.3249766682744646 13.0669233054969212
 67.4955395029615346  5.4062970322542672 12.7471473604321268
 67.5998736927468400  5.2960830713056550 16.0898192959016697
 -1.7143539836989947  3.4630086065661678 15.9720790599279727
 64.4787120078508451  3.9121544439837002 12.8217338353882049
 64.6382404715389498  3.8329809293429618 16.1647870520094656
 -1.7632575796878416  3.5440580206656986 12.6294093230710480
 61.4741496815366801  2.4231811416870266 12.9517255209172824
 61.6751609229237303  2.3729748389787453 16.2951827262216753
  1.2475334550644592  4.9274044639240957 15.9986427365279980
  1.2644293812899479  5.0359716635334744 12.6560489554452484
 58.4830464665211380  0.9390081142778359 13.1221671182815083
 58.7097444035124951  0.9162512730752020 16.4666370244684295
 19.7308595602764925 65.0427360002668848 13.3183210729611083
  4.2109090337262680  6.3889505631276515 16.0930453246456828
 19.9663579879132840 65.0425316772290785 16.6642570570363731
  4.2893290202511425  6.5204715897309287 12.7503649509687911
 16.7645048182397254 63.5769523794033447 13.5222262324183795
 16.9903394527222105 63.5942932709663182 16.8704732024494142
 13.8069495020685995 62.1181576658714789 13.7166535729436934
  1.0326053160513733  1.6313550310905445 15.9223242942458789
 14.0078742393310502 62.1490792658624827 17.0680766609244294
  1.0473432849366515  1.6756007856335624 12.5798691732977304
 -22.1208321018855862 41.4940993135677445 17.2498141424512248
 -22.0299248559298277 41.3645725635351624 13.8945442371730064
  7.4002431348818449 11.1422621312015107 16.4111551288878772
 -19.1494617785008820 42.9547792874099557 17.2920667914941966
  4.7185583124611732 13.1859581629443525 13.0998259044077319
  1.7722097047401368 53.0135220371439004 14.2752435487665075
  1.7966557979391049 53.0881855033176748 17.6373956902833662
  7.6262138161665414 14.4350601416779014 16.6068710729809261
 -1.1866376010327209 51.5757503955657342 14.3055333626689425
  7.7278588819015681 14.6390086922962475 13.2607090155207761
 -1.2072373260256353 51.6471080019264335 17.6678666663245174
 -4.1481966926328324 50.1379236044441470 14.2958699910610267
 -4.2110927563645983 50.2047339886971145 17.6576507449960687
 -1.4991002444337893  6.7599952573235109 16.0794601118847815
 -7.1132892624423141 48.6968811703021061 14.2499231270013382
  4.7293169328787519 54.4540338858749422 14.2056438419428819
 -1.5421043831461900  6.8997282643484299 12.7366535353864645
 -10.0831448816745120 47.2495572684988616 14.1761762132712050
 -10.2069068738879629 47.3143191962111516 17.5354939033245500
  1.4637546082677031  8.2224761715710954 16.1348452831413560
  1.4828314886959815  8.3858498700780775 12.7921411370364186
 -13.0602130582865357 45.7921039404670935 14.0887888615570098
 -13.1940747287993894 45.8653535235790599 17.4468446201924152
  4.4297285061042819  9.6829898573333129 16.2497743030428481
 -16.0442086213087123 44.3238024740902148 14.0048708049782569
 -16.1738636209371691 44.4119566122827294 17.3613752411443834
  4.5033608169678310  9.8609390535397452 12.9065264054740894
 -19.0345216179367540 42.8468890692852469 13.9366724329254748
 -7.2118671369270499 48.7604628181593966 17.6105920652421339
  4.4987887289167281 51.1552823721021142 14.2829599753082359
  7.8572392768153749 17.7309491653529427 16.8127411904279640
 70.1313405160756815  0.1659135886403936 15.9271370505078718
 13.5560227135904956 55.5541886381726613 17.2159494369703125
 13.3753668276368458 55.4728057133777028 13.8618407253385065
  8.1560465071062360 21.2248523170782271 13.6618166504491168
 -7.6869730435584396 42.1312714746493882 17.6687391418309971
 -6.8793807618902765 13.9274168257610924 13.2371399866736699
 17.3220913334558873 28.7240193357741020 17.4337602497953945
  2.1317954979884708 18.1142925927529923 16.7563132374476140
 16.5435102703704970 57.0009810321392862 17.0077105298852871
  8.0935473128440591 21.0304079695568191 17.0126436935368197
 -10.5829520769428580 40.6678251653044214 14.2321743062480959
 16.3361853082693713 56.9193337866472433 13.6571620937752982
 -3.8064918444174065 15.1981357498983893 16.5967736701089130
 17.3588323467161878 28.7776843832550711 14.0745448936322965
 -19.5552765163594096 36.2456395779548970 14.0782460421922551
 -10.6736194396287978 40.6816031026228799 17.5934472038106158
 25.4691149705568058 61.3591349630197698 16.3304588756392093
 -16.6281493625913122 37.7704914221511103 17.4659864988479328
 19.5250476709583047 58.4508857022795709 16.7805978989177902
 19.3026293549856831 58.3715434961648185 13.4334177726005208
 -13.5684614434560107 39.2014847170814633 14.1616605210803232
  2.1509669216724014 18.3426121205110633 13.4080911872649065
  5.1551104797782719 19.7885317175784934 13.5301869788662614
 -13.6529252018508540 39.2273455508794768 17.5216333474866772
 -16.5600721976771723 37.7267390515219319 14.1070050009379013
  5.1095560936977469 19.5715335559557531 16.8793410679882676
 22.5000570759063585 59.9037067938586816 16.5489131104174660
 22.2778198495754438 59.8311735526027917 13.2036299765213485
 -6.7711948086750597 13.7355716954538014 16.5830606169920820
 25.2656994370696104 61.3002733966210940 12.9865627942109079
 28.2656419681145223 62.7792632782605153 12.8000186298244039
 28.4342679222313635 62.8181153932590846 16.1430005373785370
 -7.6044185395731478 42.1225973046706912 14.3066318139700304
 -4.6327560857875776 43.5665063886699286 14.3675744843983271
 11.1545943552372506 22.6545278591002415 13.7913950194820600
 -19.5996306301777885 36.3100677083808066 17.4371462280474532
 10.5627219535532735 54.1101388162243850 17.3953524429205224
 70.0786926819715319  0.1814519625683669 12.5844578090698160
 -0.8397389995188032 16.6571800959847458 16.6572949359391096
 31.3967171862312782 64.2804368311792587 16.0033430197209832
 14.3647509420949326 27.3562929470251852 14.0162349378143727
 14.3233972464233830 27.2584274211357176 17.3741466420677568
 -3.8682638646392138 15.4111851197093301 13.2503166576728848
 -4.6918550833070078 43.5784056599599054 17.7305735678714385
 31.2793273989138108 64.2670353193522175 12.6605627314406757
 11.0827551391294588 22.4914133129923535 17.1446867396219282
 10.4170028331302742 54.0309248181927870 14.0378684582915501
 14.0760393530386434 23.9542994629411794 17.2661611333383291
 -0.8569563754983759 16.8836513942636621 13.3100570228729893
  7.5642725628847485 52.6676278846464569 17.5393351388680934
 -1.6910454380030813 45.0253111265544703 17.7639957083588946
  7.4585658098890519 52.5917945810734295 14.1794287837250170
 28.4780863112302534 36.2400161326190400 15.6748626069380439
 20.1890714615375195 41.7778003630707744 15.6219567441416824
 36.4927179067300855 27.3963176581552474 16.0047218333534893
 21.5525583998607644 20.1874674325054464 15.7077068300158125
 34.2254354947415891 35.8404979554885301 15.6891129611313040
 -1.6912250470419974 18.4870305711741238 15.1035316409238014
 41.3677507569167346 55.2830169252619399 14.5682841564464152
  1.5283888403260275 23.2402101112925656 15.4112473148202973
  3.6137017567724699 11.4924094442766389 14.6514443157617702
 33.5062832238550286 25.9533345784706668 16.0177198844212896
 11.2089979560090462 37.4502095943015547 15.9013689044282280
 31.2352689620891937 34.3934458924138085 15.7496498945967858
 27.5306333758985886 23.0715299693883793 15.9331512051970812
 17.1950828626411507 40.3345863265569946 15.7423158946875521
 38.3742140799312068 53.8059520443895920 14.5842793585832311
 25.4833204768836552 34.7953290956763865 15.7338337698995403
  0.6211516832620961 10.0265290247642831 14.5435307561556684
 32.3865063466154055 50.8708670846921152 14.7890363826159454
 30.5188891551555592 24.5124569854173622 15.9941831949697697
 -1.4576787701612868 21.7878020285173299 15.3236247157061776
 14.2013602335962705 38.8920889812334423 15.8362894663794567
 24.5416939568919297 21.6297639652376255 15.8364115612339873
 -4.6783687834960794 17.0227668513657591 15.0479088297977004
 28.2431398402348321 32.9487186186710090 15.7918742304673980
 -2.3713953186524779  8.5535776880779277 14.4917255164081009
 35.3799164087617797 52.3349174864257307 14.6608192512435220
 39.4773966264166418 28.8428881575876126 15.9609781152286860
 33.9870014490954020 32.5453312517060951 15.8348162536456432
 29.3939442769846693 49.4141476428842950 14.9552693076277681
 16.2600956799591785 27.1734745337698129 15.7148595399403899
 12.3649176377407581 12.5554029777765361 15.0067640415694754
 16.4926264135985612 30.4636473742553129 15.7722363055645634
 38.8175525736891203 60.4496017560933154 14.3056491671610324
 -6.7079658308105072 28.7821161436732957 15.7302315388940688
  3.3956999687286653  8.1783073899889693 14.4701523113884427
 15.3513404960273316 14.0039020821251068 15.2207721600908812
 37.4503310420873703 40.5876496572993517 15.4273136418726207
 46.4103694504563862 44.9861903740461031 15.3099860242390005
  7.5078709145591151 26.1327655244846220 15.5960364120038388
 35.8215750340916088 58.9704850871068160 14.3344369208632383
 -9.6907451604742967 27.3200824514894691 15.6818500417799473
 10.5013327298290573 27.5766075268705606 15.6742660716209290
  0.1850772754694475  3.3804676386496708 14.2712140706953932
 21.3210245091997024 16.8933642517979763 15.6173714104497279
 32.8268007891061515 57.4966787376571347 14.4333847770341048
 40.4371687547324896 42.0466621719016302 15.3565700198090482
 -12.6731187749952916 25.8516956842275754 15.6626592879395599
 24.3062690596344133 18.3355511041979220 15.7790768156215861
 43.4241101722619547 43.5136761678729513 15.3145577017992487
 18.3366031616337608 15.4495614352863662 15.4279985945921574
 -3.7260002344527687 30.2360122527047537 15.7954143026182727
  9.3770123393547600 11.1026833628147745 14.7994612465851745
 29.6160040807805771 52.7174080435757659 14.7604877041755902
 25.2490891310340118 31.5047702512468248 15.8115707428369632
 42.4611059036195115 30.2940042695936036 15.9000130173970895
  6.6046959737203075 12.9519658511105700 14.8037386467674690
 38.5974120082368302 57.1247996172296979 14.4205062661749359
  5.2296790132713342 34.5681141086486292 15.9373351657286850
 45.4435139329501396 31.7526718324818908 15.8388246481257440
 -4.4431124522492649 20.3287077068014099 15.2574842062918279
 -7.6648313643479744 15.5505368248074429 15.0355203218351932
 22.2533023280219382 30.0609503099717905 15.8054275590724682
 35.6019800156018249 55.6490468222603454 14.4766418304582860
 48.4262966701255024 33.2173025370936017 15.7931181477677463
  4.5166969134111534 24.6879023549579877 15.5059964546061426
  2.2427046943487672 33.1265073672202348 15.9112836292666344
 -2.5915536217261317  5.2298617970760226 14.3560089499283468
 51.4095504309024633 34.6865380305711497 15.7740007421528645
 32.6079520850582512 54.1800432178643234 14.5945434829452179
 -0.7424282717256171 31.6829423841098539 15.8609687245655326
 19.2564558428179637 28.6171481332832798 15.7727311086731969
  6.3877116299001546  9.6436366877061044 14.6152034053214699
 34.4618317528724205 39.1351952143958144 15.5127492088887244
  0.4021013714748818  6.7067593749554195 14.3799735810181328
  8.2184509205970588 36.0089005130742521 15.9347608365782154
 31.4710632324160571 37.6861806264779133 15.5988878483861093
  3.8340371027822306 14.7988732985357068 14.8627446044319331
 18.5638512571732512 18.7439294323303471 15.5503643420373034
 10.2698807602046767 24.2860427132751902 15.5332771437848951
  9.8166452388247301 17.7014815094412299 15.1794003322865603
 19.9567270321976302 38.4871040935528796 15.7076731171835124
 12.8085919394719667 19.1477032391683757 15.3485680872213379
 22.0194478511763982 26.7705926187446899 15.8053852933992491
 37.9181162741096927 47.1875072333167225 14.9969775317337444
 34.6957871364051300 42.4301020294855888 15.3115710413647523
 16.9605302494930577 37.0438618949493232 15.7855493828258417
 15.8009325743706590 20.5922776105797958 15.5092897404157330
  4.0574639481835648 18.0987331452207272 15.0857966868398812
  7.7421582899598214 29.4243554136175760 15.7425530129196947
 18.7932390385639003 22.0361596200115777 15.6529014844368284
 34.9269026828461762 45.7269198609715346 15.0934311006241941
 13.9650384258545106 35.6009562109517361 15.8368176412294925
 19.0243491068614397 25.3269851809847388 15.7282377762579895
  7.0487585792024987 19.5481038859921981 15.2232732775929946
 21.7857324326114679 23.4795760419777153 15.7719001454132179
  7.2765643333519394 22.8410089344345977 15.4209341636223645
 31.9348305750898902 44.2728135858879313 15.2174588229566634
 10.9709929019862393 34.1584697186751924 15.8602161156528467
 13.4963690247160155 29.0201991617929878 15.7348034900458966
 40.9087940470617966 48.6562706957211120 14.9425320637180850
 37.6854032358707300 43.8861170847225210 15.2169201348263599
  1.0677301574349689 16.6438036843228900 14.9667850213565359
  4.7518608558211746 27.9809309591332713 15.6821715469034668
 25.7160471123602754 38.0855442660182106 15.6235650294699298
 -1.2215623730132570 25.0867060731850096 15.5286548997803475
 13.2647378482409692 25.7298793983419145 15.6335444943985138
 -4.9101536318186234 13.7123162843313455 14.8420641232501858
 36.9740243681142005 33.9924401716099567 15.7806752166883495
 30.9978146492432565 31.1004373124550781 15.8676604631639453
 -4.2055358006772492 23.6320796678098439 15.4578775723036514
 22.7202077433270020 36.6408867260550579 15.7039279663719835
 39.9593994397756518 35.4432397877685830 15.7155864216393155
  1.7639103669482807 26.5355070599165224 15.6079102812951778
 28.7111779455499168 39.5313120171955390 15.5266365979828507
 42.9433637679484193 36.9019126852820563 15.6543392057657638
 19.7233779416837898 35.1968911090344179 15.7625144693677761
 -7.1899652994236307 22.1695070784384143 15.4100194861758162
 -1.9217549960161253 15.1820029366980265 14.8814830158109803
 28.0066028630103894 29.6571027476974898 15.8749609070301805
 45.9274151045824439 38.3675634608456662 15.6138131875550759
 43.8983167439226918 50.1316412844595192 14.9365478340624573
 -10.1736317332533499 20.6997194077938467 15.3964122026000769
 31.7043646535570609 40.9790900189013385 15.4195479811174980
 48.9116268058114159 39.8377754945247347 15.6045521390217239
 25.0136538700610238 28.2138303333637417 15.8547189577413885
 26.1760270986885395 44.6681751879632571 15.3211986575490755
 24.7777154215297806 24.9222612215849750 15.8626007173720946
 28.9414216682474219 42.8232610385485302 15.3518285532767180
 45.6853457510894643 35.0596324368713113 15.7383230661111035
 43.1839984586883645 40.2071748110903471 15.4932826431439370
 -3.9663967038854944 26.9343406440321509 15.6394636169326677
  0.8430169618742656 13.3386075814413285 14.7447864916336044
 35.1549369558944846 49.0277328562648833 14.8713097289632330
  1.2962603840668350 19.9435872252586073 15.1938519649766715
 48.6689757855369507 36.5271492045328259 15.7097437032069553
 19.4896720828399772 31.9069265145251144 15.7843300378064715
 -6.9494032998479529 25.4763803253627934 15.5805505394853494
 32.1621198020994470 47.5692369843426022 15.0022983252541362
  9.5950844120629863 14.4049481639735628 14.9850255545786180
 40.1989102680850436 38.7445463026157171 15.5475620634225979
 -7.4285908067142543 18.8610442271697423 15.2253405162300481
 12.5853269529657936 15.8537139131086793 15.1789303606194057
 -9.9327153983905454 24.0104606072119289 15.5477595885865156
 29.1690325810021100 46.1168403866598311 15.1578016900643195
 15.5750970646696096 17.2995921479113548 15.3709003331363618
  6.8248376464706082 16.2525140320037522 15.0128481084856880
 37.2130922318082327 37.2899629819110956 15.6177923207451990
 23.1826876171433689 43.2222017219034242 15.4792627880551272
 22.4869246694433222 33.3509597637389490 15.7713175970164379
 16.7264100596917658 33.7537646288746700 15.7959571798038549
 10.7350509721588541 30.8672857635796518 15.7840929929658884
 38.1477464881979103 50.4935173970929654 14.7814132040478512
 42.7023511690014459 33.5974252460123068 15.7915042021733179
 27.7690244430243567 26.3649528454523008 15.9224190939187356
  7.9793392544192585 32.7163223804170542 15.8563108428983490
 10.0416347583193328 20.9945709814568886 15.3659323591505590
 16.0294117501580189 23.8832648897036286 15.6259500141139860
 30.7589799201292031 27.8069965244355082 15.9499441204671744
 25.9472184003043616 41.3761837700044879 15.4842923234040626
  4.9897086964398509 31.2743223098218337 15.8273515986954258
 33.7472962709009465 29.2495084219359498 15.9454589580274373
 40.6740516296252963 45.3501005712337886 15.1512908643356177
 -5.1382268466054732 10.3967160026814351 14.6548004850595674
 13.0350945391163719 22.4392812701631783 15.5029766350908655
 22.9522318130144001 39.9311452160774110 15.6054648535885612
 13.7297718731008960 32.3105545646832937 15.8029802640025956
 36.7337716658431503 30.6944586463385996 15.9109549009912481
  2.0022128007707285 29.8308125432623008 15.7764642947411282
  4.2851338086719757 21.3942267821693939 15.3041435031071185
 46.1693511538031345 41.6763881743475721 15.4693780567242349
 39.7187623731248962 32.1428334832887046 15.8547660137753610
 41.1399649786013484 51.9668675176583150 14.7433772205133131
 -2.1481329500459023 11.8713013473279787 14.6724971291428119
 -0.9831558425085231 28.3848069152620219 15.7098544647316398
 43.6624315367106348 46.8216289242875590 15.1254901362040428
 10.0926695424726240 62.4085725157280535 15.5855795944818176
 -15.1705674629243443 31.0053647442723808 15.7970761186040285
 26.4020796019102484 47.9629194901618590 15.1419905989354326
 21.5415034629104447 61.5910257530824126 14.8966256931032852
 -7.0843934121015248 63.6661287847641262 15.6475978604622945
 24.5177619182301285 63.0546597592984241 14.6812373263179481
 -10.0560017922004974 62.2197626526881749 15.5355230940432101
 -13.0280874247763112 60.7708674444156784 15.3957760028890966
 27.4986698344133167 64.5250449035510485 14.4959365342647413
 -16.0015700930065137 59.3179768596793480 15.2398904861768916
 -4.1130126718584279 65.1120638194737893 15.7271531126085318
 66.2590533476223129  0.4220277026172402 14.3565063783310887
 -21.9580207568929318 56.3942367044356914 14.9431984007011316
 69.2510992376142980  1.9012768430608409 14.2786541650328065
 -24.9423765855078194 54.9211953562953710 14.8313351239341902
 -20.4085985728926893 37.9983576822031708 15.7116057156991609
 -27.9303351688348265 53.4442608583466736 14.7610334608099301
 61.6473561144495505 17.3881306003215919 15.2330061119048370
 -17.4257924205567818 39.4689564346586863 15.7448930436560168
 -18.9778930572026354 57.8600799000289996 15.0836473255175516
 58.6643184007199139 15.9152212006578733 15.2807171590687041
 34.6331041345613002  0.9790039724138228 15.7727278053072784
 37.6059789172082617  2.4245444957395503 15.7848230193473835
 -2.2715859853771478 50.0316118819798135 16.0132603440495451
 -25.1745828706004957 51.6080470470427954 14.9790753953132185
  0.7112424034882655 51.4706460956453853 15.9990491860463546
 61.4107577964644591 14.0756599507117492 15.0678447561958802
 58.4280830078575164 12.6019669371960941 15.1419298135177609
  3.6926034330791695 52.9099314901105515 15.9429844924431929
 55.4486722732730826 11.1330993326561742 15.2480297816807049
 18.5682374398611891 60.1340088017655034 15.1235272544074064
  6.6722805638768508 54.3500396917233459 15.8468259441154835
 49.4976563794714437  8.2164891387090737 15.5022222033943784
  9.6491085459620578 55.7914218398517150 15.7129091964872565
 46.5246547829876889  6.7653928729337931 15.6177138754674889
 12.6234803621160872 57.2350583059321139 15.5432486416922764
 43.5516951096108329  5.3172634487666341 15.7065867057184292
 40.5789702829605972  3.8709063431593576 15.7628271042486503
 15.5959933209284767 58.6822194979208547 15.3435417046461229
 52.4720975941797860  9.6713994903362543 15.3730686245302124
 -22.1893803704774406 53.0817344181576161 15.0644813773128412
 -14.4425832087335539 40.9344626897118147 15.8049554381157815
 52.7053671788898512 12.9809391330620745 15.4663553818387420
 12.3972319384100320 53.9300568339985560 15.6344410381242174
 -21.7319951296481939 59.7090360046620034 14.8524926159127109
 15.3731230642034795 55.3741886864269546 15.4367910563492234
 -24.7146842295583689 58.2375593345023006 14.7133935824900846
 -27.7018855995528597 56.7614750928485563 14.6138982635362744
 18.3479358448917971 56.8224954282267873 15.2153153719936363
 58.9037646061050637 19.2276159794675152 15.4201795823743772
 -18.7541128498936800 61.1730848678418653 15.0181736120268585
 21.3235160546557765 58.2757481804399831 14.9815847643198996
 52.9426439174032311 16.2902902624170700 15.5625581716547252
 24.3009723264313493 59.7349925198626366 14.7515249899119532
 49.9637949987806564 14.8308955689367163 15.6587815198154896
 27.2824855521867455 61.2006061568373312 14.5444292641896329
 46.9847183483960791 13.3780215133994798 15.7534879135790913
 44.0058075797969082 11.9295983043253386 15.8291865690165885
 30.2688226535992939 62.6722331059881199 14.3767750007107153
 55.9222026055169721 17.7569178300140464 15.4785885883716858
 55.6837153344989773 14.4451482097447457 15.3626782403219337
 -15.7799402127108497 62.6301395327611630 15.1966823142838034
 -12.8079543143384100 64.0825423828785858 15.3711920000116198
 -11.4607489510839269 42.3942151254422157 15.8809361476621813
 49.7282781938014011 11.5242670494533055 15.5779237026562090
 -8.4788479190480519 43.8459828268519516 15.9605454686341570
 46.7517520963937159 10.0729126396858497 15.6814019306064250
 43.7757832641296574  8.6249687875529926 15.7610881747981431
 -5.4958297504170064 45.2915804490910361 16.0263065886902680
 40.8004230704582369  7.1794461424808880 15.8088920006221958
  9.4192036385808748 52.4889624374235240 15.7999080722863319
 -2.5121528780142737 46.7335466476894652 16.0629678137739518
 34.8517855870388402  4.2891385938886177 15.8000546331943337
  0.4720438718090916 48.1727369785280501 16.0614123614668571
 31.8789967232058693  2.8441113781829008 15.7432523611651067
  3.4559155859427748 49.6110209505572328 16.0165445542206761
 28.9074610268078018  1.3986305948809565 15.6516233360385417
 -9.8371286438391348 65.5309567691879096 15.5260746156478753
  6.4384650785562147 51.0495114605893789 15.9282887770701223
 37.8256649152747144  5.7340698401211911 15.8220550915005305
 41.0269695258760478 10.4847087550978770 15.8735558092112221
 -19.2077491313009645 54.5498559018758300 15.1806060642681242
 -16.2293897545075545 56.0091884687254407 15.3147805912000141
 -19.9234211363120437 44.6207040585761590 15.5282346482277518
 60.9501702910968035  7.4430184922767451 14.7874222868081020
 -16.9411114657554975 46.0876461258574466 15.6032550976059508
 57.9703465029013643  5.9707979491306764 14.9203923004466272
 54.9953160310801792  4.5046911003767214 15.0805175044945425
 -13.9603252312133232 47.5479143791318819 15.6947578843549049
 52.0233706715266493  3.0460538538415758 15.2531159257028879
 63.9346790654334782  8.9192347314544627 14.6946356680335644
 -10.9795377263952449 49.0005659950953216 15.7896838328769569
 46.0842082970286810  0.1422852253730875 15.5641859313780824
 -7.9980803527176390 50.4473870274624900 15.8712361682994700
  7.3401525623959092 64.2735160541126334 15.6777984580636058
 -5.0163857775490373 51.8901449435752866 15.9252422534040416
  4.3684672855004694 62.8278506884348147 15.7569280378215559
  1.3953911268628143 61.3825851142993031 15.8012991352164516
 -2.0347735737028052 53.3306799638130968 15.9436893011170024
 49.0536371289499868  1.5924524670179285 15.4194559197002370
 -1.5789234444472990 59.9383073051964459 15.8115010339828324
 -22.6653122861804981 46.4599090451842685 15.3446198368661495
 -19.6818060433790123 47.9307084644581636 15.4147803405113386
 13.0623408785472499 63.8568345357773097 15.4277410951210019
  7.1214594603545551 60.9628197041503199 15.7104425402404111
 16.0318854079390718 65.3090838537502236 15.2452982112979125
  4.1483413760821026 59.5182307428289690 15.7994488177595951
  1.1731028221304967 58.0746900594730633 15.8529356810413180
 54.7763617764781330  1.1877845858810039 15.0517442196076203
 -1.8035806330733988 56.6325190254241519 15.8707589009292196
 -22.9068748335291730 43.1489041177773274 15.4811532027077750
 57.7498392545002162  2.6516135569508505 14.8644909318488807
 -7.7617670654941655 53.7480201590636781 15.8002586122284132
 60.7273815505078360  4.1219677048463534 14.7011591312760483
 -10.7414693936132686 52.3024827569700079 15.7175869353926672
 63.7103540275926008  5.5972551421809493 14.5755717632270532
 -13.7212060163894769 50.8522523769079484 15.6151959155418112
 -16.7006697713152406 49.3955586802443634 15.5091408783439331
 66.6982355905280428  7.0756968517242811 14.5026715520251415
 -4.7820555486263014 55.1904181846533390 15.8529147884131891
 -5.2548340149726886 48.5910245596150219 15.9874078441713969
  0.9453171809443039 54.7707477290095852 15.9234809221453144
 -7.5303468716270183 57.0503415683234039 15.7297541664654759
 63.4898994434164408  2.2725656093797508 14.5069479359175855
 46.3027881218644239  3.4546101779219969 15.5759989918389916
 66.4772905158436913  3.7501535221210913 14.3999140055550594
 43.3319111726409076  2.0067538346265135 15.6768436032320153
 40.3602887804655666  0.5603109327138359 15.7441618103677179
 -20.1661290058541560 41.3099916637690825 15.6286749006676331
  1.6141727811670596 64.6925545809158962 15.7772530223102869
 49.2733259401684620  4.9057665198646392 15.4460629841844295
 -17.1831117117114793 42.7786858402640036 15.6835699232431267
 -4.3317371377169867 61.8020387112994740 15.7428314043283262
 -14.2010044091502490 44.2419680479577622 15.7597537996903512
 -7.3048173171068660 60.3565093156209329 15.6754222570928086
 -11.2197375667728991 45.6981218921037282 15.8462253772200334
 -10.2787284038658271 58.9106872312791836 15.5762465915880455
 -13.2531817934336722 57.4618722805038047 15.4519396627852039
 -8.2375866482878379 47.1470429012013028 15.9278743187569489
 -1.3588946020917489 63.2471462598287530 15.7767716769827135
 -4.5539126498203402 58.4941854515028226 15.7873962341974732
 52.2446904085836294  6.3600124654280261 15.2978964969098374
 55.2188466126885089  7.8200255187742034 15.1488518502451228
  3.9236246602592200 56.2118442305399171 15.8651146370477125
 -10.5073459079222928 55.6053345155857457 15.6412755465544961
  6.8996010793060281 57.6544647394427443 15.7697904729728524
 -13.4847033614594558 54.1562750246390365 15.5298273184675342
 -16.4630512026864473 52.7023851966088586 15.4091956825548024
  9.8729949105381873 59.0982226842208576 15.6378013563981195
 -19.4429056361974091 51.2403335534700943 15.2955395532525245
 60.5084396875665860  0.7989981413281823 14.6638378026482670
 12.8445191701193888 60.5444201405871496 15.4710468173909028
 -25.4110020527520213 48.2964644583978497 15.1430583985839977
 15.8148698879315237 61.9944026924651368 15.2766537301292384
 64.1630997851037392 12.2369022149667082 14.8533640779555594
 18.7855785340534069 63.4492277131014930 15.0663521352264898
 61.1780962904688366 10.7608368582355620 14.9140860855851383
 58.1962389010225039  9.2875955405916386 15.0167319709269176
 21.7583807362216746 64.9097559756107785 14.8558344657498402
 -22.4255969347523880 49.7704719245135010 15.2024412917265561
 27.2923350180919897 19.7764997258396171 15.9075577090388123
 33.2603067433600543 64.1493453876440185 14.2661598190995598
 35.0733942254722848  7.5973232132162050 15.8534893209175731
 20.8670476075395612 10.2949416058357652 15.3982134117134404
  2.7281133312930841 39.7196655834795251 16.0683901643048230
 17.8901913414890821  8.8475118854697143 15.1760793332130550
 14.9119164891297302  7.3959191101006985 14.9450997818991045
  5.7145647485514566 41.1579357887753474 16.0437099645723684
 11.9310339823267810  5.9390450056515043 14.7216158553214242
  8.7016096487962997 42.5968465493167656 15.9795898998252639
 -0.2571121046364039 38.2797787864488086 16.0558828756857892
  8.9465661230118609  4.4752452646938741 14.5224733078963464
 11.6890562545362044 44.0366180196174639 15.8769603969147219
  2.9646143439249162  1.5295743680024168 14.2595324459490289
 14.6765080997716755 45.4774048472261114 15.7396642164605769
 53.9075975927117810 29.5342599310694141 15.7984198491933654
 50.9247056410478294 28.0651593224542317 15.8293395748595458
 17.6631372689212860 46.9199682971332592 15.5707833699159082
 47.9422695106566010 26.6004536802357094 15.8848544906860862
  5.9577652927348765  3.0050230308839558 14.3623927235086182
 20.6495171512895404 48.3641040330714205 15.3776221292040987
 23.8440010372239080 11.7391568555826638 15.5993598472803807
 -3.2412638088876822 36.8367718197780221 16.0116253703661258
 23.8608969609643573 53.1123933111728732 15.0090452183587661
 56.6479155026663577 27.6931250052657916 15.7474023456326986
 26.8470098035845908 54.5672275197976901 14.7879901352901015
 53.6652829385366630 26.2226275297367977 15.7703616911784081
 50.6828414259506985 24.7554241743796730 15.8207203084466741
 29.8354330713467135 56.0288259724427675 14.5904075224608007
 47.7012613848566787 23.2932026276163029 15.8891152018797737
 26.8225442655230211 13.1810861377229678 15.7698402238775248
 44.7193618955378227 21.8379153701224453 15.9624953470325295
 -12.1879395848446155 32.4728894373481296 15.8264194584851943
 38.7534982280398737 18.9444433364767413 16.0568281129011901
 -9.2055507452277379 33.9350387366847102 15.8802154238347324
 35.7696310314761874 17.5028135752422429 16.0495235868916417
 32.7860194551203321 16.0624537057505883 15.9985292874317615
 -6.2241916047609704 35.3895693756018446 15.9471585859395866
 29.8035226569319605 14.6218759116047821 15.9040515162668754
 41.7368107444278422 20.3888429929257669 16.0241443799340182
 -33.0255265798471882 63.7783480890480234 14.2501314823787357
 44.9605812610145890 25.1417152924307388 15.9528538941726925
 23.6368802978411168 49.8110178690169008 15.1695023133820932
  3.1797796249584200  4.8566448996713314 14.3347858306490004
  8.4595891495357822 39.3022776475738382 15.9762217948601357
 54.1501880461563516 32.8463483572487718 15.8032836865455941
 51.1670747635355383 31.3755431658609574 15.8136279682917102
 11.4487159707866919 40.7427650171429434 15.9065710019226838
 48.1839039020716484 29.9086102615016536 15.8523130977502724
 14.4388179744924230 42.1840252005766558 15.8030754549861143
  5.4714043179392018 37.8626227785648979 16.0099665536924931
 45.2019548855696698 28.4465152016800680 15.9112567058553775
 17.4294486780359925 43.6264392241012473 15.6692754119789726
 39.2358499168580437 25.5432532328247106 16.0311725102110465
 20.4201557500761552 45.0697929071009469 15.5096483034049264
 36.2509792265031194 24.0986065590030840 16.0591495123322332
 33.2650011407529291 22.6567904332716381 16.0495376553054854
 23.4108814942485388 46.5149954274254185 15.3308678560717517
 30.2786887414132124 21.2167343142052758 15.9990131750138964
 42.2196156323294574 26.9917856387279933 15.9763751426925271
 41.9779815520163879 23.6901465305767012 16.0180555260697979
  6.1721770126824751  6.3276012670995279 14.4636089458619033
  2.4848064682456807 36.4228737964429428 16.0091993685495737
 38.9943582389926107 22.2437582193733903 16.0630348980145037
 26.6254879920381029 51.2616619410238528 14.9584540580618590
 36.0094965161996257 20.8008646981003764 16.0732650088111484
 33.0245170567804820 19.3600476217191684 16.0417089941767479
 -12.4306843943917364 29.1630776322396024 15.7555955835117683
 30.0395546697403120 17.9199431464631509 15.9664422653795519
 -9.4480770696701253 30.6282689187975343 15.7939731560513525
  9.1610674098557379  7.7925372220216058 14.6406100243328581
 27.0556680155585312 16.4798946883291464 15.8498787869593674
 -6.4662079942501789 32.0866281300244438 15.8536738605011482
 21.0922570004703083 13.5962662177531755 15.5095516580850514
 -3.4840769623444756 33.5367732656209228 15.9206787760843564
 18.1116236067412189 12.1512112423760517 15.2979951064728201
 15.1303835489684797 10.7031044669306290 15.0732227906823031
 -0.5002345098422306 34.9812931649056438 15.9772681645613712
 12.1470004786929575  9.2507906898143712 14.8489148572728915
 24.0730693844326460 15.0389611240243593 15.6961561386336026
 38.0494454395710875  9.0410479788323350 15.8820266204550915
 -30.0312660155133422 65.2567543648928137 14.3226333422169390
  8.7319484242238197  1.1529404896194790 14.4575798667891657
  3.2151895248004050 46.3135549306533676 16.0688292269719391
 53.1821813905551011 19.6003805023600144 15.6496701452965343
  6.1998062077506830 47.7513574080961050 15.9969434791876974
 50.2019946414710105 18.1379542360758386 15.7317051556323335
 47.2218191094517792 16.6823330008057624 15.8187010334637606
  9.1833524846952166 49.1897323896374132 15.8829407810311096
 44.2410180705793437 15.2322923708267695 15.8943289179701903
 56.1631907066971223 21.0687568020561429 15.5854092229246408
 12.1652626033902891 50.6294269005993556 15.7308439799248827
 38.2791411817670379 12.3444520236805673 15.9527354020691199
 15.1450043782102473 52.0713544000774604 15.5443867740486912
 35.3000066752758883 10.9023483668670931 15.9235351015896143
 18.1234581959647372 53.5165266473993952 15.3302193109857896
 32.3223263800216998  9.4602029707194717 15.8549803452985749
 29.3464896520010896  8.0171298051952320 15.7486593316192511
 21.1021946493999479 54.9658232719290112 15.0991996039705576
 41.2597488766785432 13.7870073716921446 15.9420212845439000
 26.3729214881154483  6.5729985817621763 15.6056678591696443
 59.1451972536361836 22.5396753070309508 15.5496383941714154
 -30.4692420471085548 58.6042824825157282 14.4319599259313822
 -0.0312355175469710  0.0502511408299826 14.2264271152129265
 32.0987305267510195  6.1535486541326954 15.7884561134134724
 -17.6683051713511468 36.1581498227649334 15.7851777081801536
 29.1257134849431729  4.7090271919569267 15.6873933583781699
 26.1542870664103155  3.2637178174091144 15.5505785566712706
 -14.6852189580607142 37.6258828081547136 15.8267257420830330
 23.1832745056148966  1.8163623003856744 15.3824083716820610
  0.2299260416837177 44.8756045270352146 16.0962847880555380
 -11.7025762953165255 39.0884728574346028 15.8902423443626137
 -18.5352750589886099 64.4883207643194680 14.9931130123494825
 -8.7210157233849959 40.5437617803706303 15.9643926084609866
 -21.5115011390420356 63.0263002232801384 14.8029506260941286
 -5.7383266730245186 41.9915533665239025 16.0342774774752677
 -24.4921339897999495 61.5570153925261465 14.6367979428497001
 -27.4781451783791653 60.0826587648626997 14.5079661705662346
 -2.7546191334468979 43.4351733639084756 16.0822137908542508
 20.2116843388294463  0.3654826607709281 15.1919656307131010
 20.8771880242827734 51.6623348754131513 15.2360900597240363
 24.0822826196897495 56.4203488296047766 14.8652379894439672
 20.4282786583405844  3.6783520198563093 15.2278585757975424
 -0.0134184493137950 41.5780317295392834 16.0954116107862930
 35.5325140850734442 14.2038426304265482 15.9949650539269612
  2.9720198599532455 43.0165713154914755 16.0879086290524782
 32.5513882589065489 12.7629563419473460 15.9307114231970282
 29.5721127715351706 11.3215056743407114 15.8256534472922343
  5.9579063407673463 44.4542258419804455 16.0384023747160533
 26.5949579687348248  9.8789790732501785 15.6828391969742373
 38.5145232079662563 15.6449830805322865 16.0165896925150903
  8.9434292894044827 45.8926217439526738 15.9464782328773182
 20.6460513139021984  6.9887184328788532 15.2999726451902909
 11.9286011436109085 47.3318976152261968 15.8159985819424094
 17.6716853262202207  5.5382103866418921 15.0771637671091465
 14.9123677437953965 48.7728270231392784 15.6502267486320950
 14.6954496257041534  4.0829474552769263 14.8505909181503633
 11.7159803879783500  2.6213571238750375 14.6387905117795363
 17.8948271785742143 50.2162514299564648 15.4539858894504629
 23.6199907501528159  8.4351910542020470 15.5052523777681195
 23.4004277980059925  5.1271998453244692 15.4292789129114460
 41.4970480670957613 17.0880583653046827 15.9966589781802977
 44.4792679975729897 18.5347886736874443 15.9416752560049311
 27.0659057901062283 57.8806838478565879 14.6457080475705848
 17.4550282154413914  2.2251082203051125 15.0131446709620118
 30.0527310418231366 59.3475790996028820 14.4581282217116396
 14.4796707242635048  0.7662094206438106 14.8013885809336294
 -24.2737081762603175 64.8786558991099440 14.6100028921948901
 33.0439732103229815 60.8204660525845000 14.3199768793657878
 -27.2582159752330213 63.4066199383661910 14.4533410713045196
 -2.9978706071024748 40.1362991939315705 16.0657246395298827
 -14.9280914446702067 34.3164355074200884 15.8237155928802160
 56.4053138141501691 24.3807388032572199 15.6762648294043583
 -11.9449616412956861 35.7813531859532503 15.8720239717396794
 53.4231792482514791 22.9111921956418705 15.7202287938095768
 -8.9630941750258213 37.2402389141569472 15.9376293246163101
 50.4419200881562588 21.4461134136239160 15.7874305485351361
 47.4610125044614648 19.9871060656028590 15.8660229969267341
 -5.9812548101038683 38.6909678862403084 16.0080697813190724
 -30.2486782387242421 61.9295851005205051 14.3472863247466869
 36.0390509936078871 62.2980171063307537 14.2482546949788009
