Se W 
 1.0000000000000000
    40.7846362122131652    0.0000000000000000    0.0000000000000000
   -20.3923181061065932   35.3205310438833351    0.0000000000000000
     0.0000000000000000    0.0000000000000000   24.7171056087856371
 Se  W  
 604 302
Cartesian
 38.9569635830208938  0.2765125552261981 17.4258602898512152
 21.2651426768941469 18.5988715779816687 10.6360674776396475
 20.7283439126339459 21.8740774911411400  7.2922076057191356
 20.7237602215624683 21.8693812361271149 10.6546584036967413
 20.1903397631170343 25.1452626998533155  7.2924078947986892
 20.1924469684019563 25.1474184007346260 10.6588310714096473
 19.6507395733724870 28.4228600775271509  7.2951104893010470
 19.6480914165273290 28.4226029924206181 10.6589582942293930
 19.1114868533607165 31.6911439575157168  7.2938358466214188
 21.2706825585243102 18.6000296772619258  7.2900480983206473
 19.1146846584557863 31.6927023693825198 10.6531622785784972
 21.4041101223682553  0.1212718751210979 10.6345757422812923
 20.8625260680957147  3.3967916724509375  7.2923453769627207
 20.8567343489848867  3.3903479060449366 10.6506544226822655
 20.3249385751291207  6.6657429412394764  7.2926844607759538
 20.3264844283514989  6.6675492917514720 10.6604395245334587
 19.7851397370509048  9.9438713411678030  7.2945281856269419
 19.7838514378517480  9.9444076022335146 10.6576724887225698
 19.2464418953836578 13.2141617435214069  7.2945281856269419
 21.4072973068908539  0.1192568743609623  7.2896201170559092
 21.8162194298166838 15.3272346189526711 10.6456376619539625
 21.8160660100220518 15.3178500252390144  7.2923537262753690
 22.3481251162703209 12.0441587278926914 10.6576724887225698
 25.4534668063244673 10.8817135709858803  7.2915522570331133
 25.4477771082453756 10.8751699393460957 10.6416386591619325
 24.9169884345496158 14.1520862649975196  7.2926844607759538
 24.9146511624847804 14.1525218378474644 10.6604395250658364
 24.3786721515719407 17.4281419384431295  7.2929620472445285
 24.3776429981097849 17.4325978849420622 10.6531511924252253
 23.8376636239486537 20.7039288360188252  7.2937380106504390
 23.8333969915473460 20.7030445262089060 10.6575592857113506
 23.2949038832685993 23.9714815941028689  7.2921543220671792
 23.3018478676906895 23.9700360798825507 10.6498330794217910
 22.7490231735396549 27.2490413027002241  7.2931496463232239
 22.7552895716400343 27.2430427056728384 10.6477181983517379
 23.9730214176454446  2.2263524701603736  7.2938510866906610
 23.9680706519308124  2.2255334992319917 10.6552468792733173
 23.4312441541152907  5.4939106808446283  7.2929620472445285
 23.4356176935762051  5.4925739810251315 10.6531511923749651
 22.8849808185897388  8.7683386560408536  7.2923537262823617
 22.8930314049995935  8.7635134937289170 10.6456376621228337
 22.3479453823076177 12.0455425582698279  7.2945281856269419
 19.2475504605499985 13.2150093128224118 10.6576724887225698
 26.0018905001068958  7.6049414817906840 10.6360674776140840
 18.7015866520481175 16.4855366824095206  7.2915522570331133
 18.1574640722136564 19.7656529984210252  7.2932466417153368
 14.5194135785316796 24.2034067266928794  7.2919375714000640
 14.5255965854152596 24.2075227981926133 10.6437289081734683
 13.9718407320856866 27.4848638626540662  7.2909007880489511
 13.9740895634686542 27.4783075286151117 10.6390038544556251
 13.4366651198903977 30.7595596874677817  7.2934161355285871
 13.4336206856242253 30.7599647473564133 10.6574610363829319
 12.9030229424344896 34.0345559528628527  7.2922897835578251
 12.8999567408114988 34.0429461083743448 10.6475397118733834
 15.0583075788921743 20.9353067337787344 10.6625568881968089
 15.1930769840299842  2.4568546581171846  7.2958361052086795
 14.6558707893340685  5.7250432548140493  7.2932466417153368
 14.6597993383469145  5.7298798001849143 10.6492266412858516
 14.1087209535266709  9.0039812121021612  7.2900480983206473
 14.1124938377231306  8.9997625836909076 10.6360674766932704
 13.5696107091311404 12.2815230237296547  7.2929620472445285
 13.5662663232035268 12.2784037775172905 10.6531511924252253
 13.0378114160273135 15.5546576454449443  7.2923453769627207
 13.0351268100667692 15.5628953046775553 10.6506544226822655
 15.1924991874382478  2.4562681336488539 10.6625568875521228
 15.0585266257074455 20.9345130850056727  7.2958361052086795
 15.6000551776677465 17.6589633576481795 10.6582152368683545
 15.5962309336678064 17.6601546869773252  7.2941200968847344
 18.1596883692658295 19.7598325027455282 10.6492266415588350
 17.6272327472009209 23.0377324764614571  7.2934167593377603
 17.6266037142934593 23.0452989146618989 10.6541563525857104
 17.0883409346947097 26.3176926517956424  7.2907866013766807
 17.0836461799886550 26.3225258580179471 10.6388745109227632
 16.5425723209207085 29.5956317369733775  7.2927968524784896
 16.5354431908326305 29.5896312208845522 10.6500069096504255
 16.0019197738968160 32.8632637966648673  7.2927710674214481
 16.0053708939364441 32.8624424283324998 10.6596303565815340
 18.2920203640756931  1.2861966102862801  7.2927461494681642
 18.2961554151441845  1.2792812313704864 10.6452180918790376
 17.7599023838240306  4.5596994475113473  7.2941200970208975
 17.7590219832838514  4.5636070046004384 10.6582152366308449
 17.2244735564208469  7.8363253896357250  7.2915522570331133
 17.2216514544250252  7.8445246288777781 10.6416386590148715
 16.6784801861093612 11.1173869620805128  7.2923537262823617
 16.6702761795595897 11.1128275307467810 10.6456376620164406
 16.1376000050507997 14.3857464368353281  7.2926844607759538
 16.1383914238716919 14.3835045134734969 10.6604395250195711
 18.7100984525563838 16.4838810751355354 10.6416386590691001
 26.0001235027067032  7.5995647536491946  7.2900480983206473
 26.5400305700747516  4.3286815277354584 10.6575592862479080
 26.5386630885801296  4.3245443606287335  7.2937380107425271
 -9.9216183144020142 21.7917545467122480 14.0618587293264472
 -9.9233844475551383 21.7964515210600709 17.4232545220949646
 -9.3862186528715643 25.0707111876979987 14.0595463225384432
 -9.3891178038477072 25.0674583303130945 17.4233675981343161
 -8.8414774881516109 28.3469039815617805 14.0624472051212592
 -8.8478364097669289 28.3452825163618378 17.4248980030664988
 -8.3112738169293241 31.6170790357948981 14.0629492560679310
 -8.3050356055201586 31.6127510580951423 17.4236888495135887
 -10.4653207063324700 18.5209214641467526 17.4274854917297226
 -7.7672856603774854 34.8837419286142563 14.0733767005006918
 27.7562116998669985 20.6283130841757121 14.0628436401236865
 27.7517133809902141 20.6257646393205398 17.4251358074540263
 -12.4967184822238142 23.8946435577452725 14.0644856960563001
 -12.4900525476746669 23.8928500346857788 17.4239406601957967
 -11.9497417701607684 27.1645420091004404 14.0672725294861358
 -11.9475216303661824 27.1712784329290642 17.4249512867184748
 -11.4146843205000010 30.4460533386532433 14.0582745377381961
 -11.4117638262073005 30.4468003815162440 17.4246977138543464
 -7.7606295343955720 34.8870385336890152 17.4251680373855642
 -10.4619820722297536 18.5191687816650372 14.0825298662938696
 -5.1992411220701795 32.7857061185508911 17.4212695035510237
 -5.1998189186582779 32.7862926430422306 14.0545487206726154
 -3.7138379199786362 24.1251738144795738 17.4247518825102787
 -3.1706666518511377 27.3980361478111902 14.0754669487578461
 -3.1678445496873819 27.4062353870491044 17.4255533517525194
 -2.6332961228084808 30.6789537720942000 14.0588903713852389
 -2.6324157222717797 30.6828613291200121 17.4229855117674894
 -2.0961626910260178 33.9632795454382403 14.0718875163331738
 -2.1002977421551106 33.9563641663957299 17.4243594593174720
 32.3408109399176240 13.1398732030838268 14.0592750891315976
 32.3440517462550403 13.1361267035156750 17.4237802892477482
 -7.9051391983491408 16.4066057290205620 14.0718875169229065
 -7.8970827790519857 16.4064823598510294 17.4243594593174720
 -7.3571912961563681 19.6796654720232382 14.0664511862313741
 -7.3545066899862350 19.6879031312001089 17.4247602318229156
 -6.8260517832815779 22.9641569991610268 14.0639544165418702
 -6.8227073970153835 22.9610377529661314 17.4241435615407525
 -6.2798242682775358 26.2427981932647789 14.0810381322054639
 -6.2835971526914971 26.2385795645877735 17.4270575104563719
 -5.7325187680174245 29.5126809763094435 14.0678789674389204
 -5.7364473167205281 29.5175175221138844 17.4238589670703092
 -10.8779568367472841 33.7259075254834997 14.0782310969245810
 -10.8761185345563991 33.7194251455225356 17.4263190074089351
 25.7245391062955555 26.0025397372976528 14.0839715945674460
 25.7263205251519409 26.0016455878992616 17.4276916389156149
 31.6718790111008097  8.5327949876741851 10.6541563526670888
 31.1279234050225782 11.8122078999703319  7.2958361051017864
 31.1287202483938898 11.8120007756920113 10.6625568882637367
  9.7899738210148612 35.2024996474262366  7.2894139698641265
  9.7916388865166475 35.2014039681405677 10.6331340134833994
 29.6398266555542094  3.1608117051677396  7.2921543220671792
 29.6351028111598289  3.1555207955416780 10.6498330794217910
 29.1067014057503108  6.4322198915480291  7.2922076058012486
 29.1049261751046267  6.4385376122332261 10.6546584035893250
 28.5661921532057654  9.7128793899698973  7.2932466417153368
 28.5600393077389185  9.7138633398780829 10.6492266414984762
 28.0233936972575250 12.9837215084916640  7.2941200970208975
 28.0204498538856619 12.9810052807538536 10.6582152367620235
 27.4791895305814542 16.2521263248931902  7.2923453768579325
 27.4876658554799924 16.2503324321964655 10.6506544226180839
 26.9375719385528711 19.5311139172446389  7.2938510865855886
 26.9407565712216552 19.5272359143014498 10.6552468794591064
 27.0718898371660401  1.0517519493310630  7.2931649485898360
 27.0767760408457363  1.0468758420774482 10.6526199127983858
 31.6650117670233442  8.5360334481967115  7.2934167593377603
 12.4952353269332335 18.8360784168165658  7.2927461494681642
 32.2094462608045760  5.2596498043100004 10.6588310713674357
 32.7428888443485278  1.9923508515388209 10.6477181982244460
 -14.5109695071112856 29.2743786908568211 14.0693874106020012
 -14.5130312453964905 29.2828048490807582 17.4239559624625606
 -13.9788996029941242 32.5550713711222173 14.0581473148217277
 -13.9804463239097725 32.5529065425579134 17.4219951193506546
 23.1671262433493474 28.1151930317589525 14.0695658969649422
 23.1583270546223297 28.1136533631829622 17.4248158253631367
 -17.0842444403051950 31.3831764598622840 14.0575536594491606
 -17.0820996343395350 31.3819679759823345 17.4227799365001879
 -16.5441853574697930 34.6520648625613887 14.0639433301778709
 -16.5412368306462412 34.6540550372422018 17.4232697621642139
 21.1268873859414228 33.4870241244256377 14.0768495613168216
 21.1342117556814486 33.4825084388028174 17.4258602898512152
 38.9645364660919213  0.2805978024842326 14.0768495618684515
 18.5646454770947216 34.9660482216314605  7.2912453188569337
 35.8536797694260443  0.8194814874540314  7.2943256720216514
 35.8557987501114610  0.8182282729484704 10.6595519493364801
 35.3169156590672060  4.0910613313249735  7.2951104894349825
 35.3180170953042065  4.0934832451472101 10.6589582945052506
 32.7512169805855109  1.9947784131021229  7.2931496464566390
 32.2086329717017676  5.2625525480603104  7.2924078948501858
 12.4871789075792137 18.8359550468149877 10.6452180925380393
 11.9517336401470615 22.1064340731668700  7.2933253195378986
 11.9484928338150880 22.1026875735712629 10.6578305196668062
 38.4169588858411402  2.9239259460628473  7.2938358466887872
 38.4167096078163226  2.9203773597056566 10.6531622786849454
 -2.8979868767808044  6.1964273015469589  7.2927968524784905
 -2.8996189110194024  6.2056015675057488 10.6500069093845759
 -3.4405996833489261  9.4781301010103185  7.2909007880489511
 -3.4474020506610601  9.4794607229720977 10.6390038544004231
 -3.9848328240634734 12.7522902740455741  7.2929423887626728
 -3.9904356501334375 12.7468091100026388 10.6540472942435915
 -4.6558930092453306 34.4999301872634021 10.6578305199345298
 -4.5256352331159952 16.0214568877453374  7.2928262556508701
 -5.0651689883552029 19.2988056352374890  7.2949121784733695
 -5.0646098016598353 19.2976684266694285 10.6612624894481982
 -5.6015545520706809 22.5680284643032607  7.2941601328320056
 -5.5992496968459706 22.5722179672228123 10.6539925209278419
 -6.1465565460227385 25.8437044263647024  7.2899992575616119
 -6.1411062702048200 25.8420761118723554 10.6361087812841362
 -6.6899261151375491 29.1237583014534422  7.2926839099109086
 -6.6916475367364212 29.1178157483496456 10.6487367165192790
 -4.5208661329542688 16.0208416545435171 10.6584207938067070
 -4.6607579761968676 34.5008635581494048  7.2933253195378986
 -4.1223807124179448 31.2252951348375198 10.6584207940153348
 -4.1194633547790636 31.2291176802788719  7.2928262556508701
 -1.5457848111395784 33.3268655034347816 10.6446927537742653
  0.7418936495533461  1.7600523378365791  7.2912453189278370
  0.7345692800787925  1.7555366523148188 10.6402560469788980
  0.2021917704252523  5.0308301121137813  7.2927710674214481
  0.1997548845105852  5.0282520385771212 10.6596303565766082
 -0.3370421031931662  8.3042578641831142  7.2934161355285871
 -0.3351690939239785  8.3066918916593657 10.6574610364117532
 -0.8765736118646126 11.5802621481450938  7.2950240619533728
 -0.8791132867799780 11.5799844940195431 10.6605963294111223
 -1.4171091469256025 14.8480505273604617  7.2926839099109086
 -1.4111020337347093 14.8495310088457906 10.6487367166609914
 -1.9643481902594273 18.1262503995470752  7.2918294436862947
 -1.9584971298833809 18.1202139500539445 10.6416036499347744
 -2.5000447048814447 21.4022255061662889  7.2941068144541639
 -2.5017277751552052 21.4019919613636773 10.6570371034855462
 -3.0322719355647290 24.6764290385625458  7.2920797472495442
 -3.0342715130341986 24.6858411472273609 10.6457147973401014
 -3.5773022254429496 27.9585812786943499  7.2918294438193145
 -3.5854554743446845 27.9565323368825815 10.6416036499347744
 -7.2210458959324493 32.3953523622270012  7.2929423887626728
 -7.2229913105129651 32.4029451338242325 10.6540472938480715
 34.7749865085373671  7.3627473601429836  7.2907866013766807
 34.7815195658807141  7.3643965335078736 10.6388745118378267
 -11.8140847671179490 24.9188247887062673 10.6519439363612616
 -12.3543569466860284 28.1922319599383719  7.2935305246786015
 -12.3612478689139849 28.1911230479647159 10.6508219838334934
 -12.8970503202736708 31.4602891353092780  7.2934161355285871
 -12.8958788952771055 31.4574500479847927 10.6574610361196669
 -13.4420127475405913 34.7320476484024923  7.2927968524784905
 -13.4332515830403274 34.7288738986876169 10.6500069095758700
 26.4053716192023771 22.8021129518916901  7.2931649485898360
 26.4071513502354485 22.8087825821499415 10.6526199127293406
 -14.9214035436667967 26.0806918507654757  7.2894139698641265
 -14.9212871903239819 26.0826816794521328 10.6331340141447566
 -15.4664591947339112 29.3606433205012145  7.2922897835578251
 -15.4721921816539574 29.3537928339458745 10.6475397118733834
 -16.0015388478558300 32.6300127782226568  7.2927710674214481
 -16.0025530820384319 32.6334122200196930 10.6596303565815340
 22.2156287736180253 30.5235013549147851  7.2943256720216514
 22.2156545988547229 30.5259630532766977 10.6595519493842268
 -19.1039664299008329 33.7980061276152597  7.2912453189278370
 -19.1042149437839193 33.8066070601674866 10.6402560468114196
 -11.8124519578587428 24.9120020521627836  7.2917188339378685
 -1.5538591712970240 33.3263514464704187  7.2921024709683326
 -11.2829066796567403 21.6360882745429066 10.6542619685942466
 30.0450808586060738 18.3589117729464775 10.6345757426296732
 34.2284248644959277 10.6446466735842211  7.2919375714000640
 34.2288979836406071 10.6372339965960627 10.6437289081734683
 -7.0884029673880899 13.9168090556725499  7.2933253195378986
 -7.0900271280527285 13.9214889260029100 10.6578305196668062
 -7.6246950441951000 17.1947184035582161  7.2921024709683326
 -7.6291774107712369 17.2014539757095122 10.6446927538766296
 -8.1692443825877277 20.4728713859362585  7.2930710913737515
 -8.1771063285344407 20.4691165840581704 10.6507051829728976
 -8.7118404947727601 23.7398337725302326  7.2918237701428303
 -8.7076621643405332 23.7376287014024960 10.6564445636497354
 -9.2547323288640033 27.0161620029465901  7.2936019194965667
 -9.2498547062986329 27.0122904096696423 10.6553503360717503
 -9.7901816330835079 30.2895349859113843  7.2950240619533728
 -9.7891522510723377 30.2918732359747729 10.6605963293915345
 -10.3286683524726914 33.5611127234278044  7.2909007880485346
 -10.3241148162234406 33.5663384354576309 10.6390038544004231
 30.5922713235521790 15.0813006158462599  7.2927461494681642
 30.5961926919335667 15.0883393643934003 10.6452180929548277
 30.0452323080306769 18.3626794561304045  7.2896201170559092
 -11.2784505024663364 21.6387097106691151  7.2919698013316108
 -3.7220419264982358 24.1297332458989153 14.0714679462420804
 -1.0126936496674639 30.0577775790367561 10.6612624891758010
 -0.4717370241426851 26.7860948698578802 10.6570371034855462
  8.3053222673413831 26.5567599300233042 10.6487367166470044
  7.7667791298286550 29.8272833442518497  7.2936019194966857
  7.7609874204579095 29.8249949962544854 10.6553503360458528
  7.2233829734946653 33.0944134944434438  7.2917188339378685
  7.2301080413850727 33.0924161802340819 10.6519439363612616
  9.5161995717100840  1.5231356310925410  7.2907866013766807
  9.5143612693194282  1.5166532512608730 10.6388745108893268
  8.9805542798904483  4.7957603951600403  7.2924078947986892
  8.3096079584515561 26.5522978583175693  7.2926839099011946
  8.9776337856065940  4.7965074380486294 10.6588310711012255
  8.4425763356136585  8.0780187677022059 10.6498330793157123
  7.9022655583943298 11.3497107415669980  7.2931649485898360
  7.8955996240292663 11.3479172186593384 10.6526199127441910
  7.3593952749042479 14.6167961372709190  7.2919698013316108
  7.3638935939565844 14.6142476923488527 10.6542619684635032
  6.8144378209724197 17.8923667851343282  7.2930710913737515
  6.8216205476127412 17.8874355409407606 10.6507051831078225
  6.2791708895682525 21.1676078071070535  7.2949121784733695
  8.4447964757932574  8.0712823437733245  7.2921543220671792
  8.8458195418744463 23.2779698975097595 10.6584207938821418
  8.8476712843646066 23.2735321189481574  7.2928262556508701
  9.3775349184096051 19.9957872074512437 10.6446927531807383
 11.4084514166026043 25.3764640506268648  7.2929423887626728
 11.4159996567650115 25.3743524431660674 10.6540472941251085
 10.8693279413662651 28.6543095528450138  7.2950240619533728
 10.8708382343438341 28.6522489569577452 10.6605963293973680
 10.3350978982961763 31.9236020269612872  7.2935305246786015
 10.3375830134063413 31.9301241969766778 10.6508219837814107
 12.6316885716084641  0.3555222426180161  7.2919375714000640
 12.6250324456959540  0.3588188481201355 10.6437289081734683
 12.0872825005804625  3.6298097184895521  7.2934167593387143
 12.0810442890887408  3.6254817409983415 10.6541563526670888
 11.5444816963225261  6.8972782602535565  7.2922076058012486
 11.5508406180946324  6.8956567947196135 10.6546584037472396
 11.0032003022192821 10.1751024463627058  7.2937380105051313
 11.0060994533397682 10.1718495891773113 10.6575592861504891
 10.4689336584494406 13.4461092557722246  7.2938510866906610
 10.4706997916511177 13.4508062299371396 10.6552468794056825
  9.9269973997712402 16.7216393125697991  7.2896201170559092
  9.9303360337440463 16.7233919949133956 10.6345757435693553
  9.3811269118255272 20.0030368368088851  7.2921024709683326
  6.2798761477725655 21.1686606812319802 10.6612624899860364
  5.7442231119587719 24.4392750086358497  7.2918294438193145
  5.7465253009835262 24.4473604003468097 10.6416036504630593
  5.1973131922562468 27.7217529452850577  7.2899992575616119
  1.5573792581871186 32.1588685159643362  7.2930710913737515
  1.5580584773816131 32.1675545619078349 10.6507051832353525
  3.8510812755133252  0.5885057396027954  7.2938358466887872
  3.8481327486024739  0.5904959137727201 10.6531622785784972
  3.3102184717549701  3.8605928006911197  7.2943256721556136
  3.3080736657925982  3.8593843167534256 10.6595519493842268
  2.7660089485489872  7.1289074135881823  7.2922897835578251
  2.7748081373634723  7.1273677443860324 10.6475397115574264
  2.2218317446599998 10.4082726998485882  7.2935305247298654
  2.2262375520982327 10.4028594420317901 10.6508219838334934
  1.6905258953339986 13.6806613396237289  7.2936019194966857
  1.6914399825283173 13.6868212813279211 10.6553503360478654
  1.1518160500778019 16.9586493152294331  7.2899992575288897
  1.1505010740890300 16.9641835499744609 10.6361087804454861
  0.6055638840253121 20.2393365964250727  7.2920797472495442
  0.5984125469690683 20.2328988573191957 10.6457147974893385
  0.0675242321393937 23.5080355623197050  7.2929173766848772
  0.0675242321394048 23.5080355623197121 10.6612446697613912
 -0.4723763035551963 26.7845205158418551  7.2941068144050032
  2.0904693859860677 28.8835145397769786 10.6539925209237634
 -1.0114292047843660 30.0576932446309790  7.2949121784733695
  2.0879935976828050 28.8876053545683575  7.2941601328320056
  2.6292807480619640 25.6083410519420376  7.2920797472495442
  5.1931778924058731 27.7178470253143345 10.6361087794473441
  4.6579497341896028 30.9952893397847085  7.2918237701428303
  4.6539509216781472 30.9927733349449532 10.6564445642803935
  4.1216279239502320 34.2686008389773775  7.2919698013316108
  4.1215857821954973 34.2737707197366177 10.6542619685202684
  6.4118717823105866  2.6896542341034761  7.2951104893010470
  6.4134185030209201  2.6874894054575096 10.6589582942679097
  5.8792868607997555  5.9597559272744709  7.2931496464565200
  5.8813485990132142  5.9681820857224546 10.6477181984437710
  5.3340024190377662  9.2409151887910870  7.2894139698641265
  5.3322210002572845  9.2400210393963089 10.6331340142181947
  4.7916416808779703 12.5176911404177780  7.2917188339378685
  4.7865494223480551 12.5128657179389702 10.6519439364275232
  4.2564634570184046 15.7889835746085474  7.2918237701428303
  4.2562839391453338 15.7937046505505521 10.6564445637836123
  3.7161336508920564 19.0684728681071469  7.2941601329646941
  3.7113530072902119 19.0683741796003048 10.6539925210281545
  3.1749937048048018 22.3373606649541294  7.2941068144541639
  3.1760374957616802 22.3360198558259100 10.6570371034305005
  2.6384316621941335 25.6053666822774950 10.6457147974013662
 -4.2547181010501429 20.8568143398423622 17.4244211480097064
 18.5722183601568460 34.9619629741941154 10.6402560469336542
  7.6310755911683552 22.2588392681365228 17.4229855117674894
 25.1788675281106862 22.7296950587558371 14.0651616723419579
 25.1839597870837757 22.7248696363530875 17.4253867748477660
  4.3907792581776519  2.6125479984389020 17.4243345413641748
  4.3897650240376045  2.6091485565750254 14.0574752523165785
 18.8465332948447362  1.9156952732297989 14.0724128550113754
 12.3588988744999089 33.2477823633644149 17.4239559624625606
 12.3505707380907648 33.2502099250968683 14.0693874102810899
 18.8384589348038212  1.9162093300757534 17.4250031378172743
 11.8163148655933679 29.9800082286116698 17.4246977138037877
 11.8171281546938509 29.9829109722833280 14.0582745376436620
 19.3796244564508733  5.1847831976415399 14.0558431193257842
 11.2726936607609183 26.7065273284617533 17.4236888495135887
 11.2795609049111079 26.7097657894231375 14.0629492561864620
 19.3808889013187020  5.1848675320658950 17.4221934306602471
 10.7356052988629909 23.4303528767287901 17.4212695035769443
 10.7364021422891760 23.4305600010111625 14.0545487205272757
 19.9205810819776516  8.4564659068163905 14.0600685053000944
  8.0379611595276153  7.0503288165458260 17.4235750841776849
 20.9978819901685760 15.0032241803758541 17.4250258615360991
  8.5782333391364691 10.3237359879344144 14.0651616724082231
 20.9907306533128946 15.0096619194145067 14.0713908119777891
  8.5798661482197787 10.3305587245085935 17.4253867748477660
  9.1094114261948516 13.6064725020919557 14.0628436404282713
  4.9201259244386719  5.8887679426820698 14.0695658969649422
  9.1138676037227597 13.6038510659629637 17.4251358074540263
 20.4598423382459984 11.7345252143585945 14.0558609380005741
  9.6527627523665291 16.8836490036871218 14.0825298665330170
  9.6529142020076186 16.8798813205652110 17.4274854917297226
 19.9199418025711736  8.4580402609193115 17.4229987942460092
 10.2038745858411346 20.1542214122873169 14.0718875158914827
 10.1999532174138103 20.1612601604292436 17.4243594593174720
 20.4598423382459913 11.7345252143585910 17.4241882321009669
  4.9258589113201818  5.8819174561613341 17.4248158253631367
  5.4710309158653958  9.1598790972424577 14.0839715941555532
 24.6487815631577156 19.4535772020739834 17.4252818386428032
 23.0307497682304074  9.6371940944089207 14.0713908119916269
  8.7143832995887482 28.8103408851269727 17.4248980029843956
  9.2427847050491874 32.0870399811729499 14.0672725294861358
  9.2475085494940910 32.0817490715360947 17.4249512867184748
 22.4803117037361773  6.3549554221068769 17.4229454759536111
 30.1839569926383398  0.0411568085319025 14.0839715942861936
  8.7126080690217584 28.8040231648185916 14.0624472048844620
 22.4827874921623554  6.3590462367690641 14.0631130877560651
  1.2881031620979317  1.4359537164699672 14.0768495613331979
  1.2883516759266991  1.4445546492224834 17.4258602898582069
 21.9496973641426827  3.0836922605726573 17.4240345174119042
 21.9503765835171976  3.0750062148296866 14.0664004256708015
  1.8233364927433764  4.7165977233731384 14.0575536594014139
  1.8233106674874164  4.7190594216740118 17.4227799366300253
 30.1822919271083983  0.0400611292278140 17.4276916389215160
  8.0310702371979339  7.0514377286571319 14.0662836250713763
 23.0215988540314918  9.6342197246461438 17.4250258615360991
  8.1677212015991589 25.5286974363902850 14.0678789672863331
  5.4709145623996625  9.1618689259129997 17.4276916389215160
 24.6486020452837451 19.4488561261150892 14.0606610450698408
  6.0148332440233130 12.4337781945315555 14.0644856959872548
  6.0130535131763478 12.4404478247353278 17.4239406601957967
  6.5484384651115732 15.7153248626379689 14.0618587293264472
 24.1084517570136327 16.1740879084766043 17.4229454759536111
  8.1738740472749782 25.5296813867237411 17.4238589670703092
  6.5452538325040548 15.7114468594206773 17.4232545220949646
  7.0953477493684884 18.9922283440971178 14.0664511861033752
  7.0868714243248201 18.9904344515265855 17.4247602318229156
 23.5673118109551289 12.9052001116472681 17.4229987942460092
  7.6281317477364068 22.2615554958952089 14.0588903718858376
 13.1693267958123101  2.8396156428540476 14.0630583145420491
 23.5683556017983484 12.9065409209180313 14.0600685052986751
 24.1036711134548831 16.1741865970894807 14.0631130878618773
  7.4952677858370906  3.7822716413901398 17.4236894732570455
 21.5428191801953837 18.2783772268396376 14.0809968274593285
  7.4964392108111175  3.7851107288009400 14.0596445725368095
 16.4018824563637295 22.4957516667527706 14.0630583146078791
 16.4074852820602537 22.4902705024386904 17.4241632200229688
 18.4279699159928505 17.1163103771429803 17.4252761650993300
 16.9449160553745415 25.7631000534247363 14.0781017543300155
 16.9517184228367661 25.7644306756809911 17.4262048207366895
 18.4338209760028207 17.1223468266263694 14.0755019584309853
 18.9812160722384959 20.3930297681104520 14.0683688922523764
 17.4926991951175452 29.0369592093562829 14.0670986994014804
 17.8922734012105416 13.8403352705298310 17.4229987941968467
 18.0243915015122624 32.3221834170156868 14.0639433301778709
 18.0246407798680686 32.3186348306107263 17.4232697621642139
 17.8905903311221550 13.8405688152485347 14.0600685051646810
 10.0682032896148517  1.6762223412213437 14.0781017543852176
 10.0636497537007017  1.6814480532684122 17.4262048207366895
 17.4943312290721273 29.0461334751113931 17.4243087563071519
 17.3600461704277755 10.5661317381926008 17.4250258615360991
 15.8666828728020555 19.2211038888667041 17.4242793531347608
 18.9752089591430781 20.3945102493885528 17.4244216988325782
 20.5920729905774813 30.2143087381121447 14.0574752524545765
 13.1712722101084445  2.8472084144055398 17.4241632200229688
 13.7006705688204669  6.1247450284503762 14.0683688923054611
 13.7023919910388710  6.1188024751645163 17.4244216988228651
 20.0552760028711816 26.9383029124987452 17.4236894732570455
 14.2512118359099844  9.4004846647918257 14.0809968293848975
 15.8714519732436674 19.2217191221485706 14.0586848150389176
 20.0571490121872777 26.9358688850229946 14.0596445725368095
 14.7930684090759623 12.6703428094604167 14.0631130877560651
 14.7907635539923117 12.6745323123242688 17.4229454759536111
 19.5157444943027585 23.6622986285428887 17.4220815468322741
 19.5132048193290402 23.6625762826672137 14.0565092788569714
 15.3277083044412148 15.9448923500000213 14.0558431187880899
 15.3271491177658916 15.9437551414437788 17.4221934305278907
 14.2457615600842296  9.3988563502964872 17.4271063512567324
 27.2067559270094534 17.3501939915358001 17.4240345174119042
 17.3580465933059571 10.5567196293496224 14.0713908113842745
 10.6021364729737133  4.9530257907412762 17.4220815468322741
 13.8361067584681230 24.5979141031813597 17.4251680373855642
 14.3892014595468876 27.8781642433605263 14.0782310979874197
 22.6141498509183059 24.8342880768315695 17.4235750841248738
 14.3826684024250397 27.8798134165227047 17.4263190074089351
 22.6185556578441442 24.8397013347131335 14.0662836250713763
 14.9256989892194731 31.1490775314900397 14.0581473147832092
 13.8365798772230217 24.6053267801140407 14.0733767005006918
 14.9245975528849648 31.1514994451727461 17.4219951194845812
 15.4634806439776487 34.4243325037466263 14.0575536594491606
 15.4613616633486028 34.4230792892462603 17.4227799367350293
 22.0837580884431652 21.5557394954132526 14.0617552729795339
  6.9590665231413542  0.5136868782502390 14.0670986992097706
  6.9503053583558998  0.5105131281827574 17.4243087563071519
 21.5441341561609327 18.2839114614488736 17.4271063512567324
 22.0828440015317931 21.5618994369599157 17.4235036892280561
 10.6031658550319889  4.9506875406920567 14.0565092794505695
 15.7364250968651884  0.7426305894116544 14.0592750891248421
 13.3039151386736698 21.3257517210094960 17.4237802892477482
 11.1424633996612190  8.2302703672815802 14.0617552727397879
 16.8150158807006704  7.2839794978350234 17.4252761649663199
 11.1375857772425828  8.2263987737496223 17.4235036892280561
 16.8068626318651404  7.2860284397957322 14.0755019583225813
 11.6846559418395213 11.5049320751451418 14.0606610446736688
 11.6804776113114777 11.5027270041438250 17.4252818386428032
 -4.2539266822355968 20.8590562633424810 14.0566660836897022
 12.2152117774696123 14.7734441925270694 14.0664004256786495
 12.2230737235406082 14.7696893908353353 17.4240345174119042
 16.2699373936071154  4.0172656418266888 14.0586848149751376
 12.7631406953427291 18.0411068009687980 14.0724128550113754
 12.7676230617763817 18.0478423731619273 17.4250031378172743
 15.7315601298584422  0.7416972185436100 17.4237802892477482
 13.3022909780534064 21.3210718505727783 14.0592750891308871
 16.2728547513275181  4.0134430964710077 17.4242793531347608
  2.3629714654183993  7.9995180708723241 14.0693874104062413
 20.5945098765302248 30.2117306645640618 17.4243345413641748
  2.5007132988879883 26.4790472832047818 14.0714679461356695
 -1.1458762107259217 22.0283990331945319 17.4225774231586890
 28.7019260645972416  8.6902629185213236 17.4244216988747347
  1.4237479039220233 19.9247107513528299 17.4247518825102787
  1.4239013242042327 19.9153261580466676 14.0714679461356695
 -0.6084666682354678 25.2981531744002446 14.0594331200533418
  0.8783644524406888 16.6425310993606104 17.4270575104563719
 34.3641588382862793  7.7576969140531684 17.4262048207366895
 29.2381376480342219 11.9645908791415554 14.0586848149925405
  0.8728245707283352 16.6436891986951281 14.0810381320866895
 29.2399893905624850 11.9690286577299005 17.4242793531347608
 -0.6071783690107952 25.2986894353565539 17.4225774231586890
  1.9558070100646165 23.1984020488593288 14.0594331200533418
  0.3360258065485376 13.3684832856264979 17.4248980029843956
 34.3664076696314496  7.7642532480681048 14.0781017542107634
 -0.0658336777775201 28.5750114848853940 14.0566660842172002
 29.7698530242406214 15.2467735692863897 14.0724128550734626
 -0.2019783429781672 10.0972980768370100 17.4246977138543464
 -0.0673795309834397 28.5768178354089777 17.4244211480097064
 -0.1998711377046369 10.0951423759548451 14.0582745376913056
 -2.7657143917992491 12.1972618619980508 14.0629492562505547
 -0.7415785327616962  6.8197006991199771 17.4219951193506546
 -0.7442266895904649  6.8199577842576797 14.0581473145508919
  0.4644162431577685 31.8522128705389527 14.0664511861675567
 33.8289832260016894  4.4830010892264207 17.4236894732570455
  0.3314421156694460 13.3731795405574569 14.0624472051456113
 28.6976403735178671  8.6858008466559369 14.0683688922523764
 -1.1447676455373357 22.0275514638576517 14.0594331199554219
  1.9556272761534970 23.1970182184095037 17.4225774231586890
 -2.7650853588051159 12.2048283003984093 17.4236888495135887
 31.8083177629123206  9.8682083336014532 14.0630583145936754
 -3.3039771716164199  8.9248681249292030 17.4263190074089351
 -3.3086719260476602  8.9200349181195371 14.0782310969050251
 31.8007695225980420  9.8660967261606505 17.4241632200229688
 31.2616460474644526  6.5882512238241118 17.4220815468322741
 -2.2326297373395230 15.4827282739373597 14.0678789672871645
 36.9348904270254508  5.6469290396596348 17.4243087563071519
 -2.2348540338989946 15.4769077782711371 17.4238589670703092
 36.9277612967190549  5.6529295557385515 14.0670986993291223
 27.6224261473581549  2.1501445966701072 14.0651616723419579
  3.5807033115097280 33.0162083065001895 17.4232545220673245
 31.2631563404863471  6.5903118197357093 14.0565092788569714
  3.5757525460147224 33.0170272776627982 14.0618587293264472
 27.6157010796108295  2.1481472823420344 17.4253867748477660
 -1.6822196539417413 18.7586797015427749 14.0754669487578461
  3.0389260479963918 29.7486500957636792 17.4241435615411113
  3.0432995874811626 29.7499867961482032 14.0639544164884445
 -1.6907314542042822 18.7570240942584476 17.4255533517525194
 28.1533055263144192  5.4175657804051527 14.0617552727397879
 28.1590972359691207  5.4152774323273718 17.4235036892234483
  2.4926627128299503 26.4742221206978456 17.4247518825102787
  2.3567050674475851  7.9935194740145823 17.4239559623291278
 30.7274160044086244  3.3189587497447541 17.4235750841248738
 30.7299011195275433  3.3124365797340118 14.0662836250713763
 24.5139038885715621  0.9687900569416829 14.0628436402547141
 -1.2808312527924524  3.5514168190271929 17.4232697621642139
 29.7734450181428976 15.2395239398834033 17.4250031378172743
 -1.2776334476760665  3.5498584072524411 14.0639433301778709
 25.5896312984468501  7.5208078313619575 17.4271063512567324
  5.0611487003947753 24.3608472056184304 17.4255533517525194
 -5.8729045275749163 11.0391540501163075 17.4251680373855642
  5.0554590021970505 24.3673908372885784 14.0754669487578461
 24.5139460300803016  0.9739599376696574 17.4251358074540263
 26.1388434065562514 10.7952003764214126 14.0755019584309853
  4.5246703284664607 21.0904745116835315 17.4244211480097064
  4.5223330564589901 21.0900389388287692 14.0566660839465332
 26.1365412181973760 10.8032857677713778 17.4252761649663199
 -5.3340105271797507 14.3072540429074486 14.0545487212477376
 -5.3337914804151154 14.3080476917046440 17.4212695036838490
 -5.8667215205674328 11.0350379784203394 14.0733767007718544
  3.9863540454759634 17.8144188381950919 17.4241435615411113
 36.3942378799632138  2.3792969800468806 17.4243345413641748
 26.6721942538832408 14.0739000954738049 14.0558431193658446
  3.4453455178075143 14.5386319405864040 17.4233675982660756
 -4.7922629284418434 17.5835974189816291 14.0588903720412866
 36.3976890001149727  2.3801183484114494 14.0574752522538482
  3.4410788852734564 14.5395162505794815 14.0595463228026301
 26.6714889957153218 14.0749529696291411 17.4221934305278907
  2.9025857771671699 11.2710791825512526 17.4249512867184748
 -4.7960871724841176 17.5824060897050529 17.4229855117674894
  2.9095297613183497 11.2725246967958022 14.0672725294699283
 27.2139386538748163 17.3551252353616086 14.0664004255511195
  3.9853248920164939 17.8099628918058457 14.0639544165372659
 25.5854959985648485  7.5247137513575000 14.0809968284438778
 33.2922748466548910  1.1996146682455766 14.0695658969649422
  1.0117920162764016 35.1212889016268335 14.0825298665330170
  6.6795717310755904 34.1908088273735586 17.4239406601957967
 25.0462690272515474  4.2497874417379613 14.0606610446060429
 25.0502678403633077  4.2472714369125768 17.4252818386428032
  6.1463449824311960 30.9180164160495750 17.4233675981328950
  6.1477124639903433 30.9138792489293479 14.0595463229010917
 33.8259387917971281  4.4825960293253981 14.0596445725520134
  1.0149792008446739 35.1233039021591793 17.4274854917297226
  0.4702079620286426 31.8457691042674540 17.4247602319277064
  6.6844579347818476 34.1956849344659943 14.0644856960563001
 33.2953410487639516  1.2080048238154222 17.4248158253631367
  5.6078053967237436 27.6429960229901646 17.4270575104649978
  5.6095723939733597 27.6376192948514010 14.0810381320866895
  4.6606844253054645  7.4423323671037078  8.9655959604056932
  4.5241325011347548 25.9222939205780030  8.9640548173296235
 18.7060585919294944  6.9754921469935525 15.7412674722041412
 19.7800988856902684 13.5233587777870863 15.7417147216288917
 -14.1131640270188630 32.9376556663941216  8.9762376367903638
 -13.5759779144548176 29.6704684365684876  8.9738235626383229
 22.4834668469712220 29.9063119086812996 15.7408746651090237
 -11.0060054247702972 31.7681851430053896  8.9746499823375938
  7.7707975836432652  6.2787409458086056  8.9734832734930823
 20.8688399712206163 20.0793924209345178 15.7475801657757497
 -20.3247938739671667 35.2815459102807978  8.9632517082877659
  4.1136606598418153 10.7231803887318407  8.9676946175349403
  5.0658596391396937 22.6473403056892408  8.9758381367727846
 36.2578187411886361  7.4427918977272070 15.7517707176414596
  7.2275545783504969  9.5553153316357733  8.9679338837454630
  5.1992554745850672  4.1698202236086903  8.9782351731612735
  5.6049809302756310 19.3763534373285822  8.9782359633426090
  6.1453406896854021 16.0962396461957589  8.9746970924653358
  3.4474195545023734 32.4774769721432861  8.9746970926044831
 -16.6815169315942278 30.8414186771558008  8.9762309436766241
 32.6184168297769119  3.0001221958986291 15.7432820461777006
 -12.4894131169166673 23.1211614908898468  8.9742309673764975
 21.4037820256034728 23.3513891061580310 15.7385188775028766
 -13.0275533455331463 26.3964062155151993  8.9676946171923522
 35.1852589933732602  0.8961216349176422 15.7408746649792501
  3.9783066258003590 29.2035964211455905  8.9706002674286101
  6.6810356806504192 12.8268458600507476  8.9742309676367604
  5.7404063266709331  0.8958463820350041  8.9766286717586024
 19.2505387552895115 10.2514333347703790 15.7417147215962672
 35.7164770259420976  4.1684989908023686 15.7408679721223663
 21.9447699933255365 26.6313611070787530 15.7432820463129719
 20.3223472734234818 16.8011903692020717 15.7530507914560243
 -11.5482140477074591 35.0436177973621170  8.9653348913392819
 -17.2117534930468530 34.1143404182095580  8.9722773055041607
 33.1501065426039290  6.2746420123341400 15.7424556266397442
 33.6934190680348280  9.5575091729397794 15.7493095885056835
 -3.7108675762630812 22.8848288801516411  8.9746884592336293
 -10.4649448541218035 28.4989917593332187  8.9785867315165149
 20.7333742185004262  1.6002771450898743 15.7509545403556572
 -0.6122192204302522 21.7192019989180167  8.9753908870634440
 -5.7343193827804901 17.5055033941770297  8.9761718538791122
 26.9387484808835787  3.9388770574592757 15.7418276885082733
 -1.1417793507941161 24.9911274419045206  8.9753908872824848
 27.0733537866853275 22.4157149167036565 15.7428746411488873
 -1.6862595143116148 28.2670686296966132  8.9758381368057005
 -5.2006669636628375 14.2311354007758695  8.9767594900317356
 26.5376587957762737 19.1463211304932237 15.7424085161784379
 -2.2298993050884950 31.5338456056521181  8.9761718538790873
 27.4822105138100561  7.2078892705780566 15.7475801658406400
 -4.6639129363526965 10.9589139104878850  8.9677960201528162
 -2.7702160850696860 34.8078019087317685  8.9712260619535407
 25.9972990363499719 15.8662073393142720 15.7388696453960613
 -0.4781663503569955  3.2405896650826915  8.9722773055041607
 -4.1147138908841896  7.6807200107928626  8.9653348911441881
 25.4581777451378812 12.5952204709071385 15.7412674722041412
 23.8397376604936717  2.7650838045028832 15.7424085161784379
 -3.1770274283020159 19.6096977515315132  8.9758381367727846
 29.0995926746140086 17.0385348061873572 15.7509545403556572
 -4.2515889720264592 26.1604423587888881  8.9640548175100108
 -2.6348804659514262 16.3277351454274999  8.9711652280461038
 24.3706247318426996  6.0389643551393126 15.7465053413570377
 -6.2793457975880891 20.7782984519183671  8.9782359636063021
 -4.7995959865915401 29.4385368906099814  8.9711652279364600
 28.5591094901139897 13.7578030895885508 15.7409337546500296
 24.9164506072094696  9.3202668559442472 15.7530507913404172
 -1.5492103154092636  9.7880027795455984  8.9746499820219565
 -5.3324113782197937 32.7088730506740077  8.9767594900365815
 -1.0084221963751177  6.5123892347284489  8.9762376367977676
 28.0293672553855586 10.4847261257947206 15.7459403811158953
 -2.0948069231031381 13.0572967602028331  8.9765745791687728
 -0.0699708326809542 18.4413704074538920  8.9640548174452306
 26.4032682388297637  0.6664614406175642 15.7428746411488873
 21.2692556698307769  4.8731059789349267 15.7388696451658134
  0.8769375638316713 30.3694547977627494  8.9782359636063021
  1.4170073176988911 27.0918221949325364  8.9746884592336293
 -8.8457579843644183 18.6777970847396730  8.9661510684282746
 23.9716186097655672 21.2432466010536096 15.7418276885082733
 30.0483717371356711  5.1086175195630599 15.7385188773008959
  1.9565712674803595 23.8137772463336930  8.9753908871891728
 23.4369515343620449 17.9691425454440363 15.7465053413242799
 24.5059787660171722 24.5193803880282992 15.7494109918421135
  2.4964329548875006 20.5474556119430218  8.9746884592990437
 29.5087834884296818  1.8380406939312885 15.7494109913163740
  3.0446334279275660 17.2734182312156115  8.9706002674286101
 17.6221020210500008  0.4347588679183353 15.7458795466698227
 -9.9231581819130223 25.2211087920949915  8.9752779202773745
  3.5793005036367740 13.9993141756517581  8.9752779204011812
 -9.3901875476867396 21.9503900686412941  8.9746970926031970
 18.1624188011104977  3.7087151709872668 15.7409337546500296
 -8.2994903221177054 15.4005971849706658  8.9712260624023923
  0.3410561125396200 33.6422836316089260  8.9661510684856847
  0.4765218651829072 15.1631683558102406  8.9695254429416824
 -6.8203673574451056 24.0470920344266901  8.9706002674822241
 31.6645972096337260 14.9268531835106817 15.7458795471884869
  1.0114639194957293 11.8911716705231765  8.9785867314847518
 21.8093254237525116  8.1507385817329165 15.7424171494866041
 -7.3638415764343419 27.3262668252623513  8.9695254429416824
 30.5916132067479722  8.3817895250919481 15.7405310297570811
  1.5524518872733135  8.6111996696462025  8.9738235626383229
  2.0911487409161529  5.3362488681345548  8.9762309436766241
 -7.9019154812896648 30.6060386750803062  8.9765745791037812
 31.1279691444776887 11.6584625411921419 15.7403461186192892
  2.6333358303172258  2.0700721002243001  8.9736381977675279
 22.8887510609943661 14.6951051648455078 15.7424171494866041
 -8.4346153290297696 33.8801411725136745  8.9677960199574187
 22.3488893735332361 11.4287835307179204 15.7417147215866802
 -1.8231648893494565 23.8182756237586233 15.7407516722143690
 15.7284051697528504 24.2836468661393390 15.7493095885717143
 15.0599067278695156  2.5336877260040787 15.7403461186192892
 29.3729670058097447 16.5633655329525062  8.9660188231180094
  6.9526624258914964 24.0496269772763576 15.7449604605810674
 29.9131920039758548 13.2907083315807899  8.9779280464555864
  7.5013869870291074 27.3255694409574232 15.7485146908144920
 30.4557176024771579 10.0201236263605935  8.9780125121017136
 30.9954675896543073  6.7416991515087412  8.9761452220003655
  8.0347591848272213 30.5998430663063949 15.7418013894319611
 31.5292124894845500  3.4733822416616347  8.9734832734930823
  8.5709192308065223 33.8779279711220269 15.7491717254391439
 28.8277040589669795 19.8454826894821892  8.9703694365933675
 32.0765693383757622  0.1981495270654880  8.9655959602831565
  0.6111155754426035  3.2376015087493686 15.7434674112628041
 33.5571109223115371  8.8451182936973645  8.9681227684894864
  1.1465909699284904  6.5096271662813923 15.7388704353327462
 34.0989330579553496  5.5688429560245911  8.9739866625440889
 34.6413624643017002  2.3008218090325396  8.9782351728950776
  1.6871988352471394  9.7911083210088066 15.7436223352925655
 37.2061315562722967  4.4064591150911436  8.9766286717586024
  2.2255922129656627 13.0623039434166586 15.7418013894319611
 37.7427575025287183  1.1285442748770316  8.9736381975525976
 33.0159008206300939 12.1273602584906683  8.9768491824260028
 -20.3247938739672698 35.2815459102807907 15.7538539016994736
  6.4126430790007998 20.7826441779594120 15.7404072063071183
  5.8759074331630430 17.5068157059704532 15.7421316653590626
 10.6031494835323379 28.5008616251674702 15.7409603869165089
 24.2362567270768032 12.3628422134654521  8.9743651928461716
 11.1368943834194791 31.7691785349955360 15.7436223352925655
 24.7793084760598497  9.0822701736096185  8.9640746531174589
 25.3239072256851223  5.8049646806894399  8.9715822000919125
 11.6842512322065630 35.0444112497456146 15.7515096481767181
 25.8617556073534125  2.5346572048595948  8.9782640113460257
  3.1805646127911484  1.1282203585724055 15.7448283032814871
 24.6422732512000486 27.5630937490383872  8.9655959604863913
 28.9632373367591676  1.3646328055212598  8.9679338835986453
 25.1887350995656689 24.2836275060758950  8.9679338833465039
 25.7262051113802208 21.0126533391844355  8.9782640116119943
  4.2499551448611674  7.6794670277368446 15.7515096481767181
 26.2682255393883004 17.7357450707506565  8.9749739435701184
 26.8049611851723739 14.4599165984445275  8.9766984024785295
  4.7964169934598608 10.9589332707801947 15.7491717254391439
 27.3449805319054455 11.1929337993535292  8.9721451482368959
  5.3338870052397249 14.2299074375012626 15.7388415973033062
 27.8937050930410670  7.9169913357784125  8.9685909181041019
 28.4270772909642773  4.6427177103450825  8.9753042190906260
  3.7108011744674521  4.4011420994503077 15.7408746651090237
  2.7706418437804285 16.3308515370909504 15.7455234086937352
 -17.7589822756636480 33.1724886765720512 15.7434674110181199
  3.3149538400101028 19.6074436768382370 15.7429948281738348
 -8.0338762177382730 21.4784380834109321 15.7421316653590626
 -8.5709364884491972 18.2034633324119639 15.7510867860378454
  1.2815445673734642 24.9903003414832590 15.7407516719416787
 -3.3114564882801329 32.4729680823586904 15.7391775621015544
  1.8218210909076467 28.2706880424465616 15.7429948282388281
 -3.8440767885977678 29.1999444390305385 15.7449604603118622
 -4.3891290792858921 25.9226754479132708 15.7530309556681889
  2.3605414808516008 31.5388528975307096 15.7421316653590626
 -4.9342022345797023 22.6459749677688826 15.7429948281738348
  0.7441930184057105 21.7155307217965827 15.7407516722143690
  2.9078885943012693 34.8102951255094482 15.7467361721594017
 -6.0068447133904117 16.0992861596063470 15.7391775621015544
 -3.9788102647905266 10.7207647879236756 15.7489828413021584
 -6.5507101368510900 12.8305874670087157 15.7402564261016593
 -3.4456980724228705 13.9941528564273590 15.7390930966839342
 -0.2071397148230380 33.6414481110280903 15.7510867859272015
 -0.7447770171755919 30.3657653657587154 15.7404072063071183
 -2.9060129407186031 17.2745352703232165 15.7449604605810674
 -1.2765444792748157 27.0926648577822853 15.7427404159394762
 -2.3648214450829292 20.5517232659936404 15.7427404158744402
 -5.4652933653871276 19.3756971430513616 15.7404072063768457
 -7.4996582673658310 24.7556590536689853 15.7455234084386291
  0.2047114058923695 18.4411406358268479 15.7530309556681889
 -6.9554884641466277 28.0371826170718421 15.7485146908144920
 -14.6519117794365581 34.3467143946603954 15.7404769370270454
 -15.1930626316478765 31.0727405529694920 15.7388704358115472
  3.8439386210327644 22.8797185632743698 15.7427404158744473
 -15.7316336807544719 27.8002284096427168 15.7515096481767181
  4.3869903697571280 26.1602906030922782 15.7530309552473824
 -12.0916585949684894 32.2369934808393239 15.7431189462415588
 -12.6215205222900764 28.9638198309227626 15.7436223352925655
  4.9315891196607415 29.4375960960075105 15.7455234086937352
 -13.1647635275895620 25.6872454451389842 15.7491717257141506
  5.4694375012500931 32.7079035717880870 15.7388415971697473
 -8.9834098551266361 33.4058994160480154 15.7489828406933796
 -9.5242026006820328 30.1357416433845664 15.7409603866517323
 -1.9593289743683715  5.3412906307487908 15.7404769370270454
 -10.0577787013348274 26.8619596772996907 15.7418013894319611
 -1.4123836604942850  8.6133953853346128 15.7431189462415588
 -10.6007518100866278 23.5862956776745349 15.7388415974396221
 -11.1407018506434099 20.3167334741133949 15.7467361726786397
 -0.8763741864281160 11.8875034184537203 15.7409603869163295
 -5.8702998812337581 34.5783187015521420 15.7402564263596449
 -0.3433258265722149 15.1613546288343333 15.7485146906815459
 -6.4151287273989235 31.3075166802369402 15.7390930967170224
 23.7072719457519163 15.6351170997669833  8.9741107805468197
 23.1629599498726968 18.9117092393615351  8.9715822000919125
 10.0633994964217486 25.2224371503243390 15.7390930967765197
 22.6179103190235011 22.1802568331819323  8.9753042193536867
 11.2722791036795478 20.3157075931398055  8.9712260622215965
 12.4904026249021811  4.6365221013816509 15.7405310298835559
 11.8213816174597941 17.0390974442991840  8.9660188229550375
 12.3584418883945126 13.7641226933041718  8.9749739435701184
 13.0284765297255731  7.9162939514473818 15.7475801658406400
 12.8926598391436578 10.4869017230068273  8.9715822003470187
 13.5719507486655608 11.1954687422785266 15.7465053412494065
 13.4368296420638256  7.2053781595062469  8.9685909181041019
 13.9771893786888235  3.9350440966203299  8.9780125123708032
 11.9577027766798185  1.3624196041047762 15.7493095885056835
 14.1129723085234495 14.4642623247335305 15.7388696454430388
 14.6579987234504596 17.7370573824826891 15.7409337546500296
 12.2260987237925658 32.2424385807678036  8.9738235626383229
 12.7577884366956038 28.9679187645558009  8.9746499819897281
 15.1916511424691905 21.0114253759138663 15.7403461186192892
 13.3011009618974505 25.6850516039648653  8.9677960199294322
 13.8416079692851994 22.4119733096374780  8.9768491826895183
 14.3854733928750864 19.1432746170648436  8.9779280467825622
 16.2776042155451250 27.5618407658593689 15.7517707176414596
 14.9270247409333727 15.8668636336094462  8.9766984023481324
 14.5220182248041727  0.6642420749614348  8.9768491828283405
 10.7356510383370818 23.5840982354958477  8.9767594900365815
 10.1992951007611961 26.8607712515447403  8.9765745791687728
 19.9141517556819210 32.0019711116152479 15.7448283032814871
  6.0109501327196533 34.5760993361837805  8.9742309676367604
 15.5927221196418486  5.8040238860683209 15.7459403812454291
  6.5464303746641219 31.3036837192470117  8.9752779204011812
  7.0898924077151513 28.0346715060056759  8.9695254430065727
 16.1407291341011785  9.0821184179207357 15.7530507908127397
  7.6370491492592247 24.7578346508933294  8.9711652280477683
 16.6814505299513485 12.3577318965371319 15.7424171495520184
  8.1667913840681177 21.4847576870350885  8.9761718541356181
  8.7072745684618269 18.2040259705230980  8.9661510686439403
 17.2152906777034751 15.6328630251561904 15.7412674722041412
  9.2516162554454358 14.9258273022772396  8.9703694363845887
 17.7574376399909006 18.9148256306558196 15.7459403811322218
  9.7915662960223564 11.6562650990125309  8.9782640116119943
 10.3345394049035200  8.3806010993603834  8.9753042193536867
 18.2975111830139490 22.1852640165013142 15.7405310298185608
 10.8681155054122254  5.1068191333031532  8.9761452220003655
 18.8431077909954929 25.4545579971326745 15.7424556268897025
 11.4089082509298532  1.8366613605618798  8.9681227684894864
  9.1164653823738213 33.4045200828433408  8.9676946172580188
 19.3838959094681584 28.7301715420493196 15.7408679719878801
  9.6560536310954905 30.1339432571152415  8.9785867315780692
 16.8138134501819927 30.8361016615577768 15.7404769370270454
  8.3006595107794237  3.0055672956167139  8.9739866625440889
 15.4581158716609739 12.5965858089614677  8.9741107806118130
 17.3504393966612902 34.1140165017778187 15.7434674110181199
 18.9799344454870855 26.6291653913738777  8.9739866625440889
 14.2490443582043156 32.9417389676621326 15.7388704353327462
 19.5159439195702866 23.3550573582372927  8.9761452217351039
 20.0489922792852759 20.0812061479946706  8.9685909181041019
  6.2791540790626277  2.3049051102172631 15.7408679721223663
 20.5970295120755935 16.8014201408117749  8.9640746531174589
  6.8163401917101138  5.5720923400414177 15.7432820461777006
 21.1365111245488357 13.5270300549771800  8.9763539368439691
 21.6738626735919873 10.2522604351991955  8.9763539368439691
 13.7066149518391516 29.6737178210433008 15.7431189462415588
  7.3647647607136832  8.8461545610908825 15.7494109913163740
  7.9029049891056458 12.1213992858648236 15.7428746414091503
 22.7528595871030745  3.7037078791399267  8.9749739435705358
 23.3002067001067701  0.4322656512922803  8.9703694365933675
  8.4353859528887529 15.3970780872756698 15.7467361721594017
 21.0034336815447773 32.0049592679133923  8.9736381975525976
  8.9806488997207605 18.6791952439411730 15.7510867859272015
 21.5389090760022484 28.7329336103920028  8.9782351728950776
 22.0795169413473396 25.4514524556176305  8.9734832734930823
  9.5208738978747949 21.9518524449662600 15.7391775621015544
 22.2141391970433482  6.9718727342317264  8.9741107805468197
 18.4329891318214685 29.9012701459320844  8.9766286717586024
 17.8924925403263089 33.1691766035837432  8.9722773055041607
 13.1647928163834766 26.3974424829079375 15.7489828407735004
 16.5482413173322875  6.0426163376198243  8.9721451482368959
  8.8441040583221380  0.1989429793090580 15.7517707174463659
 17.0808616179708075  2.7695926943056661  8.9779280467169631
 14.7929408873812740 34.3464391417509347  8.9762309436766241
  9.3863126812958306  3.4743756336729095 15.7424556268574616
 15.3241589199484007 31.0740617859326775  8.9762376366632814
  9.9273732519640348  6.7435690173246847 15.7385188774092732
 15.8655006349591794 27.7997688789465087  8.9653348913392819
 16.4135078412568056 24.5217959887876660  8.9681227683075182
 10.4691599241768714 10.0214519845833152 15.7418276885082733
 16.9466200336179433 21.2484079202544578  8.9780125120080907
 11.0021305584089593 13.2921707081047931 15.7424085161784379
 17.4863051652554020 17.9680255063227818  8.9721451482368959
 18.0274966611152685 14.6908375108328642  8.9743651929120389
 11.5465601217130729 16.5647636920503594 15.7509545403556572
 18.5691532168007569 11.4242851529127059  8.9763539368439691
 12.0928277841957659 19.8419635917453867 15.7458795466363632
 19.1157736268037333  8.1498959189950888  8.9743651925795866
 19.6475410889397786  4.8767954109055704  8.9766984025392098
 12.6235827145430974 23.1152005181876454 15.7402564263596449
 20.1851783910980771  1.6011126657654926  8.9660188231180094
 16.0031890268500661  9.3198853287692280  8.9640746531174589
 38.2848106463511755  2.0733841726916880 15.7448283032814871
