Se W 
 1.0000000000000000
    18.4794468037093438    0.0000000000000000    0.0000000000000000
    -9.2397234018546772   16.0036703798954392    0.0000000000000000
     0.0000000000000000    0.0000000000000000   24.7171056087856371
 Se  W  
 124  62
Cartesian
 -7.4490655329862552 14.6212321365516704 17.4269920646838692
 -2.0883673121505120  4.3037769719446102  7.2930475129182577
 -2.0893976201759479  4.2990878413693512 10.6586151569456771
  1.1927636377786097  4.8208892057740771  7.2946651882237648
  1.1903084354621203  4.8177083178770781 10.6591821937751892
  4.4683893660374379  5.3330425963259378  7.2958520825641608
  4.4711897005012773  5.3320006070503760 10.6602338558303806
 13.1138811391939143  3.7936687869559145 10.6517776830124742
  7.7431109055540563  5.8493318547060484  7.2900553157160992
 11.0299491176282149  6.3732737039452463  7.2900553157160992
 11.0223764789562502  6.3725897959553288 10.6391043431543260
 14.3072848691753070  6.8837062612399009  7.2934078198879897
 14.3079641210515405  6.8870257345353316 10.6583693836011388
 -0.8932977804570277  7.3936024138739898  7.2921873252314686
 -0.8849438114749955  7.3969949684379293 10.6489769353567301
  7.7474895068073009  5.8431157108891449 10.6391043430249859
 13.1203692700913255  3.7864613995222376  7.2930592355826320
  9.8434710008092665  3.2717174412256602 10.6391043425563208
  9.8402769633947891  3.2648173895845982  7.2900553157160992
  3.8796180538772451  1.2023344407183947 17.4234269324248174
  7.1512984226343947  0.6899161305840784 14.0568717526769937
  7.1508006444830450  0.6869699751938472 17.4212535264371162
 10.4293662198274486  0.1690971074320384 14.0587362251582100
 10.4319013420180919  0.1713450934001282 17.4236977888976448
  4.4719053081574076 15.6635978767455288 14.0584904514882325
  4.4683595558237190 15.6603610386333063 17.4240580958673590
  7.7482733990119206 15.1517809206566163 14.0779769948231124
  7.7432790167989172 15.1441342977964890 17.4269920646838692
 -7.4581848942600324 14.6217340871402364 14.0779769949249758
 -0.0038421100099379  1.7257268938095722  7.2901135441017662
  3.2791167900745326  2.2424331395845178  7.2936786763608179
  3.2744523169011379  2.2421573896577573 10.6521987635837885
  6.5548217164865683  2.7478665851175288  7.2930592355826320
  6.5643075622433988  2.7498817776674667 10.6517776830290511
  2.3913642764979639  7.9131271187065213  7.2934324180174688
  2.3888908542281224  7.9217575370326285 10.6496199221966528
  5.6623954683185609  8.4323715936335137  7.2934078197431536
  5.6591810941394574  8.4313001064503155 10.6583693836961011
  1.4828902988908930 13.5953843461040513 10.6496199219194985
  4.7663846554586504 14.1099419563901627  7.2946651878163138
  4.7703669864610641 14.1094061327082922 10.6591821939521907
  8.0451767203076159 14.6212321366510949  7.2901135441017662
  8.0542960815367817 14.6217340871121415 10.6391286134398992
 -7.1471678294813064 15.1441342977888542  7.2901135441017662
 -7.1521622120002855 15.1517809209437821 10.6391286138291150
 -3.8722483686047728 15.6603610386690466  7.2930475129182577
 -3.8757941209732749 15.6635978770476321 10.6586151573696544
  8.6436566489141313  0.1713450933789727  7.2934078197431536
  8.6461917710384260  0.1690971074320383 10.6583693838365878
 11.9247573464977172  0.6869699751101642  7.2958520823485058
 11.9242595683021460  0.6899161305861663 10.6602338562203318
 15.1959399370176680  1.2023344407340069  7.2936786763608179
 15.1985109804324257  1.1984327636231979 10.6521987637278137
  1.4891277488568988 13.6018416022359112  7.2934324180174688
  3.8770470105113968  1.1984327634656344 14.0649068452608201
 -1.7951547544448103 13.0715567178360317 10.6489769352456509
 -5.0665086410659335 12.5639788775308521 10.6591821939521907
  8.9381459997835648  8.9530949636167545  7.2930592355826320
  8.9351482847950550  8.9438723836942415 10.6517776830919324
 12.2201902739607675  9.4674103766497062  7.2958520823485058
 12.2178877174499689  9.4655062106381358 10.6602338559268670
 -2.9863252448590463  9.9761246073297567  7.2934324180174688
 -2.9776143718790742  9.9739514444830153 10.6496199221254333
  0.2980555936082107 10.4970311093937827  7.2880999108635276
  0.2980555936082142 10.4970311093937845 10.6320275956874095
  3.5813803698588265 11.0170031704240436  7.2921873252314686
  3.5742653469548329 11.0225416418972841 10.6489769353567301
  6.8547824615718831 11.5269553176037967  7.2930475129182577
  6.8593585218695026 11.5284076100565382 10.6586151569481569
 10.1382802593561632 12.0426553678445725  7.2936786763608179
 10.1403736892737797 12.0468327953104897 10.6521987637278137
 -5.0649815124735129 12.5602621659156828  7.2946651878163138
 -1.7939158084595950 13.0804877440746274  7.2921873252314686
  0.5999532972524951  1.7257268938517603 17.4269920646838692
 -0.0079670888726189  1.7175783202861357 10.6391286131875766
 10.1404097063129512  8.9438723836604588 14.0653279257563817
 13.4163768966914585  8.4313001064502160 14.0587362250895396
 10.1374119910727725  8.9530949636418597 17.4240463731224970
  4.7675938698324476  6.8870257345353281 14.0587362243764460
 12.5112504283689585  2.7498817778857934 14.0653279256767139
 12.5207362744782831  2.7478665852022059 17.4240463731224970
  6.8553677169704699  9.4674103767974884 17.4212535262886838
  6.8576702734359927  9.4655062106381358 14.0568717529651366
 15.8011056740270792  2.2421573893715432 14.0649068451164361
  3.5824364321704669  9.9761246070965068 17.4236731907681737
  3.5737255592246346  9.9739514448994093 14.0674856866237619
 15.7964412008287862  2.2424331397990449 17.4234269324248174
  0.2980555936082133 10.4970311093937845 17.4290056979220935
  9.2352810276513804  3.2648173895033255 17.4270502930703692
  0.2980555936082114 10.4970311093937827 14.0850780145045960
 -2.9852691826341040 11.0170031703659994 17.4249182836978882
 -2.9781541598272345 11.0225416419538682 14.0681286732792721
 -1.7952530894966712  7.9131271186198999 17.4236731907681737
  0.6040782756728827  1.7175783202739197 14.0779769950508324
 14.6071686249448724  5.3330425963392010 17.4212535264371162
 14.6043682904348220  5.3320006070503743 14.0568717526858471
  1.4810549990500359  7.3969949684215717 14.0681286734296709
 11.3324470853123263  5.8493318547385060 17.4270502930695379
 11.3280684842499770  5.8431157113741170 14.0780012657606548
  1.4894089676805158  7.3936024136383658 17.4249182836978882
  8.0456088731846389  6.3732737040778416 17.4270502930695379
  8.0531815119695089  6.3725897956858120 14.0780012656313147
 -1.7927796671503604  7.9217575371997215 14.0674856866683040
 13.4131625226074593  8.4323715936630670 17.4236977888976448
  4.7682731217504477  6.8837062612346669 17.4236977888976448
  9.2320869904634364  3.2717174411675161 14.0780012657878029
  5.6610926996916344 12.5602621659632607 17.4224404208074652
  5.6626198283013442 12.5639788775112002 14.0579234147631276
  8.9372777316218386 12.0426553677961117 17.4234269324248174
  2.6844784993309556  4.3037769719600174 17.4240580958673590
  2.3900269957858566 13.0804877440311280 17.4249182836978882
 -0.5966524505483558  4.8208892057475810 17.4224404207071188
  2.3912659419923266 13.0715567176132339 14.0681286732863349
 -6.2632473345954036 11.5284076099606470 14.0584904519893961
  2.6855088073534299  4.2990878413139306 14.0584904517860991
  5.9616768516051017  3.7936687869063879 14.0653279258133264
 -0.5941972483186971  4.8177083179370568 14.0579234146509506
  5.9551887207849914  3.7864613995188261 17.4240463731224970
 -0.8867791116627991 13.5953843464977417 14.0674856867893503
 -6.2586712743564687 11.5269553176504544 17.4240580958673590
 -4.1702734682422280 14.1099419563977513 17.4224404209693020
 -4.1742557992171045 14.1094061327446134 14.0579234143847049
 -0.8930165616975584 13.6018416023677187 17.4236731907681737
  8.9351843018852399 12.0468327953283758 14.0649068452018522
 10.4313566536493791 10.1513987022229752  8.9773601981861511
  4.4688569821962068  4.9941479298373403 15.7402864354633785
  6.2572779624187636 15.3113050068922778  8.9728347381952016
  1.1924693833355868  5.5020738118783150 15.7406472746403487
 -8.9416678082464518 15.8315879026922559  8.9618253729159818
  7.1490929153887706  9.6364527424324962  8.9768191734567075
 -4.7704518446480630 10.6691620132989691  8.9793003462914207
 -1.4949735263226620 11.1835030084996223  8.9659664277187794
  2.9813790482105738 14.8004218581976854  8.9793003462004908
 -6.8508390866623472 13.2507321185188385  8.9728347381952016
 -2.0871283899052768  6.0215094567477259 15.7378052621525750
  5.6640325685900494  1.8941511707952039 15.7397454106614099
  1.7890722572051310 11.7066039277597813  8.9659664279170599
 -0.3035730087770673 14.2833986606662329  8.9739091847967671
 15.4941877562338099  0.3501695959164848 15.7457269245351412
  5.0710223990020973 12.2199246947807492  8.9764583342713617
 -3.5804974220360593 13.7690948215713629  8.9764583342713617
  8.9389999476458755  1.3718854642048035 15.7424251803785289
  8.3484052372516189 12.7270279779259852  8.9713786842505066
 12.2180149285861859  0.8568222759238212 15.7402864353289402
  2.3919964765837620  2.4102253741825379 15.7457269246014651
 -5.6611667748594430 15.3113050069413976 15.7442708705904462
 -3.2818491952052553  9.1248729871437213 15.7431964239888806
  7.7453145360927698  4.4778674190877767 15.7514357739104014
 -4.4749112118445744 12.2199246947430762 15.7406472746106143
 13.4115254222878786  1.8941511707827394  8.9773601981861511
 10.1365580432709717  1.3718854640970624  8.9746804284071189
 -1.1929610701529880 11.7066039276740934 15.7511391810442429
  6.8575430623395830  0.8568222757876938  8.9768191734567075
  2.0910847133922905 11.1835030084943341 15.7511391811651382
  3.5813702346487304  0.3501695958310439  8.9713786841841827
 16.6835615146387042  2.4102253741409037  8.9713786842505066
 10.7271527537259672 12.7270279783333073 15.7457269245351412
  7.4469502739243225 13.2507321185953142 15.7442708705904462
  8.6442013372738487 10.1513987022194012 15.7397454105994967
  4.1766086090985297 13.7690948216002607 15.7406472747366770
  0.8996841958821609 14.2833986607304020 15.7431964241159932
 11.9264650757085580  9.6364527424413033 15.7402864351847054
 -2.3852678610318141 14.8004218581316120 15.7378052622035867
 -8.9416678082464518 15.8315879026922506 15.7552802356181534
  5.3665630318056934 10.6691620133079734 15.7378052624627518
  3.8779603824293511  9.1248729870935410  8.9739091847967671
 13.1199147604957087  6.5392108753942102 15.7424251803454425
  4.7704549103591907  3.4418730753119338  8.9773601981861511
  0.6000680499264153  8.6009863920491423  8.9659664275632771
 11.0268981896236387  3.9524580074416993 15.7514357739104014
 -2.6802205926865756  8.0828216803762487  8.9739091847967671
 12.5211357125483627  7.5763266087780563  8.9746804284071189
 14.3051030804877843  3.4418730752847115 15.7397454106614099
  9.2344337302021451  7.0570975219356491  8.9656698348752464
  5.9556432304300477  6.5392108753598945  8.9746804284402053
  1.4877279054008639  2.9290562027778360  8.9728347381952016
  2.6832395771493074  6.0215094567237681  8.9793003463318346
 -0.5963581961194703  5.5020738118765538  8.9764583341452990
  3.2763317798599285  8.0828216803275073 15.7431964239888806
 14.6067010086486668  4.9941479298251705  8.9768191734567075
 11.3302434548004296  4.4778674189866701  8.9656698350913544
  6.5544222782656574  7.5763266086362684 15.7424251803454425
  8.0486598012590420  3.9524580073700060  8.9656698346544204
  9.8411242609382281  7.0570975220047156 15.7514357745004556
 -0.0039568627262854  8.6009863920201521 15.7511391810442429
 -0.8916167180540867  2.9290562028263469 15.7442708705904462
