Se W 
 1.0000000000000000
    14.4672144689977884    0.0000000000000000    0.0000000000000000
    -7.2336072344988978   12.5289752521498805    0.0000000000000000
     0.0000000000000000    0.0000000000000000   24.7171056087856371
 Se  W  
  76  38
Cartesian
 -0.5682520797879321  1.6588011195300725 17.4410062737250904
  3.6073746537112727 11.9682985088994158  7.2884246120357865
  1.6988867221316208  3.4066951175876201 10.6430961839734266
  1.7082721577050526  3.4207479073285390  7.2884246120357865
  1.3297075638233053  6.7026625450079234 10.6678335461196454
  1.3276496788403154  6.7071885085201357  7.3051416474482380
  0.9544355007802517  9.9994946342050870 10.6678335461189846
  0.9515448441240305  9.9954494720952827  7.3051416474538868
 -1.7130688092265571  8.0260834498691729 10.6678335467327035
 -1.7081202674812355  8.0256026489042966  7.3051416474372894
 -2.1000515899589307 11.3314634449411020 10.6543846480111579
 -2.0817505722758565 11.3245506628096688  7.2964520447782464
  2.0863150387772884  0.1190506822398660 10.6262205845189506
  2.1014061193375255  0.1174732395527151  7.2760993339595101
 13.5051346847265528  1.4314245883500920  7.2760993342382836
 -0.5593404338485891  1.6465205814972297 14.0908850242722146
 10.8409818876678852  0.3408701600284968 17.4286809967498293
 10.8578446784215412  0.3419717905611128 14.0740094243610532
 11.2289400166155087  3.6396198683707568 17.4206535639126407
 11.2440771702769862  3.6272271129811111 14.0627209611704611
  3.6242374437578557 11.9671968781550309 10.6430961833171338
 -2.8555352792957907  6.9223601975873068 17.4158271062351986
  3.9953327819468969  8.6695488006578643  7.2964520447768511
  4.3780719552022722  5.3868084712069919  7.3012785022495121
 -1.3393440903946179  4.7148356287841890 10.6543846477879480
 -1.3425079546327172  4.7341411661390183  7.2964520445634866
 10.4687576608412041  2.7313759040978813 10.6531863959039192
 10.4574765556983813  2.7466988102495891  7.2951343112881268
 10.0949400265160314  6.0427610372706155 10.6636276481945949
 10.0904004085076302  6.0440494837343630  7.3012785022299767
 -4.7520499106119285  9.3543486341266071 10.6430961833715365
 -4.7445725560170633  9.3391942134573291  7.2884246120357865
  7.8000379588892965  0.7651202210285074 10.6636276481945949
  7.8034235951455395  0.7684074221120153  7.3012785022299767
  7.4239653196172606  4.0664217923644363 10.6689171523458413
  7.4239653196172775  4.0664217923644408  7.3034624769436371
  7.0577528039844166  7.3708122535468821 10.6531863957764124
  7.0501233301565467  7.3533810765388044  7.2951343113728786
  6.6742668001642738 10.6626480867837028 10.6262205836128096
  6.6653551547811549 10.6503675494086885  7.2760993341448668
  4.7453854938324591  2.0970772191593419 10.6531863959109181
  4.7642960730291541  2.0991854904188454  7.2951343113727019
  4.3769179735962158  5.3913841189938569 10.6636276479247574
  4.0104699354180591  8.6819415558160848 10.6543846475430311
 -2.8566892609001502  6.9177845498541926 14.0534779604907261
 13.5113141187240320  1.4175666075318014 10.6262205843649831
  8.1851520785575946  2.3137191968105340 17.4119639610014225
  6.2715274498637550 10.8777440804627883 17.4410062735392515
  6.2777068852821296 10.8916020611653455 14.0908850246687791
  2.4890346788555591  2.9699744554141114 17.4286809967498293
  2.8567931740113188  6.2651191850364496 17.4158271062351986
  2.8613327918941613  6.2664076314849115 14.0534779605528968
  3.2238693210932050  9.5624698586728112 17.4219712976793346
  3.2351504263220718  9.5777927649307948 14.0639192130293900
 -0.1834839045404974  4.9557875922569323 17.4219712975892342
 -0.1758544307162248  4.9383564150129526 14.0639192130818547
  0.1903580851183767  8.2427468764143939 17.4136431309556876
  0.1903580851183775  8.2427468764144063 14.0481884586637911
  0.5698163606636112 11.5407612465972260 17.4158271062351986
  0.5664307241628441 11.5440484478476559 14.0534779605027307
 -2.4693111613687990 10.2099831789572235 17.4219712976794909
 -2.4882217401904829 10.2120914495857171 14.0639192129868977
 -5.1322011151560307 12.1916954292176491 17.4410062744549457
 -5.1472921956781068 12.1901179864259834 14.0908850242722146
  5.8942631437999999  7.5943330400300626 14.0627209609968400
  5.8910992798705726  7.5750275026363285 17.4206535640041551
  2.4815573242234668  2.9548200346687779 14.0740094251955767
  8.9418793922080422  8.8884207618581481 17.4286809967498293
  5.5205384252925738  4.2830852189975879 14.0492720626894450
  5.5254869670316582  4.2835660199743746 17.4119639609998664
  8.1880427352059133  2.3096740345069877 14.0492720638951436
  5.1335556444212695  0.9777052238353418 14.0627209609255299
  8.5612569132935796  5.6019801603773756 17.4119639613440249
  8.9324939566267041  8.9024735510788791 14.0740094248905798
  5.1518566624282647  0.9846180059695906 17.4206535639140547
  8.5633147983282036  5.6065061238053877 14.0492720628115730
  5.5209086263444958  3.8532506393623471  8.9845777594444876
 -2.0861513432381322  5.1681547649622344 15.7375576129330916
 11.9968784036697382  1.8764420844048670 15.7554748308411696
  5.8995451586698451  0.5576107394638163  8.9795479957620987
  6.6593038288587438  5.8248209383833034 15.7295290752534473
 -1.7126986082342823  8.4559180295363365 15.7325278493411602
  7.8155034724752008  9.1196336392099511  8.9608806364820381
  3.6223294330267026  4.5066617721454190 15.7358309273026968
  8.1908820321956419  5.8211028099761419  8.9845777594444876
  8.5601053004192913  2.5249119277540202  8.9845777594444876
  6.2834777347888879  2.5250059431083831 15.7295290758710600
 -4.3816208210259857 10.4302708130200212 15.7562249715821761
 11.2248949088266805  4.5006407334037650  8.9795479961632729
  9.3291143952321018  3.8494384958364538 15.7295290758710600
 11.6044060725891729  1.2007338820139657  8.9608806360677065
  8.9435242566148183  0.5539885489602391 15.7358309272096157
 -1.3340620757391766 11.7515579289741368 15.7375576127880308
  5.1474558911284296  7.1410139042464031  8.9795479954852020
  1.3264980655789733  9.7842567409319869 15.7325278493014480
 -0.5743034055366495  6.4843477307081443  8.9875765336353712
  3.9912876743990005  7.8085279353300026 15.7375576126912087
 -0.1995203960770297  3.1874981220850667  8.9616307779444639
 -3.6112778015106106  7.8025068966210709  8.9812746815760320
  3.2409307168489820  1.2011527460463254 15.7554748318208144
  1.7099170220882243 11.7551801199200092  8.9812746815796061
  4.3707988384302396 11.1084347867975328 15.7562249718915641
  2.0955071607453437  8.4597301728358758  8.9875765325696619
  9.7060422691145707  7.1386150565696251 15.7358309272991459
  0.5818962377557491  3.1895350298620109 15.7562249726130013
  2.4724350346015127  5.1705536125636495  8.9812746815760320
 -3.9926765176515775 11.1080159223698054  8.9616307777470379
  2.8519864132792483  1.8788978556547269  8.9608806362752844
  0.9572747975550912  6.4880658586484676 15.7325278493411602
  7.0340868383152619  9.1216705467745491 15.7554748310849071
  4.7632711693289567 10.4327265844400703  8.9616307779168274
 -7.0432491493805092 12.4190719604643398  8.9437912114122238
 -0.9501294997232891  9.7841627256675157  8.9875765336445568
 -7.0432491493805163 12.4190719604643736 15.7733143969264038
