Mo S  Se W 
 1.0000000000000000
    69.0473289003947457    0.0000000000000000    0.0000000000000000
   -28.9809585002585521   66.2721524789819085    0.0000000000000000
     0.0000000000000000    0.0000000000000000   24.4856654507443388
 Mo  S   Se  W  
 520 1040 960 480
Cartesian
 29.1116641587426628 62.6877038072668142  8.0902294495410594
 27.4595217636893913  3.7406334827007708  9.2421174802584041
 27.5382207197448245  0.5602994058130919  9.1869476157293626
 15.6302196397474660 48.0660092459867414  9.3473237799804529
 -1.3615219543110775 63.6528613686771934  9.1684455843455837
 15.5708009617151539 51.2508550510316496  9.2869754247193388
 -1.2796477543663685 60.4741334302807658  9.1910072773760074
 -1.2001167917823299 57.2944518278914003  9.2507171894495830
 15.6843569163994765 44.8795585449135999  9.3898608540891502
 15.5040702725494395 54.4328331675954828  9.2153380007198287
 15.4297820208290197 57.6124196692270019  9.1486118798504510
 -1.0551585312005016 50.9285730926791587  9.4294467946309712
 -0.9914185116509909 47.7403343890717409  9.5112727988785561
 15.3498052936987275 60.7906726482560700  9.1061688434887085
 -0.9318764354047855 44.5480005135259418  9.5663626839387668
 15.2677145479851362 63.9685697106093585  9.1014423357008578
 -0.8749877846879823 41.3516738019140746  9.5861923172950778
 -1.1246618871670180 54.1129093824422824  9.3359102866105612
 -0.8193126804190290 38.1526968464822147  9.5671068584191516
 27.3871194748223843  6.9226421253766057  9.3205784222833543
 27.3222147087060279 10.1078806752265393  9.4018260605267727
 26.8096481568263663 41.9779268461094475  9.0012626737207349
 26.8637945162350000 38.7979392107435643  9.1282678241036788
 46.0145556337762969 47.2482185083782014  8.4832969379112377
 26.9162665596809063 35.6158932939686750  9.2435800379298581
 45.9420400920154819 50.4325354573912890  8.2512803854283625
 26.9673530662258116 32.4318769442160146  9.3434441305274749
 27.0173928528424590 29.2456696297090168  9.4251700666253448
 15.7357913299545977 41.6926939119930182  9.4125809915126997
 15.9365455402018110 28.9511870636732205  9.3070764956047913
 15.8859492208643136 32.1349428577445977  9.3608155611239283
 27.1146408685504170 22.8677988578262159  9.5215181106793061
 27.1624345115569668 19.6766056388661816  9.5309376007284019
 15.8360444319366032 35.3202865657303704  9.3971623009207281
 27.2117277728779214 16.4858701512993164  9.5129793721076048
 15.7859252187552954 38.5062942477032166  9.4148254130746043
 27.2644816187882313 13.2961938776763464  9.4687156656814757
 27.0659363496345335 26.0575912537681269  9.4855410794873851
 44.1668740731115150  0.8745299176463974  9.1379667557113464
 -0.7635232158277301 34.9520810365071810  9.5085336043589113
 44.0887817268310016  4.0537785344693011  9.2112791468154001
 29.6596461651679100 37.2796608179078248  9.1628363276032232
 43.5518707791743722 32.8027540472345365  9.3296749102446537
 29.7121023445099226 34.0952327562822006  9.3029226755850569
 43.4936538187542610 36.0030303903064635  9.1745015917105626
 29.7624869875225464 30.9080598781276166  9.4224589134606873
 29.8110877387909419 27.7180590957777468  9.5171565677061469
 43.4331474901082473 39.2008409222077390  8.9900208532019139
 29.6049175042208859 40.4613006236830444  9.0068339472784107
 29.8592222746884701 24.5260993966080427  9.5826333062822489
 29.9068448030746943 21.3326555993410061  9.6159677613220111
 29.9554387575598327 18.1389404247432360  9.6170221136304157
 43.3014375493805375 45.5840159383637769  8.5434955867446689
 30.0068323351798369 14.9462784464847438  9.5876813986111102
 43.2301651867452961 48.7684847932787875  8.2941245252420330
 30.0621342181318205 11.7551827092854229  9.5314993072935827
 30.1238858232317952  8.5676713503362993  9.4545972694599314
 43.3691433353866458 42.3949710179022148  8.7785644176892816
 43.6091361844516925 29.6015442708793053  9.4528785925580721
 29.5474867410347386 43.6409840656738766  8.8393145449693904
 43.6651993668414562 26.3995471304954492  9.5406283277184638
 -0.7078631640317612 31.7511995555220103  9.4121999762536710
 -0.6508987307938024 28.5510890322700881  9.2817675673396565
 44.0156075411531162  7.2350574598022392  9.3093716330620708
 -0.5924981455911159 25.3525433078563189  9.1206468166970218
 43.9487675446697352 10.4197163155423507  9.4143056525875402
 -0.5321595779632402 22.1568862917604328  8.9306988626906918
 -0.4695737151789626 18.9652457714231097  8.7139526470387256
 43.8874410700852806 13.6087732899701770  9.5057846329665683
 -0.4038011257229984 15.7788251031624096  8.4751700164526884
 43.8302604426668339 16.8023682586983050  9.5692108786758965
 -0.3345842608650439 12.5974537000598090  8.2250926088679019
 -0.2622976503415698  9.4203094754445491  7.9809471047620448
 43.7749154188047314 19.9992913641353134  9.5982854272391656
 -0.1862552052845679  6.2450277857007626  7.7636308038229691
 43.7203122287175603 23.1983719908588384  9.5894230645715588
 -0.1076112228308435  3.0697554354790544  7.5957673785598612
 29.4859759207241119 46.8182926475341930  8.6654249917843114
 46.0847595904436247 44.0589737492101392  8.7048369511819512
 43.1555144898557970 51.9489445178598714  8.0469261997321020
 -2.9764237842036114  7.7542814859243112  7.9302535074017264
 -3.0492172904754478 10.9319165670964136  8.1558985437703857
 -6.1555469650277628 28.4282200421774434  9.2317635048139941
 -6.0939186991342797 25.2252657007518799  9.1098840842298703
 18.5804649307084979 36.9843709694901008  9.3370555488094613
 -6.0318009004429953 22.0240627177649770  8.9616657921465031
 18.5298640414776017 40.1683970739637886  9.3194217849729704
 -5.9671215074110870 18.8269555195568650  8.7878511782480793
 -5.9009816848501622 15.6344337799170638  8.5901555142421344
 18.6308487039610071 33.8006342659946313  9.3394529476681019
 18.4785299933235088 43.3523770878414680  9.2860121916919915
 18.4250874800313760 46.5361469616195720  9.2373636891659689
 24.1714002339957901 33.9507882134108741  9.2965090741113592
 24.2219303454307777 30.7669746335514525  9.3546339723478802
 18.3683569045989152 49.7190808855538648  9.1758358153866588
 24.2720617882916727 27.5820235005327774  9.3966552138016333
 18.3060860526728888 52.9008122293124572  9.1045462779769171
 24.3213550881345029 24.3956246780167589  9.4207939021351965
 24.1202422931074416 37.1327256325007653  9.2242878257555407
 24.3701836956179179 21.2084748665532885  9.4251183112356340
 -6.2157391831102320 31.6322229289343433  9.3265197244840774
 -6.2762770646867381 34.8360380979864956  9.3917830099929276
 22.0033969097118174  0.4508978908549466  8.9031407458964349
 -6.8958035180749429 63.5443643090847772  8.8924068982587219
 49.1765645933999593 26.5132416861177198  9.3934111971093905
 -6.8135754081254678 60.3660631118205302  8.9259264723186078
 49.1164620284362172 29.7181056238296719  9.3428060459954363
 -6.7338294128612892 57.1868771354521996  8.9992691934997229
 -6.6588001702567778 54.0058017197772884  9.1006154893870885
 48.7979391099142106 45.7237269711288477  8.6829644900604279
 49.0558990223952094 32.9223974891827567  9.2630193435695869
 48.9943697579052539 36.1260668571444725  9.1557379662953355
 -6.5222290550637254 47.6334204264865022  9.3112175651989872
 -6.4590608212929927 44.4395352027344686  9.3840708225279954
 48.9312055752794635 39.3283665953994230  9.0222047797846638
 -6.3970902654605064 41.2409409733764249  9.4224643253988418
 48.8657047748119879 42.5280535764618008  8.8641859003703445
 -6.3367137618019962 38.0392070609900657  9.4246675964306252
 -6.5883704881333811 50.8218853632112655  9.2115456338497363
 18.2361310537001735 56.0809101783760795  9.0327478864757946
 24.4191091636877111 18.0206114171826854  9.4081768195875650
 18.1587571256149332 59.2589399109384729  8.9775894242745551
 -3.6091465052036038 39.6975136095910841  9.5152046727388999
 46.5094527111654159 21.6524424084521847  9.5134419452532573
 -3.5508130870246561 36.4962210335990775  9.4848520922776238
 46.4515886771907915 24.8542517204804057  9.4945444138591419
 -3.4921624668120725 33.2938498413705304  9.4170568748104806
 -3.4338782093115525 30.0910740654498845  9.3154083955262728
 46.3935202208064368 28.0573030744649081  9.4385778823377464
 -3.6677048929262193 42.8963138323116127  9.5063741511050406
 -3.3746574667846345 26.8894700740449117  9.1839050671750346
 46.3351717162298016 31.2606124730081625  9.3488979493873607
 -3.3141768393743285 23.6898197771391459  9.0247214733129635
 -3.2511253793476818 20.4930675867529644  8.8383378793831877
 46.2750898821389356 34.4631110009824937  9.2289968615779134
 -3.1860774660911360 17.3003228397658013  8.6264909930944160
 46.2143243198002267 37.6643021519505865  9.0805757312035880
 -3.1190267309413766 14.1132105189955475  8.3943976785071257
 37.7967815915042067 45.4449826959793199  8.5405932000234319
 46.5666338890135165 18.4527102443847539  9.4943059176972682
 -3.7275537690018674 46.0913491819503136  9.4598071851240846
 46.6244371144287229 15.2565908445370919  9.4389085832327293
 24.4697828049118016 14.8326095281617452  9.3693505244219928
 24.5241284544357683 11.6452737547148768  9.3098664241776472
 18.0772419154575203 62.4358077694016131  8.9558263935827025
 24.5846718675085576  8.4602232614244119  9.2338421813028440
 17.9948437733252327 65.6123377514358879  8.9757407802108649
 24.6533914174976587  5.2775433549568591  9.1524398887079474
 24.7290915230647670  2.0963231195111329  9.0852292569581614
 46.8952780560593609  2.5177189999598908  9.0369043346603863
 -4.1711946161429010 65.1889856618538062  9.0503666798247195
 46.8193558344162071  5.6969189521824495  9.1304158006520524
 -4.0885895023916747 62.0099300756330720  9.0567663847657016
 -4.0075690437354403 58.8306461456113468  9.1042754534626305
 46.7488346357376869  8.8790908336816976  9.2418456588998321
 -3.9302688516159252 55.6504611358500370  9.1848707749728771
 46.6843558212794889 12.0653262505293153  9.3511450140091412
 -3.8574865662663376 52.4683184359799029  9.2838882283844146
 -3.7901831136440203 49.2821227177178400  9.3816855215368751
 46.1511210409932744 40.8635237904731028  8.9051751382734512
 30.1936375699027835  5.3843310258857606  9.3703718789776111
 43.0784201854538722 55.1257472392341796  7.8232022102135277
 30.2695061405110835  2.2030823196268670  9.2992860496066267
 10.2971345978956954 35.1839666462936478  9.5115830349566295
 35.1926451970621983 37.4166005108407305  9.1351504725698369
 35.2465805071210880 34.2258917286824627  9.3148597642902544
 10.2484963746794051 38.3760171204806753  9.5650567811559046
 35.2978005899992837 31.0320861615864771  9.4645092120514338
 10.1988408708840748 41.5684528757617358  9.5871956685438509
 35.3474883168822416 27.8365136182130897  9.5806931047380051
 35.1349254967351712 40.6030090542848470  8.9298083917053219
 35.3964923075040616 24.6397992740287712  9.6600770766317314
 35.4451596779181983 21.4424811355739244  9.7008478824872189
 10.0922020325025841 47.9517092917562593  9.5405143945931172
 35.4954972245494602 18.2458339055652843  9.7039490148904974
 35.5485358809305581 15.0512976507638196  9.6726214790140030
 10.0311034463419109 51.1394066077915497  9.4787016082325142
 35.6052168711163333 11.8596190644928345  9.6112024019247055
  9.9627114674071962 54.3234347573140681  9.4032756493773402
 10.1470752967382012 44.7606686590177247  9.5782842504262771
 35.6678484146365733  8.6716781957528344  9.5272487145971603
 10.3468240867725783 31.9938547091620400  9.4280447741780158
 35.0058667834694006 46.9632902590628021  8.4672459069589063
 40.2856425146018324 56.6360448334267161  7.6916840423821444
  4.9208057842634698 25.4809423762041440  9.1579416115313848
  4.9782323651115759 22.2922861345536631  8.9660124208908893
 40.2036921046398703 59.8115386671524405  7.5478778147631358
  5.0383703733711860 19.1074157485441916  8.7505051406170384
 40.1214599220730790 62.9881311200954954  7.4806821051435932
  5.1022920103418210 15.9263188313216535  8.5184847125920644
 35.0727969568867337 43.7848860057857294  8.7041770355602033
  5.1705397930675092 12.7488914249939462  8.2805875678910041
  5.2428632455765962  9.5743553755226607  8.0525164906681468
 10.5033020736773448 22.4367828230398914  9.0329489191567038
 34.7790133792613858 56.4841001344247573  7.8385857745280676
 34.8583076178153775 53.3113331368433521  8.0160365330485188
 10.4495500985998540 25.6202651754384156  9.1845964330334056
 34.9344545231351091 50.1384131266516846  8.2322116564540444
 10.3974910190666989 28.8058553988896939  9.3175635294226602
 10.5596263522167373 19.2558435619090531  8.8667843580163197
 35.7372281415640032  5.4878748482206055  9.4368046799400975
  9.8871145675193350 57.5047244972293257  9.3325904493367009
 35.8132349209335672  2.3071690847240141  9.3605451574646406
  7.6566865587639432 27.1434725900557616  9.2505110966326711
  7.7110653442452621 23.9563453645637559  9.0851869093046815
 38.1890797651441005 23.0928756723226059  9.6802133679219882
  7.7677484952276217 20.7717616320120406  8.8989222465315123
 38.1390103641851965 26.2916500509492508  9.6208625329832831
  7.8276941768535000 17.5903149629281721  8.6967251441370816
  7.8918909661313474 14.4124446823598955  8.4850000716256755
 38.2397919614695425 19.8955078899384468  9.7003283421393665
 38.0881694167860658 29.4905542609660607  9.5224405838306172
 38.0358924583378055 32.6877579827773914  9.3871200189155957
 37.4912466168484571 58.1463647352492075  7.6544637204732418
 37.5728442266747251 54.9722695355064772  7.8219953590596676
 37.9815802309466335 35.8827669774797684  9.2173197355320013
 37.6517329672311192 51.7985623782379818  8.0397770153422314
 37.9243988939816177 39.0750624175310790  9.0161960577176465
 37.7263964237855873 48.6230770284412444  8.2857812565572146
 37.4088126112833947 61.3221757908982710  7.5563943703758873
  7.6042539533720763 30.3328850281278690  9.3911250837745683
 38.2926149909846316 16.6998635119861802  9.6833932713395594
  7.5540547584094799 33.5249853088710239  9.5028730562575170
  9.8073103332591547 60.6842641859054197  9.2857613370299603
  6.9125573667932754 65.3998615813833482  9.3146710510348179
  6.9945590157602382 62.2213294078475485  9.3074419658540819
  9.7253397788822422 63.8628195629203503  9.2748392268905171
  7.0758055115881060 59.0426731863936709  9.3394494308704186
 38.6251434896764252  0.7697393410790829  9.3044804996141686
  7.1534999867551639 55.8618996687212501  9.4025907315004105
  7.2255114162835339 52.6789152160990213  9.4813224342799529
 38.5473285911214560  3.9496181650696509  9.3701794261715552
  7.2912077517906067 49.4926203338092279  9.5555445437368771
 38.4744359805746754  7.1315053474050139  9.4596056010952836
  7.3499775250156905 46.3019262237130675  9.6091004844379917
  7.4033904802193806 43.1083363286864412  9.6339112680044661
 38.4079487151202059 10.3170369179080925  9.5538939123140008
  7.4545776120645160 39.9140021700543741  9.6255169168747621
 38.3478791290608640 13.5065552920675245  9.6327208055240785
  7.5045226704714665 36.7192944709282898  9.5817463047665488
  4.8661644318014998 28.6730617898089832  9.3225454941157437
 40.3659293060371809 53.4610547913311578  7.8959508329767791
  4.8136382975056256 31.8679971710934957  9.4565832387073510
  4.7621371515740787 35.0640175875617430  9.5570856665014841
 12.8895432377975112 46.4133826693449336  9.4820703032202331
  2.1915107411818102 23.8188755067726667  9.0456896512868816
 12.8326356599912597 49.6010355135829499  9.4329355271622486
  2.2516389171371864 20.6288308231188715  8.8351627051975079
  2.3150244399904154 17.4431672775235391  8.6011274499971844
 12.7686809353939239 52.7856257763873344  9.3650153051898481
  2.3816990331587067 14.2622168831844487  8.3529534783487751
  2.1338523737054023 27.0133750512211321  9.2280053887853946
 12.6973004137297156 55.9675126976594228  9.2914933037817082
  2.5277770230084027  7.9104951865710351  7.8739817985734364
 12.6192375383409399 59.1471345220159179  9.2326719410540399
  2.6066142699371166  4.7360865719976806  7.6834608255966028
 12.5381259974398382 62.3258567848548353  9.2051474448179871
 32.1414947732524539 51.6523021750103553  8.2484456753474351
 32.2132534528756764 48.4787630616594569  8.4488080533037202
 12.4560664411395337 65.5045390175101545  9.2175405306254401
  2.4527123025880857 11.0854030581592227  8.1044631427874947
  2.0781938554152699 30.2103813325697992  9.3796371751251719
 12.9422333708799329 43.2237924840051448  9.5072848510741057
  2.0241951601481327 33.4084650988211465  9.4979050736431212
  1.3681153312499441 65.2954583321339328  9.2581179821268016
 42.9989198656719580 58.3015991027964446  7.6456331525519481
  1.4503846993264222 62.1171425691447254  9.2561732481151626
 13.2436632258509999 24.1025012361644002  9.1474570514290061
  1.5311294809474616 58.9378289501601671  9.2938458933039794
  1.6085959687406104 55.7567141852195292  9.3636001467383831
 13.1919560196383703 27.2852654587774524  9.2598522219016477
  1.6810588038762684 52.5739364773731310  9.4505421071813469
 13.1409749507236491 30.4697337318725658  9.3547133888962630
  1.7472659289633539 49.3873566644786948  9.5345456417063339
  1.8080385657609006 46.1967675952432586  9.5974519362797732
 13.0911322980432470 33.6563251482685146  9.4292734698898268
  1.8643672722174387 43.0027933215809028  9.6287358704613482
 13.0416020556792187 36.8444113720816446  9.4806115096121530
  1.9183622819347428 39.8059146544692837  9.6234605434434037
  1.9710686683117127 36.6072815595105041  9.5798504929187320
 12.9924981432360696 40.0339142130218804  9.5067752675155877
 32.2798624842310318 45.3028088606048982  8.6584049563080026
 49.2368408225960152 23.3093973737073803  9.4122496909002997
 41.3573472939200997  2.4117240555162689  9.2696845476366985
 32.4002123706880667 38.9418303280092388  9.0567341775681136
  4.1815645210454964 63.7587521017858663  9.2982176131444252
 40.7680205973738694 34.3448724063804107  9.2846989869247594
  4.2632607889427661 60.5799255619935977  9.3132899528659507
  4.3424449051337506 57.4001516810991319  9.3649866503381816
 40.7101472610436375 37.5411457161165103  9.1017044233576563
  4.4177268180159217 54.2183080437511435  9.4417987921028512
 40.6493590150751132 40.7340204201842582  8.8892907842754738
 40.8234345443152051 31.1455754652001104  9.4351037358914631
  4.4864897039745113 51.0334925529209897  9.5251124915718695
 40.5848110693818711 43.9225716340198034  8.6514455339721934
  4.6068989140553072 44.6524522066201754  9.6381204135998306
 40.5156878397037374 47.1061270861623242  8.3966651123707798
  4.6600772750223172 41.4569776649954633  9.6479213021117598
  4.7112010610224297 38.2604109047705663  9.6212046079803031
 29.1929141047280929 59.5144113086917699  8.1191873293987307
 40.4426173577991790 50.2849963874396124  8.1383765965975172
  4.5495426363948495 47.8450068329445699  9.5950373725580835
 33.0805679718563468  0.6654368057670291  9.3231979407812862
 33.0022530504412472  3.8453631462235736  9.3834067584331891
 40.8770075561670723 27.9451963019991645  9.5494779102464733
 41.2818831372756776  5.5922932101517988  9.3531125664771722
 32.4545688890855288 35.7564828407943125  9.2321981280399648
 41.2118830197758115  8.7757466587463870  9.4518833130466806
 32.5060586207544731 32.5680203278716647  9.3850054884128813
 32.5554874578768860 29.3764551978660968  9.5100392815060264
 41.1480620273294946 11.9626563738989287  9.5458257051164779
 32.6038685242139223 26.1825628651256821  9.6028695282289629
 41.0898560921676221 15.1537911151212938  9.6171278611756605
 32.6520236217894251 22.9872659823723353  9.6597612675341846
 32.7002916989497976 19.7911855446954377  9.6802363826973732
 41.0353725629594948 18.3486670274071457  9.6565679946093557
 32.7506939932231376 16.5960446103618509  9.6664231466911001
 40.9823371587204193 21.5460728898188059  9.6601236143997031
 32.8043410248658986 13.4030956511804078  9.6218838409070599
 32.8634041989694268 10.2131768827734941  9.5516706921854713
 40.9299160068279235 24.7450928939130819  9.6248666372241463
 32.9295713495109297  7.0274849333391822  9.4660485577719822
 32.3418021213141245 42.1239625260573547  8.8637204459946481
 21.9246426264915293  3.6302916057662018  8.9534978477868847
 37.8630034442973695 42.2628004427103932  8.7881128778040551
 49.2966326360124256 20.1071412413409369  9.3977492465186465
 54.7396085725842241 23.4296960878758647  9.2170792925159652
 -14.7532378529952748 45.8581432981732391  8.9332299647172206
 54.6770149889055261 26.6349921918532004  9.2547965672676291
 -14.6858361123002776 42.6597585724334678  9.0506244403518021
 -14.6208235420291945 39.4573237246495552  9.1427432166666058
 54.6149720069428000 29.8409860819539645  9.2659863928624979
 -14.8228380490672187 49.0512228267364705  8.7916085465737162
 -14.5574212943922703 36.2528118960553982  9.2098045790578524
 -14.4945014748441281 33.0472992998335187  9.2509154344699560
 15.9870417792313653 25.7686138665565814  9.2376515206588365
 16.0381829639910194 22.5869349163192261  9.1537799481064326
 23.9581336795609090 46.6729924410091712  8.9415348629032252
 16.0907388151092938 19.4058027792710277  9.0572950435225401
 16.1451243695447531 16.2249952016114563  8.9514004272032892
 24.0678682363284935 40.3132511362842436  9.1393422672661053
 -14.8951389539742038 52.2382492975836428  8.6351211534608900
 54.8025954958143586 20.2266155289293863  9.1524152963661685
 -14.9702689036934231 55.4198971697210609  8.4820784556991118
 13.3525533409543655 17.7413876088583038  8.8837924422792671
 55.2192527250856386  1.1090306535037082  8.3993484234719968
 13.4107421858518414 14.5623182591290057  8.7405082987610605
 13.4734969452616973 11.3842600825694422  8.5959629520843546
 55.1417799781422318  4.2840193778123350  8.5064290346524434
 13.5417846723790554  8.2067843914733860  8.4591206062844186
 55.0678218990512960  7.4612111704693982  8.6452770521523519
 13.6152336942823151  5.0303815036815109  8.3433765941785705
 13.6924416658889356  1.8542206531909891  8.2647909019594579
 54.9980615029447648 10.6430436841784495  8.7966516624608051
 -15.2090839745106781 64.9499717943768502  8.2368636746035584
 54.9311837843225064 13.8314453797454568  8.9399963420972828
 -15.1281068378198444 61.7740406936818971  8.2672349728612744
 -15.0480774103698209 58.5978690251273093  8.3531115155549678
 54.8661374204726897 17.0266115181713147  9.0600479873938760
 23.8979862755121921 49.8517029652019730  8.8365114626513730
 26.3181799476365796 64.2066208581238556  8.3397705774732831
 16.2027242794101554 13.0445910069000863  8.8400598494195091
 16.2647027159826933  9.8653124753100006  8.7274306316545243
 -11.8401010250416725 37.9184003613739975  9.2520402826157948
 -11.7774493176137671 34.7129912462478316  9.2733384412939817
 52.1445867917587833 15.3668384288600510  9.1635688130270374
 -11.7151087290179419 31.5072005151055947  9.2670648018583162
 52.0822983517796985 18.5646572015657050  9.2455403680545807
 -11.6529621786462183 28.3014166958873226  9.2338965233817429
 52.2084438569588016 12.1749214802327899  9.0511511077008677
 18.6815476021220590 30.6177309700799292  9.3273993921366269
 18.7318325544168651 27.4349058761917597  9.3012339124423029
 51.9587456877987606 24.9705532523484202  9.3186682498627071
 18.7820637265262356 24.2520330899264032  9.2607902572429577
 18.8325616220365042 21.0694471696562964  9.2060991521090134
 51.8968020907745355 28.1759560820601394  9.3114177529267081
 18.8840864660424970 17.8869775600040875  9.1382026489931061
 52.0203533599356831 21.7662526702688019  9.2968215372403264
 -11.9039844097296861 41.1219407234587209  9.2033449661367666
 52.2755414108009830  8.9893444809077661  8.9180845609056902
 -11.9692508164420399 44.3226850311737550  9.1271562441231335
 16.3328948264258003  6.6865032500202499  8.6207715760427526
 23.7603868142114045 56.2047837571557238  8.6453611107372126
 16.4064555850031084  3.5077958240849147  8.5339126712920645
 23.6832710773842940 59.3802726821439961  8.5842184812646032
 16.4842359884792771  0.3300202985042185  8.4839541256053863
 -12.4155387094113134 63.4261357040760245  8.4826730290736805
 23.6028960302620874 62.5556486986345917  8.5645983583203513
 -12.3338410217094552 60.2504720127308175  8.5334227909837388
 23.5215529164905632 65.7305574236281700  8.5939650878688951
 -12.2546841252624485 57.0730018483072925  8.6296389637322317
 -12.1787696162222101 53.8927515202290337  8.7569065653791949
 52.4225729181666154  2.6328543465615173  8.6706355082136728
 -12.1061101678064205 50.7083304437575606  8.8950390247482343
 52.3466255884374050  5.8090279488082235  8.7843371904123551
 -12.0365275214123315 47.5184928041943380  9.0231804085105818
 23.8324529802826888 53.0288515462861909  8.7343778877692966
 13.2971534861912453 20.9213205297379545  9.0209984031371917
 37.3261146346108532 64.4993959202676876  7.5385959804700438
 -17.4008550983381376 40.9944617981127237  9.0121147471608811
 -23.2569210261397430 56.7911366214457374  7.8333072135415449
 -23.1799371745523644 53.6133013835395644  8.0276304958488254
 60.5715486215481818  7.6015484635777097  8.2288047205048898
 57.7162038416848375 12.3034489039570261  8.6870295340257915
  7.9606468673245745 11.2369703053427070  8.2739943703024359
 60.6452837932729381  4.4238676839710536  8.0605658340488180
 60.5004067486834032 10.7825886894201428  8.4197914599158050
  8.0339123669241435  8.0624377282956843  8.0800969815198105
  8.1108603352097166  4.8880897507477679  7.9223440413391550
 60.7225050355780098  1.2485395377659394  7.9350524809894694
  8.1914791222381567  1.7135032612275949  7.8179791154931788
 31.8222955739296083 64.3463020806813120  7.8694448050320709
 -20.7078154472742568 64.8101497436952059  7.7802752697441386
 57.5838066937283202 18.6908700314399674  8.9816942511223878
 57.6489652015153737 15.4937309614823064  8.8459466452272721
 57.7856918368846237  9.1194903436396348  8.5157753184308742
 -23.3361022359989008 59.9682163662524204  7.6897618458763244
 60.4314980402533592 13.9681685510900682  8.6128638267644746
 -0.0266412256821813 -0.1065938894558582  7.4974933196493696
  2.6869247654046058  1.5599743817644787  7.5544537295683547
 29.2727401010116672 56.3412413596132851  8.2042886014610534
 29.0302889001053011 65.8612103580954766  8.1230468303603942
 -26.2120521230035024 64.6554306073716987  7.5028829297109505
 29.3485824865551130 53.1674665174897001  8.3341119687617429
 -26.1295507867636481 61.4785272555959068  7.5343229198462360
 57.9332172121280564  2.7637474415793850  8.2145561018657034
  5.3194124009928059  6.4004358832114763  7.8530981563893114
 29.4196780518476046 49.9935475143924037  8.4929938367891626
  5.3988928305085802  3.2255130543764912  7.7032562632249917
 60.3649258523165173 17.1600177568132750  8.7909475576577627
  5.4812041054535943  0.0496928403888118  7.6206062358107856
 57.8579945485646263  5.9401520207774610  8.3516494243820265
 -23.4171753464839121 63.1453330623401996  7.6154953699071184
 -20.6265474035623377 61.6332557761512092  7.8158807397278327
 31.9041148919778976 61.1720850266051386  7.8729642327848905
 -20.5469590377273335 58.4556466088892819  7.9212215311404028
 57.5199701401906651 21.8922410835477237  9.0914619341342409
 34.5328237343084439 66.0092421022971507  7.6987232887692265
 -17.9184576217916884 63.2937206494055360  8.0064134127505557
 -17.8384923023270900 60.1171580987641292  8.0725624874722453
 34.6148632768733009 62.8334808505549560  7.6700890346604673
 26.5554790950677493 54.6850949256689418  8.4742363848298972
 -17.7597439487784889 56.9399505487086088  8.1952365231121167
 34.6974540248708152 59.6584757225204285  7.7187293142847953
 -17.6826832313950568 53.7607358724949762  8.3567057537578009
 26.4791242216077620 57.8591920623619842  8.3832135455455283
 -17.6080289140717383 50.5778046286313412  8.5368837845517760
 66.1465426834338075  4.5784762055554928  7.7387298524012902
 -17.5364579267035268 47.3887137198903829  8.7152923334611732
 66.2254721000289379  1.4033365735355925  7.6023517338322941
 -17.4678436210713528 44.1936397359967330  8.8756660406816597
 26.3990335991251470 61.0328688533022756  8.3352322004885764
 26.6265668154987765 51.5097764799124462  8.5941454584603143
 51.8356367825812825 31.3820805852099483  9.2756285375497409
 10.9824297412671168  0.1980367044050671  8.0056815798959704
 10.9021821959874927  3.3733339625283900  8.0681931124079931
 31.9858306515577908 57.9982766574592077  7.9442846063769910
 -20.4694404917593715 55.2775071605932737  8.0810085598381747
 -20.3938867333102998 52.0974429614269283  8.2750250150314830
 32.0652792873254242 54.8253594694374655  8.0742650224559842
 57.4566814197067615 25.0958668124002209  9.1751731378191685
 -20.3203101702601572 48.9133761935399320  8.4822312409112417
 63.2143013185967177 12.4475176248220833  8.3753551013857326
 10.6191215882118382 16.0767426929352197  8.6910605707782018
 26.7523211094605351 45.1559945172070698  8.8660431077191291
 10.6826355758943166 12.8991946625882186  8.5109921332234482
 63.2844172560092844  9.2660827219761845  8.1585995254892794
 10.7509125015141542  9.7231444086317094  8.3365462754154933
 63.3569992541951663  6.0880086503063717  7.9600569980517601
 10.8245551248176337  6.5480764415919852  8.1833228736825454
 26.6918097308856090 48.3330901723666173  8.7282730352072964
 63.4335067730921054  2.9122252290841457  7.8000429371963680
 18.9375600912028865 14.7046866378184156  9.0595415591837138
 24.0144636366537050 43.4931690705607465  9.0439934499392240
 21.7302241638896341 13.1781200155001983  9.1882823831627327
 -9.2485862637076988 45.9806324226787027  9.2220905525568160
 49.3566302719741827 16.9082724000242521  9.3491133966425721
 -9.3151543562691810 49.1730184915134672  9.1224253842388592
 -9.5357392053921490 58.7205790052861616  8.7811646128879541
 -8.8738216912644781 26.7624690130560090  9.1809058555024894
 21.5767653098004857 22.7327579813477136  9.3273336542271821
 21.3755584919920878 35.4668332576206140  9.2939996184826992
 51.7106673654410685 37.7915999714157138  9.1246427499539724
 -9.1839602254304573 42.7828627868394022  9.2916976900181218
 49.7003709661114854  0.9856941184740712  8.8301430856922138
 19.2014723015199351  1.9809203166819092  8.7277674301750743
 21.5268299754064003 25.9172597533365590  9.3415261198469182
 19.1258584449159166  5.1596073080673772  8.7940028850973153
 -8.7475263613467540 20.3576171798974350  8.9460029267647858
 21.1030949315830618 51.3735595982111164  8.9705368018070786
 49.5485536169705014  7.3416587360413130  9.0312524571925028
 -9.6165062707078395 61.8985479833232546  8.7174444818873482
 49.4172675400105703 13.7136720592445069  9.2663376989327944
 -8.9354690614820313 29.9676050558211671  9.2604139777452232
 20.8831506219804623 60.9065813705136918  8.7811168392507462
 49.4804542972828472 10.5248094193218620  9.1549142562538908
 -8.9969638895375699 33.1727301831355064  9.3128323138352584
 -8.8109220237010906 23.5590702798241267  9.0761470129396713
 -9.3847041088146987 52.3595255249326996  9.0025128018409077
 -9.0588751614158873 36.3777153639724418  9.3362050811258257
 21.1638244186472484 48.1934476786162520  9.0520688934757416
 -9.4581766619496825 55.5414453929760370  8.8816115081318934
 18.9946452530845491 11.5225109407573090  8.9728981765502631
 49.6221514743888790  4.1623298858540503  8.9169817368539448
 21.4264029292581739 32.2840968511550130  9.3237282998900675
 21.0361529992907208 54.5521797140161979  8.8890768282248764
 20.8013317173985968 64.0823495253091266  8.7831787399016310
 21.2729685148794161 41.8307032333860960  9.1955596486361966
 21.3243896236560673 38.6487004325952626  9.2513158401812330
 51.7733620763448670 34.5872353133629389  9.2129696396528917
 21.8520063047875119  6.8107611014868059  9.0300504394474839
 21.2198314968907056 45.0123581391385272  9.1283521468770292
 -9.1207607193968929 39.5815179669366088  9.3293626761402688
 -9.6988975596735667 65.0758459338613306  8.6995671019261351
 20.9625716274900391 57.7298179098363349  8.8204627866938701
 21.4767565246228891 29.1007998120907878  9.3399509844399731
 19.0568412825918756  8.3402896156307484  8.8814044850101794
 21.7871971757385019  9.9933481644921933  9.1131081949871664
 21.6264118367046301 19.5481504229589653  9.2968333033864710
 21.6770723494804010 16.3634380781482989  9.2500255443626269
 38.5129291791265658 53.3031195081862279  6.3548964411900970
 16.6984267246307354 43.3175359136697367 10.9213630440911196
 24.9414117109481843 48.3376113793033753 10.3921312062335947
 38.5952802111024198 50.1141604595918153  6.5927796203956452
 38.5492859759446205 53.5175927796637723  9.4753404783557595
 38.6196365226207590 50.3561081617045829  9.7104666394282848
 18.8587325186663719 64.0524939818948553  7.3454004368323478
 44.2241848041758345 44.1257872130393380 10.2320428847925378
 38.4256187235056501 56.5016689019735594  6.1559170204666023
  8.6138903526381458 25.6505102903401934  7.6144109177204262
 55.6573678608278044 25.0324290430579133 10.7745922274080517
  8.6387299584415782 22.2937815108970518 10.5624137530509739
  8.6816666625849894 22.4756188597308508  7.4464407669336730
 16.7742563810781711 36.9264285593562533 10.9417168660302391
 47.7606102258544283  0.9773533898100170  7.3883652195266167
  8.6811264313661862 19.1029983178203118 10.3771316547191486
  8.7546450717318578 19.3008717159525283  7.2613098196362422
 24.8401115627844398 45.0507686393702969  7.3901862210652958
 16.6327841426229845 40.1161304291673275  7.8222417460062585
 38.3236318061889918 62.9456376245132745  9.0826535292394883
 38.2485653366055729 62.9260617321155493  5.9555177323359230
 24.9807909900238378 45.1567599800095181 10.5078578777015021
 16.7378283816176499 40.1216132918830226 10.9409359364709182
 38.4003315665282514 59.8085595677447230  9.1436070288715108
 38.3369507822333020 59.7106780774464951  6.0172273865786741
 19.0626725277357778 64.0372491078999673 10.4618452931897821
 24.7625006924255864 48.2285287795143702  7.2759886781215251
 38.4752242538714739 56.6672225252578983  9.2792273016326003
 16.5704374898058617 43.2920488434544026  7.8037179091535958
 16.5085006510847734 46.4686228430840274  7.7663474016639418
 16.4465448254330795 49.6458171193276456  7.7119434243389993
 24.8952908244153157 51.5142561532907095 10.2780463952523835
 39.0219801813304699 27.8598658628343614  8.0064096995301366
 19.0195227597641541 57.6617346846973788  7.3848157836564896
 16.3101596629289034 56.0085343076862188  7.5733984821041114
 39.1002525531465892 24.7371557544509599 11.2003752068850755
 24.4307259408559254 60.9770939883794085  6.9355342521043859
 39.0714967562393412 24.6792943551013089  8.0841339432609836
 16.4767322711348001 56.0761756642108722 10.6903304807858621
 39.1540552908823756 21.5199884081372410 11.2387327741629246
 39.1203630306326957 21.5004038399597839  8.1222572304619582
 39.0465458118580102 27.9557401848946725 11.1225240214464147
 24.6982293661672614 61.0017136191985045 10.0502255454826006
 19.2961771276371863 54.5474360598844328 10.5667760367425316
 39.1697421245576791 18.3222410517898595  8.1220815672387410
 24.3494325947112067 64.1766593512403887  6.9403037042248812
 16.2323592114676813 59.1994450829080350  7.5176275772225782
 39.2664020643082168 15.0948591650934780 11.2032489912616580
 39.2206637463561236 15.1444852755048611  8.0862759441221730
 24.6179075002617616 64.1532419634616815 10.0549228825083663
 16.3995307051586501 59.2438618035316438 10.6352037707911986
 39.3277919963598990 11.8902682671242381 11.1366480223588056
 39.2093645579636174 18.3057157921990346 11.2386724635328612
 19.2258123568662178 57.7191160736463971 10.5010653828301734
 24.7731168314451402 57.8462807882619501 10.0932236303543146
 38.9717559250705534 31.0405814730990173  7.8902961580393534
 38.6878245655131678 47.1823951699527413  9.9633266882313603
 38.6719570772927526 46.9325258443187323  6.8475385496846295
 16.6543986276640332 46.5134232084334656 10.8833562475828813
 19.1464539964798526 60.8809844370850470 10.4619819234699492
 38.7543862521207174 43.9978017846195470 10.2161011953861554
 38.7424268710217703 43.7552817125750266  7.1011860445305359
 16.6970221208707486 36.9405123267314721  7.8222889924056744
 24.5993534237034481 54.5913879166513922  7.0594168458761599
 38.8179262052176597 40.8016973506854370 10.4547431581460604
 38.8057585748411356 40.5786062630663764  7.3397582973822875
 18.9394939063739614 60.8556506832553126  7.3455138705202536
 16.6039348278211349 49.7079132198279865 10.8286702007341251
 38.8789443345432986 37.5966352205505601 10.6692284070717029
 24.8394270268408306 54.6845912009263841 10.1740081137283074
 38.8642338250848454 37.4000412890658893  7.5541258185368019
 38.9372217979979212 34.3865639566862171 10.8542689046502119
 38.9192762159780798 34.2206374839115384  7.7386512710501183
 16.3813714447347714 52.8246306367163427  7.6441490950190856
 24.5150536250808528 57.7809719689086450  6.9788047022410797
 38.9928290372349338 31.1725742189706239 11.0063364244830026
 16.5453247148066254 52.8972129441861867 10.7609554851006965
 24.6825063021763818 51.4077847982783354  7.1629362836942043
  8.5973006657990982 25.4893665254585677 10.7308491195728184
  8.4688530729982148 35.1016853985072856 11.0916781581137798
 47.9576145346320288  0.9213307456286957 10.5043139794625198
 36.3923698943301019 19.8588926781109549  8.1437407047934869
 47.6487674111557453 13.6351417907168884 10.9098853481160365
 56.2344309117114705  2.6689204638846609  9.9283110291251351
 36.4485856898199714 16.6495533490348464 11.2454096395133476
 36.4431680448093474 16.6804263267504389  8.1286001801054315
 47.2511743879213952 29.6345010407481126  7.8166396096503927
 47.3078437123147779 29.7193018485945863 10.9354656348586659
 36.5056934428377886 13.4418903071340701 11.1978875040718187
 36.4958452622949565 13.5021800146218123  8.0805392787450927
 55.8970310585027406  5.9608514085455786  6.9432661727708203
 47.5021432460288793 13.7206906667944626  7.7945815401263507
 36.5685611500787218 10.2417061494693478 11.1233349032375166
 36.5526017143222361 10.3236735623219538  8.0054274237557053
 56.1508957486625349  5.8285108549445823 10.0560221188071264
 47.2056707678938849 32.8237173710975796  7.7198770379877812
 36.6387695046703996  7.0538340498280787 11.0335757408611421
 36.6155931421173548  7.1413540504252593  7.9149165634309444
 47.2338737714260688 32.9377946533057084 10.8386109757272511
 36.7152916844215795  3.8795534929538569 10.9482891933907105
 47.7182710239991934 10.4371866756910840 10.8065265282503304
 36.6857410084544000  3.9532165506901218  7.8284200836845166
 36.3944942866655410 19.8618652269261666 11.2604472180767701
 55.8344108865161530  9.1462762945833571  7.0950889904939842
 55.9658675444628244  2.7689750003256406  6.8146477942551371
 36.3436976495625075 23.0374508466401231  8.1224342314659097
 36.0931685527576818 39.1322528474016096 10.5845023956661954
 36.0762830498244540 38.9291879635545115  7.4690886282715443
 47.5173982789506155 20.0598753460958399 11.0271521641143675
 27.1406433349893064 62.6409837853364948  6.6949475143753965
 36.1442495798235512 35.9293988815571197 10.7800948146377564
 27.4175872086269194 62.6427888665962698  9.8101699879185720
 36.1366480485533685 35.7524434579775132  7.6646017190684539
 47.5828177541340196 16.8442369380795292 10.9855613416527635
 36.1944154826522677 32.7205846636585775 10.9466092176650722
 36.1925295496629218 32.5738349811121708  7.8311055615543355
 47.3463391134034879 23.2622539386833509  7.9145112636503372
 47.4500266767494452 23.2793908120097832 11.0323419945077141
 36.2443285355792213 29.5085323446004750 11.0805317305267188
 27.0590722301993978 65.8425331409205512  6.7277006952686618
 36.2450935030229715 29.3949103848461277  7.9648025799408266
 47.4486083102496536 16.8987124395260366  7.8696487476048134
 36.2940292985763548 26.2938194978232538 11.1789602968785733
 36.2951550353532042 26.2160679413400288  8.0626820095244351
 27.3361596187373230 65.7898990125121941  9.8423498522876045
 47.2976446014736354 26.4471639772396578  7.8826451791378389
 36.3436145486939637 23.0774412208881756 11.2390347151624841
 47.3800803275752358 26.4997825300944605 11.0011308844505358
 56.0679815881975543  9.0002967773303482 10.2080272345831240
 36.7960452090164694  0.7146756108438892 10.8860407177743337
 36.7616647521101214  0.7588930143375205  7.7649853416722996
 55.6766539659782111 18.6924384833259971  7.5052578737950952
  8.2772345861189276 44.7099983632817910  8.0488250746991081
 47.0156870501299053 45.5709887863481953  7.0640792486230986
  8.3764909855106655 41.5243091622295069 11.1754349296852240
  8.3293620167086218 41.5323663397506735  8.0572847831727366
 55.8210905373458601 18.6003023017133380 10.6221332622945628
 47.8736980029216284  4.0828306443824474 10.5846178003024836
  8.4243804566887803 38.3129944182948492 11.1505803305794817
 46.9127374879810830 45.7841862534840729 10.1798080106236082
  8.3812717972046151 38.3552604576031015  8.0325546154613718
 47.6870285401838032  4.1711493235846193  7.4695223825483703
 39.2751680289137042 11.9670760944714321  8.0190224844741316
  8.4343592797979241 35.1779481450180640  7.9737504775310022
 55.6303305585367482 21.8804468511086156  7.5930680127195096
 55.7392153008652613 21.8151968921042361 10.7118382131582521
  8.5126063737784179 31.8929273532149793 10.9997549565538648
 16.7631968565431499 33.7644881642759742  7.8044570629004921
  8.4906396685009220 32.0012480499142526  7.8820930940383294
 16.8080000067885962 33.7316444181066259 10.9246060097475155
  8.5552728814127192 28.6891661984018143 10.8780419295432917
  8.5501646489751035 28.8259777577530549  7.7607282542029061
  8.3248648505758407 44.7342818236701021 11.1668254423663438
 46.9967962754604613 42.5796425281218944 10.3811865938442409
  8.2231751447711154 47.8888395590992744  8.0100111433197991
  8.2692661374223118 47.9413075891825997 11.1280970538395945
 47.5580651496692468 10.5425430564108229  7.6916732802291410
 47.1601673005951554 36.0120899751852832  7.5947591506080574
  7.8984960600812624 63.8269196787825024 10.8588905267141485
 47.1578271946832501 36.1539948037316989 10.7130789263586763
  7.8607111808121619 63.8333620282462491  7.7369021841729300
 55.7773414680006923 12.3274899212256486  7.2502019303364014
  7.9817832075794781 60.6677263424279332 10.8707909600439674
  7.9419313220752006 60.6359093888660254  7.7489905913134240
 47.1138715968371500 39.2005002402935006  7.4426077788875959
  8.0617867105003764 57.5027621357998839 10.9176823567751082
 55.5855198629975078 25.0717991805711193  7.6541966806966748
 55.9849830138017666 12.1874565448720489 10.3642075108797105
 47.7935018299953995  7.2536337122683419 10.6910380458755316
 47.0787031001191139 39.3684243787936765 10.5599898585213019
  8.1377455001392001 54.3277912609935996 10.9885711139854010
  8.0957605264209853 54.2510458596041900  7.8694480048792759
 55.7251566981565958 15.5083450340674442  7.3903417321436944
  8.2069353558660652 51.1407082728927733 11.0650824903418634
 47.6192521508919171  7.3599721730979564  7.5766129093037815
  8.1632763048969057 51.0681303101219726  7.9462992598551647
 55.9026243516572166 15.3897191161744011 10.5055681198355746
 47.0661926560569128 42.3871080561732541  7.2648086168528492
  8.0208989938393440 57.4407804558607396  7.7973874642443866
 53.2532478670622496  1.1027525843150230  6.9959048300338029
 39.4746545125394022  2.4102402078342617  7.7537499969113632
 39.3955636224375354  8.6965186581516818 11.0473243691675069
 21.5645246635631551 65.7124495744195372  7.1769005611317285
 42.1505375870459247 10.3412647546103731 11.0292306693269460
 42.0563393369796756 10.4319228854432176  7.9122475383055164
 21.8025065215105229 65.6707233584344152 10.2917861529991530
 42.2221751749046632  7.1550264701479582 10.9298310540478063
 19.5556643638179288 35.4161621459450089 10.8823493878457214
 42.1188401637852863  7.2496323559099576  7.8122907739562653
 50.4695351988628857  2.6352434690388780  7.2473942281229080
 44.5220820678244564 27.9761480307823582  7.9186550341550026
 42.2996407561551919  3.9813142406505504 10.8364357624203560
 42.1885255345222419  4.0606197003518201  7.7178142166666568
 50.6975332877079907  2.5538995263280131 10.3619068722775065
 42.3805765367528480  0.8172352721159929 10.7668207928725224
 19.5055975812720028 35.4103670948605753  7.7617481909669355
 42.2636914170939448  0.8658310832771223  7.6475348452743148
 50.4000139446842965  5.8262749833728300  7.3531405879426925
 50.6141110592321510  5.7175321151404388 10.4666729860963095
 13.4839152077557838 63.9301210771715844 10.7331035949052378
 13.3621528742751217 63.9398888582543705  7.6137411529879238
 13.5674956091753565 60.7708010336259647 10.7396643441808131
 50.3363829935553042  9.0113395854512941  7.4777140910715554
 44.6513548528943005 24.8390044762543205 11.1006401720919818
 41.9995965631906785 13.6095165590203386  7.9981791509153179
 44.5718878864116448 24.7926548506126778  7.9830644191210647
 42.0843695432478384 13.5402432158771688 11.1147646257533630
 41.6968710897678676 32.6905671439701138  7.7915839237374076
 44.7747374797718720 18.4031218786667452 11.1122634338875965
 41.7908634702096506 29.6173663437884045 11.0376937174905425
 41.7472606965486790 29.5072612526568960  7.9211452152169120
 21.8061608697921301 56.1253080772106827  7.2266094621319938
 41.8498939810730732 26.3981174188492851 11.1304223657774504
 22.0396271644289250 56.1971911840056890 10.3419671006021687
 41.7974192832992628 26.3253490192585176  8.0136152165676258
 44.6222740563850451 21.6113949639452514  8.0087724095007502
 19.5228424533682556 38.6072310323272490 10.8612854042156588
 13.4426532968023746 60.7415416108939468  7.6206063700850919
 41.9073359637047176 23.1790255764715205 11.1835554249673184
 21.7255674937244443 59.3175155730877250  7.1699669945899407
 21.9670570193147690 59.3608632319655456 10.2850342774278509
 41.9647368724173333 19.9620837241392763 11.1968969878216171
 44.7137878233637380 21.6194512799970511 11.1259527834136467
 41.8967562428316143 19.9652112427900903  8.0802135587092341
 19.4366474269575953 38.5861031090466966  7.7414398213213627
 21.6440844899608109 62.5144801970131709  7.1506799319424603
 42.0232124743324889 16.7483340216396464 11.1726673196938169
 41.9472175029181500 16.7865561805220551  8.0563120107221522
 21.8872986976497117 62.5171360337714930 10.2657973528857092
 41.8473683377935686 23.1447868282040474  8.0666741383061531
 44.4743529830488455 31.1611203656327653  7.8181019910120249
 50.5347663730700063  8.8926538686299406 10.5910123778111558
 13.6481149174294565 57.6066348666690402 10.7826404211516156
 50.1214913966465758 21.7338710596898075  7.8095837540587896
 44.3781029407165235 37.7104428328277024 10.6389386469651583
 14.0231582503441992 35.2459235535576667 10.9945410737904670
 50.2448284294394369 21.7183026211842858 10.9274261951274827
 13.9585277718004885 35.2938776921430843  7.8756251188575384
 49.9407198960397238 34.4931020294894992  7.6491432830710027
 14.0582302604695588 32.0475524572267716 10.9402608112414086
 14.0226126677580787 32.1183879244116071  7.8210274350669486
 50.0740890180873350 24.9214887429022163  7.8145426593732070
 50.1697316903937889 24.9376892024391061 10.9335741872567596
 13.8971509452476027 38.4695405967323012  7.9077610141400543
 14.0921330893824912 28.8526042874524045 10.8656053709583329
 14.0903827754875000 28.9436130159445959  7.7463597400466710
 50.0286139395535372 28.1109754591872623  7.7883204124472929
 44.0611989261517678 50.5035096647177610  9.7522973125286061
 44.1551522154824880 50.2648325043366455  6.6363524047596636
 44.3030012336634726 40.9212646966355109 10.4478843661451162
 50.0931343451138318 28.1576425149499983 10.9082278408192739
 44.1428800271732911 47.3210093631866897  9.9960673342588713
 44.2183591547955928 47.0800618555101238  6.8805641149261447
 50.0154299076434867 31.3766609982605473 10.8529058311596884
 49.9847175150031262 31.3018528047390525  7.7325482931444851
 44.3293094189343222 40.7169565875880295  7.3319095677130068
 22.1027450134049950 53.0254595221150211 10.4218736674871053
 13.9847387319738807 38.4462285805110824 11.0265247572779952
 49.9359067702718917 34.5946009822232625 10.7693611898504233
 13.5220970374251408 57.5472618185417133  7.6643767098004147
 44.5204993665144144 31.2790382112065011 10.9353588540876228
 49.8551075844827025 37.8113510471997216 10.6588753184511713
 13.7225486059686812 54.4322825419378020 10.8494503362440913
 50.2780215423894390 12.1911921331182498  7.6006247443406716
 13.5965199810062192 54.3588771903703147  7.7316874283477990
 50.4596033330445692 12.0831287608666376 10.7146673434933764
 49.8965683998899436 37.6845072354713793  7.5397289268100236
 13.7890665290050123 51.2458824055456006 10.9210259690106533
 13.6640957689243905 51.1778372219885895  7.8032915715772084
 44.3786468311081208 37.5326820799741299  7.5223191233643867
 44.4260758282262742 34.3465386024660475  7.6849652669990451
 13.8473790143071227 48.0500083620988008 10.9800511573397213
 13.7247273714353000 48.0002618067494140  7.8625650664255904
 50.3880218355282636 15.2880168156622123 10.8175864292783412
 44.4503068585660728 34.4957739042504983 10.8021396791404189
 13.8982426205245844 44.8498410809762831 11.0189073190544775
 13.7817235177600512 44.8231675586954665  7.9012640303057387
 50.1714855380614679 18.5498043557387042  7.7724245873481079
 13.9436998672201486 41.6479840239044208 11.0347964487567545
 50.3174617462034561 18.5014144857759817 10.8891113673672919
 13.8388098241385578 41.6462066883186424  7.9164641536421803
 50.2232762757226894 15.3691858272372155  7.7022851649948265
 53.5150033087830863  1.0321195789233011 10.1101596249043375
 41.7293482026265892 32.8357240291295867 10.9078813941617465
 44.6729578666606457 18.4317095387849648  7.9958673582197326
 52.9987430960846240 13.8446038086365260  7.4944739709043580
 10.9657409038581868 52.7873379029415375 10.9753294050273418
 53.1900019025948581 13.7348039800660029 10.6087214329724269
 10.8811147515512250 52.7129685667319947  7.8565876940958042
 44.9751668719843209  2.5181590213589957  7.5690092796238009
 11.0301680392874228 49.5943665361608197 11.0437249934683805
 10.9447799933931584 49.5329884948837105  7.9255153193962666
 52.9469965998786734 17.0251677023217169  7.5980299787708860
 45.1286988189140175  2.4492205561885481 10.6863023691229149
 11.0871732175183322 46.3927023256679618 11.0932149852067194
 53.1124591240320356 16.9437785273074155 10.7138516018401653
 11.0014168542584976 46.3548350326193486  7.9754065590463004
 19.4074258730044811 48.1788174295417519 10.7127370087539653
 11.1389419627319022 43.1870251425319438 11.1173357915055391
 11.0552825355484092 43.1772965366167796  7.9991807803759674
 52.8981359798793136 20.2103544199042098  7.6720775650033755
 53.0348789650083887 20.1583516175023618 10.7895155946743948
 11.1859314966828531 39.9797350640827958 11.1127738852565994
 44.9032258810648415  5.7098384199971637  7.6580172323176203
 11.1089911479165746 40.0003444747907650  7.9942375424003300
 45.0482345969168492  5.6167135084140716 10.7743125913325546
 10.8097269475900557 55.8985571114046138  7.7825682031347823
 10.8939370071279260 55.9683124315273233 10.9015373609569028
 19.1671631676468017 51.2917890671292369  7.5255105863616834
 53.2677407893183883 10.5375510543136954 10.4783610149482556
 39.3352178502425787  8.7874725631426625  7.9294651546850297
 19.0955768068846155 54.4735054343017993  7.4505856494082172
 16.1518804817051844 62.3959221608754220  7.4941487940918696
 39.4695572735561342  5.5162398659056304 10.9531225853907301
 53.1809803670317578  4.2958548682070408  7.0959301531406602
 39.4019191063851011  5.6020116514835303  7.8342344228428136
 53.4302473520573926  4.1884237610420261 10.2092932410459873
 39.5484322177872514  2.3475807904375530 10.8737754634513699
 44.2760966087321464 43.8987895043413729  7.1162324501923644
 16.3168899399177647 62.4038957657665279 10.6122839037093470
 52.8518727507054535 23.3988835370359922  7.7169398594444365
 10.6497837955217207 65.4582742253314791 10.8247207989404952
 10.5710213405657214 65.4856022669032711  7.7040649878315239
 53.3474420942248315  7.3554616108798809 10.3382420132340567
 19.3564911394687229 51.3657682685505463 10.6416059730366630
 10.7336736187760451 62.2994990525784331 10.8144443880982077
 10.6517500465942305 62.2870598844583583  7.6936788513320069
 16.0716216300887424 65.5940598260306587  7.5114716033306763
 53.0541678067990077 10.6658530391956230  7.3653216763357214
 10.8156166218349199 59.1374877848700038 10.8427669487629199
 16.2319974327508589 65.5615459276508119 10.6294686467451971
 10.7317963935454568 59.0905191154112046  7.7228048567205541
 53.1142995022741076  7.4831975016008814  7.2256513599837744
 11.2282134212858935 36.7724556981349053 11.0785830785359849
 11.1641741754447459 36.8237052505791809  7.9601171973492821
 19.2355781166625377 48.1141085290327482  7.5965395910177884
 41.3029403749057593 52.0165841494435028  9.5827139740897458
 22.1055775160666492 43.4064354097255745  7.5623416939120629
 41.3393591216615448 51.7805744576675409  6.4641152476130204
 22.2369333323760152 43.4770071640600264 10.6802986155706812
 41.3792383274219873 48.8457250925004587  9.8318561854005484
 41.4122430768839394 48.5943737962266340  6.7156093618716692
 44.7248571152591694 15.2529266861943018  7.9468501934084284
 41.4541340985666338 45.6615084195238978 10.0865473210874779
 22.0337576608236816 46.5827675419110747  7.4813494971704353
 41.4786071137711119 45.4133694456822354  6.9709847056972594
 47.3963635753773573 20.0792872812988641  7.9102992154462255
 22.1991431629535647 46.6627402383728764 10.5977393446575832
 41.5272465977639413 42.4652639044610964 10.3294404255338019
 41.5394467473631437 42.2341032101523481  7.2142423161132685
 44.8365418654827153 15.1913580727926831 11.0626696555226207
 21.9603451080982452 49.7607202223951646  7.3944287344572368
 41.5982006998767204 39.2605896943539250 10.5503108523943130
 41.5947569046656511 39.0546449541465606  7.4351319992012082
 22.1549359859735837 49.8462719108823649 10.5100358987983284
 19.3693256922172772 41.7617294411879882  7.7069825111305361
 41.6655125549005447 36.0505531437241871 10.7443606639377336
 41.6467672667522990 35.8734108647727155  7.6283977448830651
 19.4885671300461745 41.7986020063305901 10.8251416216799932
 21.8849342720899145 52.9402650931240046  7.3064422292131388
 44.9015592598729611 11.9870727227478859 10.9817594241394776
 41.2257768390542338 55.1741088479963224  9.3596915907248874
 52.9562123086355854 23.3757200590673833 10.8360002953005115
 11.2683865101685328 33.5678207319612341 11.0153658936868144
 11.2229056148593553 33.6480308882776100  7.8970301642187657
 44.8377536878979441  8.8953358271032172  7.7635454215538653
 52.8064527755830753 26.5900213617553263  7.7337282523414412
 11.3061781515820350 30.3662555560063048 10.9252987502228098
 11.2851416456932245 30.4725178870366662  7.8072437702591868
 52.8762896046179307 26.5948644469167483 10.8540785825610921
 11.3429944377300398 27.1689264827594137 10.8119329551703895
 44.9721161938622060  8.7949339008835263 10.8794229704977514
 41.2616414283854098 54.9752271463204494  6.2381351907596558
 11.3509263788832975 27.2973826693437900  7.6940518923761179
 19.4504470436485128 44.9896587700183019 10.7750206300972255
 11.3790878206590129 23.9753659091212157 10.6789519056129656
 11.4197964330795312 24.1226798269632603  7.5615564565538085
 52.7954541317134485 29.8145575589868130 10.8434393616233233
 19.3022422328617118 44.9377507406544439  7.6580088978259919
 41.1481131709372718 58.3197739829589565  9.1850425348185851
 44.7790614124719184 12.0753191894202274  7.8658473743341331
 41.1789666690900589 58.1796851490346469  6.0605027519844841
 22.1766875204747684 40.2306792989722695  7.6342768629291209
 22.2704452253139067 40.2897540029782419 10.7537908753649116
 52.7632498717248168 29.7824955986039299  7.7226147559695750
 44.5871624702159579 28.0598169310497099 11.0361233155938319
 58.6020813760786865 17.0460325867042641 10.4296707180877384
 36.0397839840111516 42.3275663368800252 10.3643066428286783
 19.6809126998912092 22.6554769817540809 10.8225541171832305
 19.7149796675570315 25.8836736139175407  7.7398333252661260
 19.6491265705740972 25.8457305585248669 10.8595029287834528
 19.6453983756540218 29.0593854209694911  7.7607657271343911
 19.6181715866883373 29.0360437045042659 10.8817601133042050
 19.5754986050891695 32.2349118591796184  7.7680810805637295
 19.7839297045266918 22.7078885033835185  7.7041408670911053
 19.5874436114948409 32.2259545900203506 10.8891837105130076
 58.5186512509617884 20.2577446909801573 10.5641249879609571
 58.3669798576283583 23.5561489806472117  7.5527623367009902
 58.4357737593122764 23.4724379693805858 10.6726482072623980
 -10.7243190992361725 26.7482518243711986  7.6346981316696994
 -10.6941987493003055 26.6889642761797106 10.7556491092568880
 -10.7671365881698957 29.9417704334794621  7.6917301778884033
 58.4116301968884315 20.3667622266466353  7.4458280541411925
 19.7139517666177255 19.4658157230270881 10.7709327359322042
 19.8514530883895652 19.5318553879912464  7.6540224270574200
 19.7505254131754739 16.2773710941538674 10.7058660060045767
 -8.5519195990465526 60.3022963593773085  7.2487673579422545
 -8.7555459960074362 60.3595588934169456 10.3652363369854150
 -8.6299692664738537 63.5023764002012285  7.2101355802352352
 -8.8418883900920200 63.5150870304745112 10.3271421716238070
 20.2719849402181467  0.4295050739841141  7.2176032362347149
 20.0545912688565018  0.3976778392679383 10.3341259090492059
 20.1940294997991039  3.6246727868870732  7.2666800635035003
 19.9743599211781415  3.5564316397659299 10.3822892793415953
 20.1202752898735717  6.8136859881076708  7.3440860553695151
 19.9024215070506898  6.7252220325643775 10.4590284957842439
 20.0504837514936263  9.9973100685753504  7.4314223613427179
 19.8416748067731028  9.9049878537032239 10.5459289983682147
 19.9844302690474329 13.1771520849260977  7.5155121034898507
 19.7926083153161443 13.0903229775651475 10.6300053152441532
 19.9180134607310890 16.3550623708606686  7.5904131865807916
 -10.7754914117733733 29.9070641658685794 10.8132843983444431
 -10.8099704449430476 33.1346237923691831  7.7227406736806312
 -10.8561835842443291 33.1257743926426329 10.8438391286351958
 -10.8545161483018902 36.3264665458961815  7.7261334810902991
 17.4883205059922808  1.9666270890338815  7.0230065431312356
 17.2394091950526658  1.9132977731711307 10.1380512335275625
 17.4103307772956803  5.1621941861047533  7.0914903188581198
 17.1656917635469668  5.0738813338220705 10.2055542925445195
 17.3344918959851704  8.3501020670799182  7.1855229340825693
 17.1019883203907170  8.2430429020003775 10.2993106967288970
 17.2601371151728777 11.5317080255570268  7.2887333540864931
 17.0491856577678753 11.4194370594694696 10.4027272723482227
 17.1866756873640938 14.7104623765499021  7.3914691194769722
 17.0051636015399055 14.6005169889281632 10.5063540092068006
 17.1150358221024241 17.8882715932560110  7.4891807803428252
 16.9674858590435242 17.7845015490801295 10.6055713320431071
 17.0438046295827590 21.0643766660241809  7.5785501878651900
 16.9336830613911538 20.9705989846998371 10.6964081824299182
 16.9727089555900328 24.2394135435481886  7.6561681957600189
 -11.6601898209759032 65.0326139159381285 10.1121003411514181
 -8.6707873191120193 57.1987860872477754 10.4441716369993998
 -11.4128196403551687 65.0395450889869835  6.9958430553570627
 -11.3339204884326055 61.8390892969259411  7.0182728082529788
 -10.9364207638745548 36.3446563558359941 10.8462473338965264
 -10.9005420956132237 39.5181081026266838  7.7012458593795712
 -11.0150106083478434 39.5630912399695163 10.8200613051690002
 -10.9498412440389661 42.7071770839879434  7.6482044136951330
 -11.0929063899519296 42.7791895249228773 10.7654313887912387
 -11.0028967283755392 45.8922771360618711  7.5659696594422634
 -11.1698600064219651 45.9913654727157706 10.6821822068545345
 -11.0599348654431910 49.0744050325419181  7.4561066930602751
 -11.2465560459611336 49.1960605587673001 10.5713823408072152
 -11.1217225844508150 52.2577753531934945  7.3274665172073448
 -11.3242043289649637 52.3877928088833684 10.4417634253874887
 -11.1883140180412575 55.4456579143817976  7.1981381047490078
 -11.4047034400212528 55.5646217349019480 10.3125394715225163
 -11.2589112558614399 58.6403642579553903  7.0892109150590166
 -11.4884382990233149 58.7285358258814369 10.2047048942238305
 -11.5740643338531140 61.8826549104995607 10.1347071735476586
 -8.4774107588370118 57.1055325798674716  7.3285557963600736
 -8.5903988426909592 54.0283239494888647 10.5520597014670532
 -8.4080794374120540 53.9149238150645544  7.4367925371133792
 -5.9314889618799080 58.8310643615284476 10.5674465619401836
 -5.8455419521021641 61.9615751763189238  7.3982089992894267
 -6.0161370478320624 61.9901903650728840 10.5161419147705892
 -5.9255530156619871 65.1615275409936459  7.3885787158198619
 -6.1019165706930991 65.1467963866191866 10.5064179968469720
 22.9766716783656761  2.0872216575138025  7.4211639546831751
 22.7959913295906489  2.0343851241918922 10.5383044251817264
 22.9024674494791185  5.2791542194485670  7.4868474690695850
 22.7185869205044284  5.2013009203461102 10.6031715170003391
 22.8334982266410549  8.4631122566837984  7.5679505371346645
 22.6493554513495674  8.3790752794342609 10.6836147995740856
 22.7703371116893472 11.6421516993893857  7.6462004270248700
 22.5915266371091050 11.5666412120278199 10.7611414830827972
 22.7103173080443099 14.8209921314956521  7.7111866517623193
 22.5430258731532618 14.7593564966529751 10.8264434916204202
 -5.7679724241966976 58.7633915485888494  7.4500947900874666
 22.6503371545148653 17.9986812734124833  7.7595132046682407
 -5.8503437469915429 55.6640426977284832 10.6524773506138342
 -5.7733027031822539 52.4860935713505086 10.7565518688625570
 -5.2529132233523521 30.0966640022886587  7.7308099910972796
 -5.2901574253494985 30.0030520789447515 10.8500693468678655
 -5.2995027290719490 33.2858129897613040  7.8184493851983250
 -5.3621578879970553 33.2211681275665640 10.9375315611015758
 -5.3481991563224156 36.4733120525941601  7.8743627022480576
 -5.4328395684628292 36.4402708681256655 10.9931369951727724
 -5.3983912370376519 39.6586411348775059  7.8953273765771579
 -5.5011574480218366 39.6595197490856251 11.0135473628784801
 -5.4509157222103033 42.8415190201029645  7.8794279244531102
 -5.5677993751681401 42.8775179753016431 10.9969725962649338
 -5.5059800129255194 46.0212603369712170  7.8271031597294130
 -5.6337141883383035 46.0903885539872178 10.9439416452969134
 -5.5639975747935733 49.1999275567439582  7.7435278618910841
 -5.7013645311985526 49.2945613566606653 10.8599849753712849
 -5.6267154311412542 52.3813917436665903  7.6403751038857184
 -5.6949283467878811 55.5690451513884938  7.5358836788537173
 16.9021465223357303 24.1586437293304144 10.7754914984088970
 22.5011539242218994 17.9525574274721933 10.8758302114083261
 22.4638341198951785 21.1460569354983043 10.9074495613778133
 -7.9961588320505301 28.3450291897877378 10.7832659983152794
 -8.0317444760135324 31.6161722481769658  7.7385928177048573
 -8.0738562924531418 31.5631706495747935 10.8592129768443577
 -8.0767385432380046 34.8073351878173085  7.7861538194728235
 -8.1506715194120449 34.7825358867932621 10.9061831335719521
 -8.1237255525741006 37.9969397670917530  7.8034422632619487
 -8.2259761624507401 38.0014974280409277 10.9225937573396017
 -8.1728289410495307 41.1844446060605804  7.7888076532161588
 -8.2990134922882888 41.2194918361062079 10.9067716037915030
 -8.2265486546909692 44.3688480511030221  7.7410405995726608
 -8.3710595452291781 44.4350210136307666 10.8581076748728655
 -8.2832782486049066 47.5500942016684789  7.6609128529191395
 -8.4418746707115027 47.6447893272866310 10.7770719322306228
 -8.3435108724615343 50.7305639322024149  7.5545077881199134
 -8.5143778492244042 50.8437464945518656 10.6701103587558528
 -7.9872862265772904 28.4243058427422497  7.6629898423115961
 22.5884935984067852 21.1756324244407814  7.7900964041755030
 -7.9168516315827171 25.1289597030555605 10.6808280196656806
 -7.8363063770766521 21.9142689793347252 10.5526608408998985
 22.5242003235557533 24.3523525048104510  7.8027073001853422
 22.4292617396814009 24.3395635439136555 10.9212550523211789
 22.4576829486711951 27.5285620411919112  7.7979753276388193
 22.3966780827643994 27.5321763691571597 10.9179163591967221
 22.3888683233431820 30.7045271611175039  7.7776315882085161
 22.3644956701793376 30.7232266580545712 10.8982411119305720
 22.3189003109347759 33.8807633492032849  7.7426896832399486
 22.3334556397061803 33.9134453034437939 10.8636517320850867
 22.2480170230365601 37.0560448496597843  7.6946484687594801
 22.3024546994419488 37.1020273831013228 10.8155082746808819
 61.2462574078656417 15.6732451280427192  7.1046389110847619
 61.3783438024261514 15.4979196221517590 10.2213136250777126
 -7.8504302327930660 18.8562050772516585  7.2809765458412556
 -7.7534376530642977 18.7029160354484496 10.3987611175682026
 -7.8973415002002900 22.0429845430165408  7.4334240582485194
 -7.9425012185558446 25.2331092224415769  7.5609755892443804
 -5.2168360886565193 26.7866029637182201 10.7336648305261715
 16.9021069138676232 27.4141005986575585  7.7203120801806158
 16.8320454271385245 30.5892143493588229  7.7699008564483298
  9.2652121265632363  0.1709243753427993  6.3041193297765394
  9.0331068956924980  0.1294551317813831  9.4238821226968597
  9.1783499906390595  3.3770328416788771  6.3731563808331488
  8.9575772785340622  3.2712276372565543  9.4917231147605250
  9.0898830042755314  6.5759815594985573  6.5000687901021861
  8.8885660036701069  6.4191854116810054  9.6167198690702111
 -19.8692977609583821 63.2614642531337523  9.4232808383989592
  9.0017828511999536  9.7673382723199342  6.6691989257016484
  8.9159450954696151 12.9499023543849745  6.8630913794055379
  8.7732006197435517 12.7427013551712829  9.9790539181533013
  8.8330135771255271 16.1265496324680058  7.0644249649528712
  8.7251129475363189 15.9188756227693062 10.1803828395946443
 46.9591088733953654 48.7542123079499063  6.8459129849283045
 46.8270120824384719 48.9768347350629583  9.9608495178409928
  8.8269017295238399  9.5761208524404111  9.7852457642162793
 -19.6334883061363499 63.2320341449937260  6.3036048385764643
 -19.7872044431136693 60.1188407228889972  9.4920672561537636
 -19.5552700721212851 60.0215852706332598  6.3736496364809510
 11.4537935491438052 17.6015343786730405 10.3700058623148763
 11.4920340676489019 20.9484783666506935  7.4134201352268967
 11.4157847206300520 20.7863448858232474 10.5302674785345989
 49.8516648040645620 40.8743948654279095  7.4058177949309449
 49.7721258810792975 41.0251319803564556 10.5232621846401990
 -19.2435620852715132 44.0620550723142941  7.2478531196479707
 -19.3607891458473347 44.2353589210247549 10.3642340824080534
 -19.2944592857105484 47.2470823152425794  7.0677187126312582
 -19.4465376438404647 47.4390034218262429 10.1828841871661222
 -19.3510077065290744 50.4321238366611055  6.8723006545366099
 -19.5325592608254830 50.6299431668607625  9.9865274371597490
 -19.4138961032296820 53.6211380960003652  6.6776413813121129
 -19.6186470337280099 53.8052477451380398  9.7925121867723419
 -19.4817214515229722 56.8174300983038236  6.5045859603170149
 -19.7035297921349084 56.9680386589502135  9.6210339175737154
 -22.1497719733340546 51.9415434013718098  6.6240171051339782
 -22.3053560008821421 52.1558562301341198  9.7395085338665712
 -22.2167561513725431 55.1355318452754304  6.4181971426503139
 -22.3890759640161185 55.3209616900183789  9.5359096741487903
 -25.2277460859022256 59.9691133135701335  9.1795899034524577
 -25.1983169203595985 63.0783132614171791  5.9819856809102543
 -25.3069960490040202 63.1066124963751847  9.1080847029742316
  3.6959861259688438  0.0226823410050836  5.9901920320123709
  3.5950273680215412 -0.0297833220408253  9.1165119202673157
  3.6087410840166800  3.2359757146637809  6.0791543250498519
  3.5182387859153317  3.1086233197135322  9.2036922945889703
  3.5229002891465107  6.4406017577121810  6.2376317592127331
  3.4447463962171203  6.2532834690337147  9.3597201681698969
 41.0930780845710473 61.3929888469554825  5.9514350974831114
 41.0701775340847561 61.4583480253966457  9.0782827336742926
 -28.0412727587790762 64.6101955707207054  5.9234927705401050
 -28.0553073641581996 64.5938147144747319  9.0514446030781102
  0.8535076177199930  1.5540133553327906  5.9796269397837118
  0.8481600458860794  1.4583072071352265  9.1066235598118528
 -25.1146144764743369 59.8631683470182168  6.0558714786107348
 11.5677344224949881 17.7739356422591364  7.2539497054012640
 43.8994005275366561 56.8257950725320597  9.3231157711267301
 43.9801404398530806 53.6716770667197665  9.5210213937495851
 -22.2893151715822597 58.3377916534008421  6.2504801448123120
 -22.4710758889800566 58.4735732104558252  9.3704150513837252
 -22.3677359248095655 61.5488601887176259  6.1409051117210112
 -22.5525230244573827 61.6168800772374112  9.2631224491953912
 -22.4505183227436795 64.7635468188270664  6.1053650886946667
 -22.6322787967574222 64.7546779410562436  9.2285782303755344
  6.4431586205003075  1.7040391567628312  6.1478031731237692
  6.2704034492542169  1.6200763571183159  9.2700925269054864
  6.3545850247206879  4.9106905084246106  6.2611940932682542
  6.1966532552644873  4.7619654859683900  9.3819283351932761
  6.2672074838753380  8.1084293683168998  6.4319552840345011
  6.1291916986764905  7.9119211975870751  9.5504870564316047
  6.1810044619782945 11.2956465185077040  6.6406954169252517
  6.0663421214113695 11.0715446366024626  9.7576067095972814
 44.0870283535201608 53.4559738971223553  6.4027493125941541
 44.0126120480443674 56.6551739112003432  6.2019634427583261
 11.4942518209699092 14.4209252818141387 10.2032386497347112
 11.6470211103512469 14.5981826627411255  7.0878601696188790
 11.5404393507788416 11.2463969367026575 10.0363634730377562
 -13.9689563255888363 56.9729185771154505  6.9297499682140140
 -14.2119330242889941 57.0932216742587002 10.0439973579690260
 -14.0418499881593419 60.1708280734944481  6.8252425977813926
 -14.2969216906034422 60.2487664673957468  9.9404576792371699
 -14.1192308167918625 63.3732228277670018  6.7688043395769038
 -14.3823038837392509 63.3968420171829976  9.8849121812756824
 14.7817029255866927  0.3047058611102328  6.7685127035573309
 14.5169629100983180  0.2718443662499134  9.8843918353262161
 14.7011854209536974  3.5048421017807323  6.8212889978949311
 14.4418750151532080  3.4233406159345159  9.9361782123233500
 14.6196359300915084  6.6985631338206693  6.9157393598908916
 14.3738733724609098  6.5816799838074260 10.0296551176539737
 14.5377738832127896  9.8849575627489461  7.0356749455742706
 14.3152976053227459  9.7487234925231192 10.1494765528923505
 14.4578457830066416 13.0658788618734611  7.1665655975241425
 -14.1281181277460686 53.9254561113921014 10.1805765101870573
 14.2677177268468025 12.9232420791452682 10.2810604439776565
 -13.9012583844275639 53.7809586873587762  7.0669110482362019
 -13.8384625696128314 50.5940536902871116  7.2163383644856181
 16.8407244407408001 30.5389897834207851 10.8907752017631374
 55.5429469947376191 28.2641501545261740  7.6894635424969380
 55.5751676170048157 28.2506373737082370 10.8108494101972514
 -13.5465552529478810 31.4577660169435980  7.6990504128840236
 -13.5545442379138752 31.4696681907171616 10.8207146570585770
 -13.5891934305056932 34.6516352392253424  7.6827278482634291
 -13.6370209084330423 34.6888551943798973 10.8039358433695565
 -13.6330782660475727 37.8446444794450656  7.6404213142329853
 -13.7186741347438161 37.9068552239842660 10.7601210224914627
 -13.6793635286331696 41.0361144897336487  7.5720421822110096
 -13.8002289289913360 41.1226999797373622 10.6901409972139056
 -13.7283100532532032 44.2250619154015894  7.4779111122215927
 -13.8820007710164006 44.3368658562724107 10.5943444032079501
 -13.7810633752022209 47.4101992127208050  7.3579445074814318
 -13.9637680641056630 47.5451883791245891 10.4729353890717132
 -14.0456971959875414 50.7425471519372309 10.3302409332166754
 16.8716701739695409 27.3479062459204911 10.8406357595438845
 14.3802393226573741 16.2432082336969259  7.2989696987603772
 14.3049689132605629 19.4196140519084430  7.4270091650931240
 -16.6866608385789448 55.2997617974354583  6.7855765025132149
 -16.9221111540596887 55.4518052992850770  9.8997089687616171
 -16.7571623367990661 58.4965537935503264  6.6468311620899838
 -17.0071225338747674 58.6105428199909326  9.7620719016370430
 -16.8320276757460761 61.7004535941387218  6.5542635377541805
 -17.0912193055068471 61.7592007289951326  9.6706659268409023
 -16.9113817695012898 64.9076172993896989  6.5213390539929526
 -17.1733668728022941 64.9030784758633814  9.6385477915581692
 11.9872771779940948  1.8416855023972840  6.5515895986871291
 11.7305219218695687  1.7759391427604714  9.6686071960134150
 11.9023909890801338  5.0413621914691076  6.6378036228947890
 11.6586984574041832  4.9250459821090384  9.7536249531191306
 11.8161014161863811  8.2335876509591994  6.7665751232508615
 11.5950383045217489  8.0813222778620499  9.8813888176158127
 11.7303110095012162 11.4186297462871309  6.9216517783162761
 -16.8367743836728216 52.2798414403567691 10.0650455523879856
 14.2269830168813982 16.1026656257031711 10.4145190140754806
 -16.6216601061273934 52.1090462633293612  6.9510727629378710
 -16.5628958873061691 48.9226024860403044  7.1230278230950415
 14.1905328198996497 19.2857410878172111 10.5441711681089476
 14.2315949712409751 22.5945391561148590  7.5466149208691347
 14.1566129797191724 22.4716673709863493 10.6650153800222380
 14.1599665446724217 25.7691392247337703  7.6539327730330902
 14.1242007205927749 25.6604963309075522 10.7731021498878032
 52.7210398432048137 32.9755750811243900  7.6845556857955142
 52.7139989961446602 33.0334851238769502 10.8057721311390740
 52.6780629868978281 36.1681588139255652  7.6206834340105889
 52.6316238900094362 36.2507972228862272 10.7412804486290696
 -16.4135844146507353 39.3605841797581562  7.5322123383525295
 -16.4983153631497181 39.4671302792031256 10.6511178919483651
 -16.4597979233791811 42.5512328996046207  7.4193010065501221
 -16.5817881141209078 42.6813658880146036 10.5367388136137006
 -16.5092488018222312 45.7375911282019132  7.2825001931114688
 -16.6667385535656862 45.8905226610845176 10.3979698929659374
 -16.7518603712549599 49.0921748584032827 10.2372625436464251
 -5.2065636213322923 26.9067124416875529  7.6143896997443665
 -5.1412549564641141 23.5718278088026523 10.5900500016163388
 -5.1593021533766494 23.7177641389299438  7.4713104553124907
  3.0146010239478693 28.5564119780399324 10.8686264522284439
  2.9795419561839207 31.8851143304688947  7.8865743414007383
  2.9614294953158953 31.7697145018447102 11.0036870801680333
  2.9274662538346634 35.0655272842236130  7.9867510422929993
  2.8767693518700277 38.2452698525060413  8.0500092201173121
  2.8553866004319466 38.2020002489501280 11.1674488492348178
  3.0331443788613632 28.7044761661608909  7.7520034712540857
  2.8266732102333925 41.4244425733009436  8.0752928949895217
  2.7749976954082345 44.6020865653170304  8.0634150918536989
  2.7463523467725595 44.6320773455304973 11.1809906068167670
  2.7197044721805694 47.7796849130112875  8.0174821518333452
  2.6863527925475497 47.8403524605346888 11.1354157016199746
  2.6590318219767934 50.9590699019906452  7.9444823474723671
  2.6212773373493610 51.0396052969941394 11.0632213022481647
  2.8020234356888110 41.4186345305655479 11.1927493724064053
  3.0694790267302543 25.3460161333095719 10.7020163893389366
  3.0896732536126401 25.5242694490912925  7.5858063500439687
  3.1260289842209716 22.1403757928428639 10.5065982250941605
 33.0341764394630815 49.9877990390292268  6.7485617169692382
 33.1623570807742851 50.1893257658329119  9.8660016297746189
 32.9433958635876323 53.1736996162721454  6.5503699859299944
 33.1036216787655917 53.3498372180188056  9.6686508595189640
 32.8508593725734030 56.3683382357889045  6.3887042971208272
 33.0399821809617293 56.5014746979915472  9.5081195411400969
  3.4388894388894258  9.6336243748872938  6.4468361202143303
  3.3741699959930358  9.4078027635018504  9.5661653282685091
  3.3596203315000399 12.8176032244591127  6.6845456080370891
  3.3079683783369789 12.5743952871958644  9.8015484347802140
  3.2844778737285538 15.9950558381126342  6.9308483437986022
  3.2443638030708986 15.7524541836854866 10.0465141528515360
  3.2147935846096658 19.1711110348570699  7.1698910165311451
  3.1842529684983707 18.9425351733963865 10.2856377486927926
  3.1502235438815118 22.3463595313028982  7.3905177372651512
  2.5923399757570436 54.1431681749829039  7.8587436743683394
  2.5511781942295704 54.2260862256981895 10.9782574499429550
  2.5182164936031564 57.3338193608463413  7.7799719532969158
  2.4744748142722433 57.4001311493754827 10.9001149169432114
 30.7728484003845892 22.9641435575344168 11.1785007532383247
 30.7882280503301615 26.1086679200963445  8.0090902335368188
 30.7292438772837357 26.1736249724863974 11.1266413696617903
 30.7329967710653946 29.2858209435798855  7.9245508247356122
 30.6882834198094372 29.3799371908558165 11.0418186495280999
 30.6739190825919081 32.4627570684247004  7.8110252680632133
 30.6491221102850879 32.5818957712792709 10.9282152052927284
 30.6101879827995269 35.6385899117649174  7.6732474702962943
 30.6106436393353434 35.7786311106143771 10.7901907185029398
 30.5415504842105214 38.8136941455991717  7.5157778469316758
 30.5724240662039719 38.9702994162039218 10.6325566913229412
 30.4671727293148997 41.9884026069439145  7.3434730767697056
 30.5327914837651662 42.1571612762812933 10.4600751754953691
 30.3877096512275990 45.1640938930575402  7.1609693250957749
 30.4918595313020475 45.3397128584601177 10.2777189731770484
 30.8403543793073140 22.9310559362475601  8.0612246743980158
 33.2152701994733093 47.0183106157280974 10.0812287798364384
 30.8186935065847898 19.7538498063555608 11.1966065090645657
 30.8684357848493853 16.5452090464368311 11.1824578997006014
  2.4406106098595264 60.5298888104300019  7.7261286260339004
  2.3942531540054879 60.5652532967972874 10.8472650850015579
  2.3606788862911139 63.7280366095831283  7.7089478143291030
  2.3108652320528327 63.7246553786761964 10.8304458412057816
 31.2611660163180858  0.6530966033230458  7.7321992603888541
 31.2077203406207779  0.6115544072230531 10.8529103424189213
 31.1849212955955224  3.8476207199023489  7.7905166853006200
 31.1272655740386561  3.7773118457618522 10.9102204687556945
 31.1144613534858472  7.0355267760333104  7.8708860076962708
 31.0518294237445893  6.9523845910989426 10.9895703243160359
 31.0503980769743961 10.2165271564938234  7.9540710385659121
 30.9828259626601366 10.1401137403081751 11.0716560711922796
 30.9931980187772957 13.3954905467834884  8.0221257355374753
 30.9222993588560335 13.3395518803522197 11.1390268023259047
 30.9406784881786550 16.5743228323541594  8.0654493526994653
 30.8902154573206680 19.7527824775906566  8.0795612034675006
 33.1209075564107494 46.8080972260124994  6.9647104147831627
 33.2643885551753087 43.8381393763343894 10.2988009096114919
 33.2019594883596767 43.6330090185148904  7.1826509108015273
  5.8572406637090495 23.8128172229337878 10.6273792912019669
  5.8180113032642247 27.1764074316807580  7.6853456520217707
  5.8086356094320282 27.0153964213180089 10.8018894024663332
  5.7601347843737516 30.3543307463278715  7.8318985354679231
  5.7598852593539611 30.2232349569558316 10.9487373564027735
  5.7064233270110920 33.5328563515926064  7.9474365378634904
  5.7121012326202232 33.4346709445438179 11.0645742841011661
  5.6546607147126338 36.7106426736218907  8.0286477178885818
  5.6635571551298183 36.6481321994686340 11.1460785232113171
  5.6034757076245905 39.8883169610561694  8.0735048312797169
  5.6136415815267542 39.8623907047635413 11.1912154739911216
  5.5523340726908677 43.0668256265631939  8.0818241006535505
  5.5619896591866631 43.0763533686825113 11.1997966907935282
  5.4997853901326259 46.2454611046741988  8.0559038403682983
  5.5073374750806829 46.2872160126171721 11.1738186590913120
  5.8803983806161204 24.0005633431747682  7.5112450895971570
  5.4424705494286698 49.4237623468562504  8.0000892498779272
  5.9058959639113526 20.6150790661108374 10.4288137942911874
  5.9555099586470961 17.4246043985766086 10.2115588702984077
 35.9353525459932683 45.2795411261828846  7.0112693256610052
 35.9835018339063879 45.5142274859365017 10.1269052000611133
 35.8554660744815337 48.4575711455687639  6.7675442554806819
 35.9244891991167989 48.6908081062118825  9.8843067703033878
 35.7705384013717449 51.6410900429420821  6.5333966674925650
 35.8622795374360308 51.8564209057098680  9.6517870077984433
 35.6802960649448124 54.8329424005255319  6.3273405169379133
 35.7959659050953292 55.0105014974449347  9.4483241182449298
 35.5887675834938477 58.0343797142667128  6.1705293440466447
 35.7260363049468026 58.1560545805426443  9.2937763862078100
 35.4979025231001941 61.2446075424816243  6.0807372064332395
 35.6517190347434365 61.2963638958465680  9.2051722161753862
  6.0986219321734971 14.4756075625829705  6.8677571713011858
  6.0083947604487458 14.2426467011723474  9.9837039548857547
  6.0204131180533196 17.6514131463966528  7.0959248665355545
  5.9477324399637874 20.8256999927422939  7.3130073024939168
 30.3031300913001047 48.3408024861770613  6.9753012058830439
  5.4466906595271167 49.4913913762716646 11.1183823801822879
  5.3794672589172023 52.6848679182401796 11.0424638439764493
 33.6316496592102396 18.2033183108292818 11.2422886671511151
 33.6166243022451070 21.3958574488952635  8.1221601999683628
 33.5818546549771355 21.4163106248449076 11.2391888755768310
 33.5674931586733010 24.5743653542382710  8.0828952846032145
 33.5349478464666433 24.6306934280060794 11.1998487706629728
 33.5166624028467552 27.7519941112980071  8.0066435036660479
 33.4886794339599874 27.8434390766940361 11.1232236215432305
 33.4636687046714769 30.9295970905372251  7.8951808866080695
 33.4438594888131746 31.0528984081535420 11.0114541614955712
 33.4071783913917173 34.1065997803747862  7.7524520980279661
 33.3997141949686878 34.2577859407614511 10.8684351592972863
 33.3451953329707891 37.2830819372644413  7.5827281156323370
 33.3555289868357931 37.4570291070940939 10.6984519512319416
 33.2769997892319296 40.4586719867059088  7.3910424708449680
 33.3105215012561828 40.6507550674020024 10.5069102611448422
 33.6661547258381404 18.2168659344891246  8.1254147820050964
  5.3785297565316190 52.6044413043063912  7.9234243625922902
 33.6851601425097940 14.9939593493305541 11.2123257971417374
 33.7435561118011194 11.7901999654848648 11.1538557675465952
  5.3079799382963255 55.7916884197090184  7.8427704924460153
  5.3067237035192631 55.8657640923404202 10.9625687363495796
  5.2315503358333739 58.9847591882915765  7.7778439095480145
  5.2283337894219217 59.0345971117633326 10.8989061351938297
  5.1512618290400436 62.1818954310128831  7.7441609880965627
  5.1463572160564368 62.1962079179835570 10.8662287870186507
  5.0703217025222411 65.3802707553244460  7.7501135494910827
  5.0626904983356011 65.3554884617537368 10.8718038299065505
 33.9723157845456285  2.3039084550611943  7.7944881637511081
 33.9610371247501774  2.2449624544250546 10.9151997369303668
 33.8984271887615662  5.4948529268109958  7.8684396719450218
 33.8822333327944065  5.4141480544071747 10.9882348755482866
 33.8319759250397425  8.6797056378203408  7.9558368311714442
 33.8092578739528520  8.5956751085148984 11.0743295920121785
 33.7719519445653305 11.8596793172352797  8.0365733359461000
 33.7176356339909375 15.0381294905951801  8.0954797409487007
 30.4475168893712400 48.5156472174245721 10.0921313607278815
 30.2142065185071651 51.5217888353622726  6.7977334766739528
 30.3970823561914898 51.6834065384414956  9.9145269664262319
 -2.7608477344749720 41.3191825967071082 11.0954278897734557
 -2.7284591904644633 44.4902015084531612  7.9527868530742030
 -2.8229753312614689 44.5340978474770139 11.0701547519770358
 -2.7841411916309480 47.6683429628776665  7.8927806612480769
 -2.8870375276373283 47.7424224916025466 11.0099914402000287
 -2.8441895545875195 50.8483418120968835  7.8066275534217429
 -2.9544832018312275 50.9409195135702078 10.9236611581878140
 -2.9102972157003277 54.0324959084043996  7.7090401580918719
 -3.0270598214706030 54.1258821650827926 10.8266691103570256
 -2.9825527327466714 57.2228487201448175  7.6198492176928907
 -3.1054407862479367 57.2981585784545189 10.7385189121949409
 -3.0593133443474874 60.4190114098047815  7.5564605235184334
 -3.1876181089061881 60.4619170401261101 10.6760812721287408
 -3.1388458754223980 63.6184117352561316  7.5308400541766067
 -3.2722057620166498 63.6210997192555681 10.6504773681951477
 -2.6756738722047881 41.3113717967051315  7.9777684804199689
 25.7630106175826015  0.5450406785581609  7.5471685987268984
 -2.6990914580133660 38.1003328721788037 11.0820103474703835
 -2.6362256242504283 34.8804640238237695 11.0295419199984011
 -2.2014440748209587 12.6611657717268589  6.6967539995856455
 -2.1376665835392163 12.4281178629744566  9.8143094359394549
 -2.2625595279564252 15.8417384580607674  6.9380096930585440
 -2.2154515923272822 15.6143319640130720 10.0551907014722026
 -2.3193721183644307 19.0216259127954146  7.1661596622389316
 -2.2917636100676400 18.8132570560620103 10.2833126476535845
 -2.3725029294758766 22.2032815360888129  7.3713993213363542
 -2.3654519468477453 22.0201288032414908 10.4886533259631456
 -2.4237570254394414 25.3873230739699771  7.5499157878920586
 -2.4368658965455761 25.2308643752599515 10.6675882099062864
 -2.4735293799002993 28.5735935510587034  7.7005765224964824
 -2.5056036463565179 28.4446144971413766 10.8186755779874453
 -2.5231283988089714 31.7609842917049328  7.8221843809602429
 -2.5719328866866893 31.6614507791042001 10.9405220022068477
 -2.5728649519827460 34.9469017751760234  7.9114182773101458
 -2.6241095891274577 38.1303586226938478  7.9640586033579570
 -2.0587404400033562  9.2562720388201143  9.5778896110817993
 25.6247096987901521  0.5077493288631897 10.6657082416900568
 25.5434585201097057  3.6720442014348480 10.7178333731758375
 25.0807360709852993 35.6008025679109110 10.8134091708981472
 24.9895631886983480 38.7006471300749553  7.6025706619136733
 25.0491315610414134 38.7883916177966199 10.7223286765017374
 24.9160005221304104 41.8750154658250509  7.5005896827407010
 25.0165197391011738 41.9735748106441022 10.6194538085967167
 64.1616551525100789  7.7968320645844926  6.4537697349665848
 64.3124750645379635  7.6042341172180148  9.5714747720076900
 -4.9488615986439113 10.9852973321281357  6.6684856174930927
 -4.8173144595700963 10.7740179611474503  9.7854730807736363
 -5.0063073508207729 14.1681011218111088  6.8925509259562396
 -4.8999743328834651 13.9576612712440600 10.0096051400803212
 -5.0595268635037067 17.3494207711336763  7.1077658783700004
 -4.9821351586940761 17.1549000062403891 10.2250509303601422
 -5.1103622119497745 20.5320542879429091  7.3021286299714507
 -5.0628644611388118 20.3610066842497091 10.4200490882094918
 25.0616411984948222 35.5261602863724733  7.6933600174236485
 25.6858071140046675  3.7400980011981155  7.6005255896552777
 25.1123553681121585 32.4104586802493913 10.8899518977088903
 25.1451774179547876 29.2176111165026242 10.9505983131249032
 25.6153588568090882  6.9282435925866368  7.6771424348993964
 25.4693216259143718  6.8466061462386509 10.7938633153507482
 25.5513372722689489 10.1090521886127576  7.7573334202598518
 25.4039093403252672 10.0327172963475224 10.8734478040566049
 25.4925483500682155 13.2869527240111029  7.8249445540035145
 25.3475726839958675 13.2273616822330613 10.9407130848596896
 25.4368328386181126 16.4645493172588431  7.8719795649704487
 25.2982829630097044 16.4257763916570241 10.9884213493476093
 25.3816956446885840 19.6423098185448879  7.8959862251102209
 25.2549533986337984 19.6253569485960568 11.0129496828830789
 25.3246415195522481 22.8197643126927936  7.8964283793700583
 25.2158434513411045 22.8243816238186561 11.0139046360193902
 25.2632017903629098 25.9970962651442576  7.8740229896538034
 25.1788178397564444 26.0219900495527767 10.9926165240116003
 25.1992648391375766 29.1741552151999137  7.8312781663307245
 25.1314649517205382 32.3504016668269543  7.7703506707836256
 36.0091258075398812 42.1043309182996666  7.2488524299013806
 -2.1354846375035264  9.4763092241212146  6.4589754424486427
 -2.0641677219881029  6.2832927806161685  6.2456645238409205
  0.1618203726536783 33.3227768134401927 11.0322566051694562
  0.1511484068075769 36.5990701729533825  7.9935333205004362
  0.1045011740315431 36.5415261487776419 11.1113531601198900
  0.1002577892891182 39.7795352930460098  8.0341815742579996
  0.0477239718698116 39.7601066361814190 11.1516246748246068
  0.0487624360784332 42.9585064424969190  8.0357937607826102
 -0.0105494236232359 42.9768000823673759 11.1530359150075480
 -0.0043397756749529 46.1360729171764987  8.0002509810433580
 -0.0707221265348424 46.1883142240594822 11.1177375069002675
 -0.0616553267784037 49.3140577050500113  7.9333398791633067
 -0.1347216591111090 49.3918888659884914 11.0512655833404576
 -0.1251493803534290 52.4954700519476916  7.8460951800939602
 -0.2033017948069283 52.5842738757807808 10.9645836959345111
 -0.1957106491760882 55.6831339469596571  7.7565051633961239
 -0.2775437201212894 55.7637890769912445 10.8758997383988820
  0.2023819364286391 33.4165362788248572  7.9143596050538996
 -0.2711981282313309 58.8765822963604180  7.6840872073627748
  0.2202583501964277 30.1062049484814587 10.9166641258734742
  0.2809483894910683 26.8922391100780089 10.7681907420760705
  0.7704538490316479  4.7632185750253209  6.1135458970240641
  0.7713478604114440  4.5995459971244523  9.2373589590828011
  0.6899071190102368  7.9621505435355608  6.3079369611084308
  0.6944605238596497  7.7500644125982276  9.4287934369187809
  0.6143312728466098 11.1509177009326823  6.5409171923661527
  0.6199336776842146 10.9122956404777280  9.6591088284377005
  0.5434655804910746 14.3324032870227835  6.7901325870353544
  0.5474273227299700 14.0879015010483162  9.9070376476266464
  0.4782731350822071 17.5097683783245550  7.0369821372089181
  0.4778081791537608 17.2759664701193962 10.1532348882137153
  0.4178886155920111 20.6874902782351278  7.2673371530842230
  0.4095966029196392 20.4750901196095469 10.3835870882067809
  0.3612147955103085 23.8673615987220415  7.4734406263707021
  0.3440352442883212 23.6813368680138971 10.5897723211641317
  0.3069562825959519 27.0497335784804598  7.6515178868373104
  0.2539571347887946 30.2332232140599082  7.7992244881232944
 -1.9790100371222001  6.0974009146273014  9.3665362511353685
 -0.3567814779996160 58.9323538381724958 10.8044865504829151
 -0.4397769000066913 62.0933192002418224 10.7646254454633219
 27.9320890637097214 27.7021482705459725 11.0344826408919019
 27.9382163948478031 30.8187450809118744  7.8370909412174736
 27.8965440767860393 30.9009640459902002 10.9552416441291580
 27.8721712941624347 33.9948129690797813  7.7363480591704930
 27.8619728774439928 34.0957271056300470 10.8546763894953262
 27.8024803583152469 37.1699907136711190  7.6177224031461162
 27.8279543429592593 37.2870371901511461 10.7359568253652196
 27.7294031653485824 40.3450446559472908  7.4848039300087850
 27.7933944614171544 40.4744225309429382 10.6030892977311364
 27.6535097652612940 43.5196355550826155  7.3416599046371935
 27.7578735835290900 43.6577769008503012 10.4594789489008644
 27.5728076763344134 46.6953168200540389  7.1931401525512886
 27.7190387569662668 46.8364585415624575 10.3100383167903047
 67.0606227948795066  3.0815957118497148  6.0779814439344113
 67.1482885582643405  2.9502415037425020  9.2021267327308092
 27.9998996776882549 27.6416293775982922  7.9164059370491273
 -0.3498265193190687 62.0738873705978307  7.6436403068656729
 27.9706045642817926 24.5003862421122776 11.0885863901094890
 28.0119363167538644 21.2954475954444611 11.1148538260855911
 -0.4301140808643916 65.2724341899959200  7.6431792348442773
 -0.5245181353124069 65.2520260541268016 10.7635943699184597
 28.4733490585502160  2.1978174537190864  7.6824458625695877
 28.3745923293527795  2.1419212861780621 10.8012529721217820
 28.3993067153363121  5.3889376246247815  7.7516606482299313
 28.2963257711427438  5.3107528497492185 10.8694881067314473
 28.3316195901114796  8.5732306377691430  7.8337432458923306
 28.2244532623681863  8.4922026628366272 10.9511082861498590
 28.2711261541793455 11.7528731344322495  7.9092710341162586
 28.1619608804704491 11.6860371133433301 11.0259129441743315
 28.2161146415578763 14.9307951386005353  7.9650247125126370
 28.1070779055541244 14.8866571990192025 11.0817881115049079
 28.1635624760559544 18.1081100407551361  7.9954133073675822
 28.0571359662884277 18.0901955321074439 11.1124657043381365
 28.1117893602715831 21.2861248750184053  7.9976274012347215
 28.0579713145207457 24.4645798269835133  7.9708567074620014
  2.9082350168704973 34.9852174733923036 11.1041248550091591
 38.2464405525602018 66.0826858267115824  9.1034140666213723
 27.2259477587060843 59.4416859655733276  6.7190093556708437
 30.1231511020313754 54.7098116084714761  6.6428574460065972
 61.4635465277459261 12.3034588781434024 10.0253346347740671
 61.2988935647373623 12.4921720458438763  6.9095719628976067
 61.5475365052094645  9.1225175490023673  9.8242204953566503
 61.3559514133144290  9.3078674669084851  6.7089250309596897
 61.6307246309501267  5.9553366327780228  9.6384360773082793
 61.4186646253445900  6.1172390495647768  6.5216869834359326
 61.7135178392476078  2.8006652999188866  9.4872323878336573
 61.4887278827794574  2.9194472518672554  6.3690520879507924
 32.8153006938119134 65.9279163296562984  9.3896726600720886
 32.5858253681066401 65.9871503716201460  6.2703826586317319
 32.8953043866181645 62.7876547859019354  9.3597919793630595
 32.6700494875152572 62.7785911488140087  6.2395492383464877
 32.9703938935138439 59.6465388939036103  9.4011721168766158
 64.3943752785195471  4.4475328571865704  9.3885130050938184
 64.2314224829461153  4.6011363802240712  6.2684983037425823
 64.4758490586528552  1.3020135133508448  9.2564542670812031
 64.3083249075621666  1.3973974262255613  6.1341360463600525
 35.5748081462980608 64.4343789982539050  9.1922664218952690
 35.4103048165733654 64.4581152867589537  6.0682772621314420
 27.4940675315637719 59.4950343737015359  9.8343509169115322
 30.3394570952680098 54.8431388957096644  9.7598766579087730
 30.0323269778783590 57.9055903950345296  6.5274800862521971
 32.7590867060707183 59.5708728508502006  6.2807339075004744
 29.9427371014626438 61.1065162076961599  6.4656139834457971
 30.2745583611373199 57.9955593166741821  9.6446819956890799
 27.3138786520358963 56.2463589130798809  6.7940789953532725
 27.6245072387559709 53.1808571633775600 10.0231552772583736
 27.4019401875565123 53.0573761056612412  6.9078520860473143
 27.6753665062675047 50.0114509368859714 10.1615505926753737
 27.4884797211388729 49.8738006732070218  7.0454380755591117
 38.1623640374890698 66.1426798727592740  5.9769449302742803
 58.4582439277150812 17.1802793829107792  7.3133283909255038
 58.6867440666389584 13.8419180202073520 10.2717469762818325
 58.5083705741227149 13.9979272288097292  7.1563952682662357
 27.5639208858440981 56.3417137260043788  9.9091068179303861
 58.5626364981319725 10.8166092057898098  6.9822443833327732
 58.7715912954050879 10.6503480744001173 10.0962951191553660
 29.8575793927422168 64.3110405491446500  6.4658334652867859
 30.2016870747848323 61.1414293823090560  9.5826324360079269
 58.7586994391224451  1.2416530587769299  6.5298466855207700
 59.0224096308152468  1.1569007364169914  9.6456262853729005
 30.1237444417185003 64.2847351348175948  9.5823398330526963
 58.9396169627677295  4.3097049273273287  9.7636847052923805
 58.6217250001609926  7.6316475741907874  6.8065109629034799
 58.8558764924558346  7.4736399345567417  9.9202013588868621
 58.6870437258675111  4.4400606900237634  6.6489885734149947
  6.6423494401754466 31.5652752171032915 14.1685822208266483
  6.6413508804124808 31.4467593381728392 17.5283430324655320
  6.6141387866593000 34.8561908120251189 14.2658382340352592
  6.6230781891878685 34.7721463419822356 17.6270143653558868
  6.5878125771517029 38.1456905627479870 14.3286168542588612
  6.6036547369556162 38.0993591835866496 17.6904996756664552
  6.5631170910588210 44.7512743325146118 17.7078698379498292
  6.5832739185849825 41.4263764864440276 17.7170076131277412
  6.5405034991635693 44.7259530775742107 14.3457778601124470
  6.6571314985071242 28.1237190902436538 17.3986748927789137
  6.5207863425170718 48.0213142432567537 14.3073870529543825
  6.5451653084087740 48.0722514903393474 17.6690085144676985
  6.5058875678544394 51.3244109796392749 14.2505726841807245
  6.5630991950004773 41.4350461302766817 14.3548524688670494
  6.6714180453426284 28.2716068696601290 14.0411899682870587
  6.7581424481728982 18.3643738625636175 13.5299926498314349
  6.7010006565779534 24.9743199179047899 13.8882298471730898
  6.5312437780788191 51.3874870521326628 17.6117314321398588
 38.1130358253756825 52.8856362348353883 12.9430375644421680
 38.1478831256897521 53.0529954836369981 16.2871169066273360
 38.1095352820588857 56.2327519396003908 12.7956861881805768
 38.1524789694239601 56.3583483293881287 16.1388983466325477
 38.1097086752837839 59.5914188551798532 12.6956366845640609
  6.6701550536284131 24.8022385526757922 17.2433677321555408
 38.1602169897701202 59.6637099903833530 16.0380811335586095
 38.1695833899776602 62.9694794024379760 15.9940126265152447
  6.7830326249740471 15.0485299121858471 13.3404299496025089
  6.6963883745327903 14.8529567742489697 16.6880171692720722
  6.6892106895083270 18.1661859659278342 16.8799374745248159
  6.7304328136455851 21.6723947178618666 13.7156581199600307
  6.6805783920319106 21.4828270840406823 17.0680420854495445
 38.1126470443343734 62.9569220132750189 12.6518585069403073
  6.4983237748880871 54.6377661995392998 14.1903031950731311
 35.3868239872067463 24.8632380594041642 17.6987234455526981
  6.4983737712780592 57.9605898702513471 14.1401225401839898
 35.4113928038317241 21.5372049492641295 17.7392009426599202
 35.3962768008183915 24.8047178920540574 14.3366669667876909
 38.1473112717222023 49.7467901942947321 16.4698209532556668
 35.3697018099099409 28.0945344711092275 14.2603806849630548
 35.3637249517647732 28.1890440775885800 17.6213326793460219
 35.3427799941035730 31.3860875856902304 14.1494839487977249
 35.4220730567893511 21.5157344235758643 14.3765002478329045
 35.3430610050614717 31.5134427316693824 17.5087229348169267
 35.3250735236547513 34.8356217078191222 17.3649568205144398
 35.2887741087900579 37.9770428597992051 13.8406440924449807
 35.3103685600881363 38.1552236761752610 17.1956887472799664
 35.2632813819082713 41.2795441476400242 13.6551869137418134
 35.2990732135996694 41.4724775859820980 17.0075326083060503
 35.2398685084421146 44.5888174374162034 13.4593738289450808
 35.3155489410801380 34.6798576122129703 14.0078042276744892
  6.5231886599730613 54.6976639416508092 17.5506913402573659
 35.4364262570995692 18.2124307247405461 17.7431041384663608
 35.4604916414781570 14.8908116866167539 17.7143657054953749
  6.5205436823714651 58.0047358947634848 17.4998520233255732
  6.5035542969134399 61.2898433202282718 14.1094831841274768
  6.5218701183393692 61.3101024434015400 17.4687849168542186
  6.5107985008583826 64.6226747541544171 14.1045530932015772
  6.5249815800495794 64.6143581040486907 17.4639031695773035
 35.4981916916360873  1.6824315561928136 14.1273411160817695
 35.4459101880960432 18.2259058595890941 14.3802554810398142
 35.5078270408166929  1.6470656606023528 17.4868007272761865
 35.5060021388817972  4.9531741281505521 17.5335394529854547
 35.4968762653788303  8.3278361402358065 14.2346539853400547
 35.4977879558560687  8.2614793750321081 17.5958171132907921
 35.4851812292704238 11.6350681066117136 14.2992378064606065
 35.4820931225741774 11.5736819335017653 17.6610486286458190
 35.4673950573741621 14.9332364399527293 14.3518660672399143
 35.5006754106976672  5.0094208559756952 14.1733104453507242
 38.1202440342608568 49.5518250117971917 13.1244217296696615
 38.3416912282546534  9.9953478725440146 14.2529145820612051
 38.1309197547771035 46.2309250285771611 13.3245459560592749
  9.5333717275759717 26.4656668930022470 17.3421282608100924
  9.5275159460810332 29.9118030190180413 14.1096920506155250
  9.5232835938159379 29.7903913404911549 17.4686258284139129
  9.4938938345035471 33.2087544258339591 14.2091973762078716
  9.5108155533162702 33.1162977844512554 17.5695503062057945
  9.4616205726330929 36.5024655920202150 14.2791652244974117
  9.5619879532733734 26.6108586872023700 13.9853289303790174
  9.4965181790421482 36.4434613881320359 17.6406989762611843
  9.4807318398098133 39.7711262797528846 17.6785059282474535
  9.4054897186371917 43.0867816509914263 14.3207516119360676
  9.4637241179103206 43.0976021671051797 17.6824807860421309
  9.3822811259762418 46.3811864712977098 14.2943810315471627
  9.4466866090676405 46.4207006710944370 17.6557501995761896
  9.3634260936842519 49.6808247030095202 14.2450902013076472
  9.4320426553579502 39.7946029933290788 14.3166300433648068
  9.4317099052016715 49.7386097160829479 17.6058786698046035
  9.5417790238451108 23.1421838867580973 17.1948105033221594
  9.5488538477276474 19.8205130464490793 17.0318431462364224
 41.0524657563017712 38.1604678065613072 17.1755179865483321
 41.0472967576744878 41.2677481565865847 13.6303855008617596
 41.0339890744127089 41.4720750297287140 16.9820686491731294
 41.0394540601258271 44.5681230494299570 13.4263374821010171
 41.0203444571739553 44.7805009327173522 16.7751250252452522
 41.0341416079185990 47.8792531221833286 13.2201986724319358
  9.5965083921532681 23.3060307756809983 13.8407907924690718
 41.0121609422860374 48.0867779611218040 16.5663464063887602
 41.0090750887015147 51.3919849310756547 16.3692886194750606
 41.0322532808572618 54.5428304242477537 12.8557257538322283
 41.0105734736472556 54.6965917263804968 16.1987839780812983
 41.0353379622923029 57.8949901296048139 12.7260289648814915
 41.0162627449221233 58.0014391321292990 16.0686945303908999
  9.6306493009795613 19.9971553271169746 13.6805792650596203
 41.0317060347546061 51.2039856747155397 13.0251256962397246
  9.3503759788355421 52.9892583254857854 14.1857124430350403
  9.4211200086230029 53.0506148718229937 17.5457127388372136
  9.3455859957857115 56.3082918124276048 14.1310746572366881
 38.2678711341392628 23.1706588743890265 14.3571401089667265
 38.2871979790509229 23.2106916135261834 17.7195679634187933
 38.2450520544484718 26.4577865138382471 14.2994413281596593
 38.2598775713394588 26.5363665969822904 17.6609393430891721
 38.2227592837656829 29.7453011859593843 14.2044916157763161
 38.2339756538616413 29.8606609590233809 17.5644483705840422
 38.3147988258012049 19.8851628396366422 17.7398197684715058
 38.2012945111767692 33.0343597549898007 14.0747983367560856
 38.1808846468458327 36.3256521540611743 13.9147599423491251
 38.1893102948507845 36.5016008121148303 17.2706367067597277
 38.1617726741963139 39.6205411003117121 13.7305940848765200
 38.1720978038693346 39.8170587392591742 17.0841703050285290
 38.1449511181022558 42.9212968409788687 13.5304559379818059
 38.1590010561091404 43.1294734209347297 16.8814564977181867
 38.2101902517724383 33.1826878253148649 17.4327682194950739
 38.2899865033999731 19.8826454177654313 14.3771055859295398
 38.3419174162258258 16.5616941908691402 17.7238563391250352
 38.3105341088630453 16.5925629962003889 14.3613662661904193
  9.4158826476703066 56.3585625082436295 17.4901937201713977
  9.3479798432120802 59.6353298111668693 14.0927604572260847
  9.4154195914527552 59.6645536153745795 17.4515768467435493
  9.3544567621423997 62.9668564786397411 14.0778061536237988
  9.4177292474003576 62.9696219562141195 17.4367496755512477
  9.3617557401604792 66.2998197731073589 14.0903605516012149
  9.4205556067510869 66.2744754415852810 17.4489998267689401
 38.3479253543151231  3.3578150053426015 14.1286294417608040
 38.4021252247679996  3.3083271922665105 17.4874482696082794
 38.3481328650054252  6.6814566209354664 14.1860109421782621
 38.3975909987633202  6.6160650548032791 17.5458730811355927
 35.2912041024766836 44.7872320922601403 16.8090186862109938
 38.3859550616780751  9.9268701606383285 17.6140842645546236
 38.3285519492717910 13.2980528429440774 14.3163309519793280
 38.3665918768114267 13.2420408821498832 17.6782791192067990
 38.1508222325760258 46.4390909067062694 16.6725598779751643
 35.2202400627152130 47.9070314636578729 13.2634983406386464
  3.7628544144239986 33.2063957938819669 14.2205641404882108
 35.2048878202055278 51.2361046417588568 13.0798385601837612
  0.9212370143687575 28.2675537198606683 14.0221207346967685
  0.9050568436307148 28.1212714723870718 17.3801393994761995
  0.9046216192339424 31.5542404523509958 14.1524959925232778
  0.8802761508801842 31.4406530222415803 17.5122028821180571
  0.8869924002763818 34.8399461377783126 14.2487269092185613
  0.8539263036717935 34.7629252210530453 17.6096812778918270
  0.9277169620607468 24.8050386101953855 17.2181683382666471
  0.8689107066601786 38.1255896217571362 14.3077426346128043
  0.8503787314119278 41.4124303133859257 14.3286976310675644
  0.8014545095308612 41.4124295334144108 17.6902749052019139
  0.8327173465672894 44.7018790760302025 14.3134543943483745
  0.7770662289073842 44.7360159965441468 17.6749668253933194
  0.8174743516161955 47.9965651863957348 14.2683732762513102
  0.7562732552523410 48.0559168766069291 17.6295428020244493
  0.8275101150920221 38.0873644406659722 17.6693722735133676
  0.8064114873480560 51.3000523306363903 14.2052171621192009
  0.9370562511217783 24.9792249409303686 13.8625053996837462
  0.9510928487257840 21.6873676259482551 13.6792743092275533
 32.2924440778340411 52.9278256329899364 13.0932872655683408
 32.4267012941495452 53.0696225962296992 16.4384864184878623
 32.2806441758876446 56.2737178490268022 12.9676361740548973
 32.4320789728714942 56.3756589255817957 16.3118043863785473
  0.9844320574405282  5.0764653651000646 12.7633096465161735
  0.9826067356330344  4.9534776137504437 16.1058606183676716
  0.9469904029825198 21.4916005190294825 17.0320242272996936
  0.9839237741987858  8.4239611549972508 12.9045462593515623
  0.9801704029540206 11.7585147310272848 13.0799317901376977
  0.9805588640218343 11.5665824754884756 16.4248330406901530
  0.9731544031395523 15.0799559473357352 13.2760658568964462
  0.9736009790627841 14.8733102493039393 16.6231101703153037
  0.9631970300671738 18.3887471486956358 13.4801409125160667
  0.9622577947452730 18.1810721579415109 16.8299853674377822
  0.9836032731578144  8.2599901290033575 16.2480368822048717
 32.4252477212489225 49.7609940566791522 16.5983167251636203
  0.7411174582561270 51.3705546388544363 17.5654270341841681
  0.7329219424157556 54.6807118635522542 17.4978355338734239
 29.7077398349501465 21.5073269714760151 14.3037856829145227
 29.6368280131355384 21.5135599276631169 17.6653758750937797
 29.6758438634632959 24.8028841940949043 14.2789094097824876
 29.6205528819152804 24.8394679354914665 17.6405036775735340
 29.6413995215291131 28.1001277901198598 14.2237633960921404
 29.6062053430102310 28.1663241783579217 17.5850387904359700
 29.6553203664938181 18.1900340090759300 17.6599152973761484
 29.6050335834467013 31.4001337329467702 14.1404015669370580
 29.5676880622287683 34.7035812004474522 14.0324275473886573
 29.5846238650874653 34.8190375270155812 17.3905847346357625
 29.5304863689127579 38.0102489357150191 13.9035935823060921
 29.5771615107319121 38.1445470280975201 17.2593715537708654
 29.4948390223067172 41.3204389696104428 13.7582417634640652
 29.5717101026476108 41.4687325199560277 17.1117756917701875
 29.5943242174281416 31.4928766935683697 17.5005231192458730
  0.8016567681109044 54.6140228261905207 14.1388769737230220
 29.7363686741083022 18.2122618031441732 14.2986024305302610
 29.7613021426869260 14.9160065987001857 14.2663660064951241
  0.8031359359892325 57.9373908771067434 14.0819980405500118
  0.7309596328529901 57.9882901727863924 17.4402950792884859
  0.8086202480953850 61.2673655053068202 14.0445299985793106
  0.7332794117565714 61.2941031200820419 17.4027629394100636
  0.8157555871915771 64.6006356136946351 14.0334637940150149
  0.7369386182031897 64.5986258096577757 17.3915942994574735
 29.6747684211922369 14.8698883552702519 17.6272555870021179
 29.8022691810730826  1.6610499891511521 14.0506620107143423
 29.8030146225015997  4.9887184176499053 14.0922443930240195
 29.7173643447394085  4.9359010965789407 17.4512076836809236
 29.7963326180940022  8.3073377849654904 14.1506017340478962
 29.7084797366901228  8.2428853711166408 17.5104986764647492
 29.7816986732720999 11.6155206154669379 14.2135594786977943
 29.6934359340604637 11.5539449972516994 17.5738678901158423
 29.7197886577496284  1.6308288244760698 17.4087774008011493
 35.2866576913602472 48.0993708691270285 16.6106396583966074
 32.3104042293398450 49.5929342365370829 13.2514657900711974
 32.3341906144625000 46.2685940220446312 13.4282178659286622
  3.7914545685591996 26.4609933316185746 17.3108858823145155
  3.7859432278937506 29.9178087110615500 14.1027621880484766
  3.7721971608724605 29.7808851343985665 17.4613279072041934
 41.0572406604861371 37.9742041045466010 13.8210279468577344
  3.7505457924392314 33.1038881943304872 17.5806118722451821
  3.7404184154427873 36.4938802100665924 14.3033095192201340
  3.8092392420459813 26.6271105340833145 13.9543821709643101
  3.7274311340536324 36.4293274585667319 17.6647191572226347
  3.7037832233902415 39.7557693809492676 17.7105765310835892
  3.6973342258266224 43.0698513619221686 14.3556226518302434
  3.6807840649851844 43.0811026558599437 17.7179525710463501
  3.6780258821890075 46.3618131468889629 14.3296274328975191
  3.6597398025060297 46.4037741308504721 17.6912486450494377
  3.6621750833914199 49.6602852495729934 14.2782159626180380
  3.7186275061954994 39.7811607361248036 14.3481379176118669
  3.6425235238843316 49.7218514446608140 17.6394967921990578
  3.8078625082728981 23.1436685212299977 17.1351256861685535
  3.8210913135178646 19.8291518114539613 16.9409349748631080
 35.2860880384373274 51.4081486857351564 16.4252325567815269
 35.1944143061509180 54.5772179839558191 12.9227385837769777
 35.2894289935863767 54.7148220926985545 16.2668538515179506
 35.1886429700888854 57.9298515000484358 12.8062879624191179
 35.2964436862838085 58.0201593396352138 16.1496226940177898
 35.1875777967267496 61.2905157183538307 12.7411965037129402
  3.8321004118038191 23.3330346083357263 13.7809748995515005
 35.3051413634763378 61.3257711630207893 16.0837913947811373
  3.8427372760391258  9.9010627378672176 16.3520184691759276
  3.8880346669413122 13.4074762699504255 13.1909607179525317
  3.8388294807745953 13.2086044284708546 16.5371908501829878
  3.8726489059275693 16.7256219603947827 13.3890144618689018
  3.8315150634869237 16.5176721263625765 16.7377101970727722
  3.8534870050203600 20.0334549170177247 13.5893445612390735
  3.8994455201481606 10.0778446445697139 13.0076639921742458
 32.4274027471261093 46.4477630092447882 16.7769568966156974
  3.6522316106245860 52.9682908836508091 14.2153879169415340
  3.6496171257638936 56.2866528017210399 14.1557514566073515
 32.5336735590861323 19.8630208235572354 17.7203872700765963
 32.5512568599616685 23.1546191926239686 14.3395149082146247
 32.5122232948366161 23.1883633087065064 17.7017821161111684
 32.5216304294604797 26.4469801182388693 14.2869377352397287
 32.4923050129863924 26.5147077063905989 17.6486504374601054
 32.4903999828206267 29.7408758124438073 14.2013771014019685
 32.5790304265093553 19.8629795999482326 14.3579797114564229
 32.4747542854796407 29.8407011992618507 17.5618944222761328
 32.4250570716668420 36.3380941105832349 13.9450685617448435
 32.4475303624318059 36.4885301557157646 17.3017502697378056
 32.3928272533085533 39.6429097805546746 13.7844000540051610
 32.4384970000589448 39.8101918535929187 17.1381604831532783
 32.3620796583277794 42.9526235625014365 13.6095068668280792
 32.4318858997069981 43.1304929210330599 16.9605677344248988
 32.4579541563499276 33.0377582246766508 14.0858358739144336
  3.6311238499434624 53.0345516515605411 17.5760767187142015
 32.5557052239619935 16.5401218754827681 17.7059674418689745
 32.5770251381147915 13.2210963574534954 17.6641791322576331
  3.6260919272796395 56.3434206445744294 17.5154865381072753
  3.6528653396043573 59.6133629479983824 14.1110213014472166
  3.6261257441203107 59.6497723051211679 17.4701974233155219
  3.6594988078062891 62.9450451982076657 14.0891671236174219
  3.6291879013330766 62.9545704200646767 17.4485120242115102
 32.6474675704548858  0.0059404187024874 14.0953712268122064
 32.6039000073632224 16.5702764727137186 14.3438335902334302
 32.6132607798320322 -0.0132803800802943 17.4545544580291292
 32.6133648389835855  3.2917115431679180 17.4873742601419977
 32.6505389012317835  6.6590690930604337 14.1806058265138084
 32.6080698732321466  6.5979463091328352 17.5410562040702871
 32.6414796585045366  9.9715482731185947 14.2435297390922049
 32.5954449458385440  9.9070695567676950 17.6047828304824989
 32.6251680190837803 13.2741001278807715 14.3025239731429892
 32.6518068187460457  3.3360491812717812 14.1279734559281920
 41.0754036354619601 34.8452933324766292 17.3467696107107834
 12.2050029731338530 64.6447207663577217 14.0170337964525249
 41.1013898018370156 31.5268517058712767 17.4889740123830109
 52.6241730570100898 21.6107256417560691 14.0256915580639916
 52.7300157903384985 21.5573843981367190 17.3834359243754868
 52.6250042842217383 24.8948277405412313 14.0698240243362385
 52.6979995440276880 24.8719684651126656 17.4287351344106902
 52.6265171758205170 28.1764602123602828 14.0837731118910323
 52.6643285770403438 28.1863150908276019 17.4430482746478823
 52.7599170936502091 18.2423394508846002 17.3102943741092368
 52.6289709704860869 31.4573867060568908 14.0654058882336308
 20.8911909508747264 39.7435018431947498 14.0391668441801674
 20.9806876796316750 39.7965443043091156 17.3974881029421731
 20.8535655092826744 43.0529249096519138 13.9710604546588630
 20.9758840131194582 43.1233196841858373 17.3278350435474060
 20.8187187468909016 46.3641003764443482 13.8888480929043290
 20.9709233455983366 46.4465406532539546 17.2438669136464107
 52.6305058801299666 31.5008576883552216 17.4246851069819009
 20.7885556474419033 49.6791056008144736 13.7993288244699439
 52.6242902143909461 18.3227910782065635 13.9541052681838380
 52.6253464774872057 15.0287952493053769 13.8596861769089728
 23.6143086940044178 57.9938358258475901 13.4345224829453951
 23.8404881682578491 58.0403134313529208 16.7821639631610253
 23.6136842157774787 61.3366914750627572 13.4053994208556766
 23.8470721890141917 61.3454925750438704 16.7519798649106804
 23.6190655889951806 64.6807730817249080 13.4151164703885630
 23.8533619113633932 64.6512226475059180 16.7612315612897298
 52.7872198128416628 14.9277609114309691 17.2137390734817970
 52.6087895654514170  1.7497411982223980 13.4626486147264988
 52.6177162782446644  5.0845360501091514 13.5410750887909810
 52.8353512207105069  4.9941651720092990 16.8882848115002808
 52.6237053301795399  8.4104279163595059 13.6404372887739616
 52.8265141237307745  8.3038126707621860 16.9896743605469780
 52.6257412291157962 11.7254349886082192 13.7508419103434196
 52.8101672498184271 11.6147036353609998 17.1024700091535280
 52.8374432675146721  1.6857660082899097 16.8089762500138313
 23.8365121938708207 54.7346907152822695 16.8490991014555398
 20.9665847470039104 49.7646660117294601 17.1526742642404209
 20.9644475002802331 53.0771046038703318 17.0651426629895298
 49.7446158633573390 19.9497309899441184 14.0976368375241758
 49.8630782877265091 19.9045176891335913 17.4566116535891034
 49.7398779248832028 23.2356640061576414 14.1317544437734846
 49.8309629713169784 23.2224482050914851 17.4916501195834186
 49.7367514683215859 26.5183246948226277 14.1341883317469836
 49.7974498515999997 26.5393697180882597 17.4942929538683103
 49.8927885005871232 16.5866100615020997 17.3924351631719460
 49.7359532317923438 29.7991280479548841 14.1034309116752521
 49.7363768810386304 33.0797966018804317 14.0391658444476768
 49.7307727617663744 33.1693761983553230 17.3976222105255189
 49.7380068903290535 36.3621879896030009 13.9438197439366149
 49.6994185675234803 36.4820293353722604 17.2999704405427721
 18.0797174699942858 34.8065507914906505 14.1430869692273333
 18.1207565993234141 34.7985727375780129 17.5029852568312450
 49.7638007689500768 29.8552274024041822 17.4630483169966872
 20.7654286748046957 53.0000530330179558 13.7130950847415445
 49.7507401482693510 16.6590695457818825 14.0352835370208844
 49.7565082321849914 13.3615871423876929 13.9505527824110143
 20.7521416014830855 56.3292540957278760 13.6441887904457442
 20.9652588410914937 56.3845062991314236 16.9947859240244590
 20.7491999048844491 59.6657387838349678 13.6037372173989848
 20.9692098826229234 59.6903842713890995 16.9528399695246783
 20.7533017267678730 63.0056920742577304 13.5960034452540786
 20.9744422035018765 62.9963999823280005 16.9446201472739091
 49.9191528090285104 13.2704570954198005 17.3056119551635703
 49.7421923424303003  0.0730080949530625 13.6222306585616035
 49.7510080590813146  3.4078757606899841 13.6796325199941506
 49.9589315623277344  3.3379867592555552 17.0291774540769048
 49.7573313107268191  6.7357146125611971 13.7601489839932327
 49.9528963279533187  6.6469331476967950 17.1110156563823104
 49.7592463877903697 10.0541611575644705 13.8541085186003521
 49.9396709847143114  9.9573548143191122 17.2071095372696661
 49.9590711708216588  0.0305984725038066 16.9711902229496765
 18.0410373779439794 38.1131170930629182 14.1317490501789340
 23.6239860342729244 54.6557406454024175 13.5002060765631189
 23.6437670617195188 51.3253516457186052 13.5946893875268415
 29.3876109459230221 54.6216723750578979 13.1633627487591944
 29.5673048412310848 54.7297030607587871 16.5086030155197889
 29.3776684036768714 57.9686259930787529 13.0727229696166489
 29.5736289224344162 58.0351156963974972 16.4167153169926792
 29.3748116078629558 61.3206660026389798 13.0266773440394381
 29.5820123614985953 61.3402947462507839 16.3698114053416752
 61.4380859245858773  9.9456057444336299 16.5626778486171631
 29.3778888239721105 64.6754243130108932 13.0293695589605392
 58.3661527765006269  1.7552006755693417 13.0813134057764398
 58.5769432742375855  1.6799620230451553 16.4240856009614511
 58.3749552723016762  5.0989037373375456 13.1743882553799292
 58.5779626549242138  4.9887248110390114 16.5177427067301252
 58.3828968439000846  8.4320313313755655 13.2966293689282296
 58.5730059147491673  8.2984261189641728 16.6413200554515477
 29.5904653327072609 64.6456752960547334 16.3721874067813218
 58.3895847325537645 11.7527308818693310 13.4373466455981063
 61.2847585255055876 10.1012550511234842 13.2185187201988477
 61.2767056404629429  6.7704090595777320 13.0742075216426166
 35.1907747580474890 64.6548684680094823 12.7330303596544603
 35.3143643967189291 64.6320499699284028 16.0750151541783737
 64.1774707023599831  1.7445876642609639 12.7818005853756116
 64.3033227036283961  1.6670470175072483 16.1237025108175267
 64.1837351809852095  5.0974187759585403 12.8806989052387184
 64.3077038408869157  4.9749685052262462 16.2229778322908906
 61.4435937140648463  6.6373800959944198 16.4163390351508056
 32.2753592640155418 59.6275596422071743 12.8866025832160123
 32.2758859895401997 62.9864909775084669 12.8570892777242527
 32.4492611322729729 62.9869138312105079 16.1996962294025195
 61.2617626675849394  0.0741961710992995 12.8822210680737914
 61.4383645565902796  0.0208321321413565 16.2240142584849565
 61.2689251983773175  3.4276492888620158 12.9581442892576142
 61.4432972043097934  3.3284378001405481 16.2996940971448225
 32.4401508441214190 59.6811470394913073 16.2299983821799465
 23.8355330481495074 51.4250790478077704 16.9445910858426778
 58.5612611300875656 11.6070864757911298 16.7841993388802067
 58.5433779549780411 14.9156724530012124 16.9344115350276141
 55.4999847435772722 10.0832478207598157 13.5280999853785620
 55.6952373789545376  9.9575023201776585 16.8762982322211883
 55.5037247122132484 13.3942878076701550 13.6566179280277797
 55.6775092903422646 13.2678488658096612 17.0069713832848741
 55.5076731911474610 16.6936033867454405 13.7807617297959197
 55.6541258452405927 16.5793474787811768 17.1333671366098734
 55.7061068147594938  6.6476660040347166 16.7544155677381283
 55.5114725199649186 19.9847141943575686 13.8888963668193686
 55.5155052690055584 23.2710593775960675 13.9743655102155522
 55.5967145215323910 23.2043184123018200 17.3312146325659384
 23.7052543040984922 44.6859763568352690 13.8142779183847182
 23.8406084299650693 44.7885532756084928 17.1686334472076574
 23.6715664147415552 48.0026073223751126 13.7037744088015661
 23.8373097521085882 48.1095021645281165 17.0555696432474839
 55.6267429001456009 19.8915270393193708 17.2438321976710114
 58.3960163401781358 15.0600741742067648 13.5853043428386009
 55.4942861838580512  6.7596028545561664 13.4084084854352401
 55.4856625572807332  3.4251062035108992 13.3083793764557381
 58.4023056096723963 18.3566267027539389 13.7267270960121923
 58.5203900116318323 18.2255442268489283 17.0787885862256239
 26.5328633162999097 49.6418228778149597 13.4998154522591083
 26.7014120969734847 49.7683482518226867 16.8487259588548035
 26.5091437807778583 52.9726783963529542 13.3772797942507928
 26.7020259642920941 53.0801585398535778 16.7245812045134308
 55.7098600851276657  3.3381944665459922 16.6530102917771750
 26.4942328162403982 56.3121007077771552 13.2816914237391988
 26.4881156277388463 59.6573819730484161 13.2241530631215767
 26.7123958782006703 59.6920079687485412 16.5690941347020910
 26.4890081223128675 63.0058850016633869 13.2092110719160107
 26.7205155076130367 62.9969315383884521 16.5536259083145723
 55.4763872650692846  0.0821260267174704 13.2385548363596044
 55.7078249476418890  0.0304407416004938 16.5829264754636085
 26.7057796054991030 56.3871142117363391 16.6277319539256752
 18.1156147027229402 38.1279831456971863 17.4912938945801884
 18.0039950909080986 41.4188662211212772 14.0989266445206276
 18.1092916193827911 41.4556962133064175 17.4577179247874135
 43.8970185204105121 43.1207797939391924 16.9038963348545899
 43.9440625877141784 46.2202925623800027 13.3553648809575716
 43.8831436337389107 46.4272706151845043 16.7026555829613628
 43.9463422337953631 49.5348879112557228 13.1586284468052561
 43.8748675707800899 49.7318282614902785 16.5034649358951562
 12.4558294504695937 24.9362785422650823 13.9517941106764383
 43.9442712880666377 42.9184200824901225 13.5544455554967413
 12.4033767433826547 24.8052176459392513 17.3079937114588951
 12.3965281844675008 28.1315990980893673 17.4209596336566719
 12.3794508040310500 31.5470412934701478 14.1526195994938533
 12.3893992874585539 31.4593075533305750 17.5123529167200331
 12.3424353996746952 34.8475106711498981 14.2180041551457617
 12.3803034906054936 34.7877485218757769 17.5787784057517484
 12.3077724743823680 38.1448892795542776 14.2556846554052150
 12.4173976597613898 28.2432368789955532 14.0626083178753110
 12.3694176917890157 38.1158560651464597 17.6169907270035182
 43.9164011897864626 39.8116715666661847 17.0947064029546425
 43.9400821755830577 36.5000319414968715 17.2658149248348813
 44.1496889787874309 13.2597719223597270 17.5476644410483367
 44.0228797410544814 16.6240724005621345 14.2476052071647441
 44.1237037661374316 16.5789936221852301 17.6078730193537645
 44.0079949655126512 19.9138090275209976 14.2792749480823833
 44.0939904094352073 19.9013073921907342 17.6402829846054843
 43.9929063808545138 23.2000431199584263 14.2766959776893341
 43.9462600567539212 39.6248155888321776 13.7422817775577304
 44.0620365976404074 23.2247623179723810 17.6381044944718717
 44.0293684918144876 26.5472185470262190 17.5987491683685668
 43.9670943653100892 29.7681437934019222 14.1615550682428850
 43.9971626123682995 29.8675135894916295 17.5219616849369579
 43.9574929766964360 33.0517394454803082 14.0513483287771805
 43.9671729632402730 33.1852040836357389 17.4099693697315239
 43.9506943691943732 36.3366952442669984 13.9100680377108485
 43.9790789648950238 26.4845422048987054 14.2373431219605333
 44.0355876211060391 13.3282587981987657 14.1883576108774108
 12.2761325027625698 41.4407156945233695 14.2642600803344965
 12.2484756211419672 44.7369092497384742 14.2450834265395514
 41.2863754162420591  8.2805714322279229 17.5241997277753967
 41.1872150962681047 11.6617906124324762 14.2359944066110309
 41.2703360529339207 11.5932854533258833 17.5964783273541485
 41.1737174078730845 14.9608180826348622 14.2971843828146845
 41.2473716924029929 14.9107762501952230 17.6585377211639845
 41.1566948819767546 18.2528244844581735 14.3346263019426594
 41.1951312597535306  8.3526208714577486 14.1649297356142299
 41.2198888077019276 18.2323630010193121 17.6966271229302983
 41.1904583600471028 21.5567266686427956 17.7014469040115685
 41.1191827563138261 24.8269751671657275 14.3068949325626775
 41.1600049045652980 24.8817563055456041 17.6686454877832873
 41.1008621232839673 28.1124836848589226 14.2364568038938497
 41.1300001217813929 28.2054340634949732 17.5972377365668606
 41.0841856792700924 31.3980206489681173 14.1295210796401083
 41.1380178844739888 21.5409253806507373 14.3393866572787658
 12.3569775500327950 41.4427538111106131 17.6255175181364478
 41.2946030886937407  4.9711578801091552 17.4560863336093739
 41.2962755599571665  1.6637208631735627 17.4035138501818665
 12.3432376999215609 44.7673476358019116 17.6054483284856254
 12.2252836068935800 48.0358197763954351 14.2020456012249845
 12.3293637279924297 48.0879812258110206 17.5616544883763694
 12.2071781619499244 51.3410710359214093 14.1439735537960374
 12.3177533808037882 51.4027470092400662 17.5032120810011165
 12.1961575547570273 54.6558466820459898 14.0847452174826220
 41.1967300295000527  5.0328519509070739 14.0980987056181188
 12.3106069247865726 54.7120901894594454 17.4432816887103748
 12.3086617547460779 58.0184528652275375 17.3962947724778907
 12.1980237856583997 61.3113260344265996 14.0149227047863505
 12.3103615152642814 61.3241825834103906 17.3718280774764686
 29.4611295745897372 44.6344771916500989 13.6017700114418094
 12.3134153996481626 64.6296723347368527 17.3741433748831113
 41.1929163086247740  1.7050369719525043 14.0462782018168717
 12.1937736792051936 57.9805921041699364 14.0388951933978419
 44.1697979994995507  9.9452749388221129 17.4714858180120345
 44.0442174311110932 10.0231852857624002 14.1133411339503052
 44.1821018819746882  6.6345749085026213 17.3941727833648194
 46.9005473356367872  8.3814047731537400 13.9530994357890972
 47.0638402093311470  8.2968806663013606 17.3079691954542518
 46.8973477821415088 11.6929867013938900 14.0388643622154756
 47.0472077805126290 11.6089923451790646 17.3953897024033743
 46.8891425494550518 14.9940042336727259 14.1180918113008964
 47.0236171920370509 14.9249615117387613 17.4759578712984727
 47.0730694516556412  4.9873077618467025 17.2274144772531699
 46.8786495303948172 18.2871406223849462 14.1768302101801371
 46.8678783363987534 21.5751206954136201 14.2063894595363482
 46.9635748163687552 21.5654397523664478 17.5669955405227078
 46.8582773045840284 24.8597816907977531 14.2028241944886755
 46.9301377931843220 24.8860850019739317 17.5640516618906517
 46.8512872103529574 28.1422639706401050 14.1645039918812294
 46.8966047910559425 28.2051937785460289 17.5252489709385095
 46.9951923362401374 18.2444241500817057 17.5361825437084740
 46.8462553158093229 31.4237073164880876 14.0914754188668212
 46.8981721607925763  5.0592728602027535 13.8742903507810720
 46.8913900670191026  1.7295208041831767 13.8120922065623173
 17.9698009040833924 44.7247212486934771 14.0468620735582110
 18.1018769284925263 44.7803980536211270 17.4044146047372905
 17.9396893344165207 48.0325064614667809 13.9798663599069464
 18.0946399731414935 48.1008409314764620 17.3362475718501869
 17.9155245573419890 51.3449631781133391 13.9064602047069297
 18.0886875307815842 51.4161134212905395 17.2614175414033966
 47.0761818589787921  1.6791250030971669 17.1642384474701828
 17.8993931583174799 54.6653447686495539 13.8382651934708267
 17.8934088919883969 57.9948133732604632 13.7892297923284364
 18.0863741525047992 58.0321371276454627 17.1416497346789001
 17.8956007097218013 61.3298913919653828 13.7669350709451095
 18.0899820622171781 61.3381521723302612 17.1189163189387763
 17.9022224202116682 64.6667872279292339 13.7745922205251894
 18.0937174393401108 64.6443782779874709 17.1264657570638832
 18.0857099977813398 54.7258663807090784 17.1920870577196716
 46.8640209105067598 31.5216791807474799 17.4506895239103557
 46.8434275113866860 34.7056542068833807 13.9856501338719994
 46.8331997924339234 34.8359541714445768 17.3425346333870714
 15.2101205911849338 49.7528094445578617 17.4289311027312870
 15.0521403303969628 53.0025274008037783 14.0069369524237928
 15.2025820456607867 53.0651653616839312 17.3635507821356327
 15.0433772241228780 56.3245848523439321 13.9514061321958529
 15.1994833779000498 56.3727089943191331 17.3070914724142888
 15.0433697740655816 59.6546520743561786 13.9166575182591377
 15.0695514482153214 49.6903821270856909 14.0711878903564767
 15.2007469232202066 59.6784603547762273 17.2714019352585488
 15.2041447611900100 62.9842733963245749 17.2625626180926091
 44.0371250541234929  0.0510316363973221 13.9272896856831991
 44.1876851019287926  0.0183793696097830 17.2822743338908893
 44.0438068879255766  3.3821092937122921 13.9725818827595099
 44.1874526878670153  3.3257411312781349 17.3280863864574890
 44.0468862816922666  6.7072213477880132 14.0374709120573105
 15.0486717471664928 62.9888163905500988 13.9079668854328542
 15.2201757580398223 46.4349926089035847 17.4889204084506389
 15.0933105124910227 46.3853012967859897 14.1299631431841792
 15.2307531216082648 43.1125066316301329 17.5328707138181130
 46.8427480076079803 37.9903377971756839 13.8501388325016084
 46.8053876665457906 38.1480097016594044 17.2046714539661423
 46.8445532228465140 41.2789680693497161 13.6906422478009944
 46.7811130326892766 41.4580868470762169 17.0420412277865445
 46.8483678157570864 44.5741499909565491 13.5134217422144669
 46.7616975230725558 44.7659987300584774 16.8617584178374749
 15.2689613547601919 29.8720376046075309 14.1131222164825623
 15.2607671730835825 29.7995792680527174 17.4725360492773447
 15.2292519538353908 33.1781395218374584 14.1642964248573229
 15.2554109285204333 33.1290570255360919 17.5245529661689154
 15.1910340567998006 36.4816725574025327 14.1921102522235625
 15.2489280208254137 36.4585446349188942 17.5523910529926255
 15.1551954081704423 39.7831671602451848 14.1949729216784029
 15.2405984887060058 39.7867970908343835 17.5550002558229892
 15.1222322901480659 43.0838233325996143 14.1732188580459955
 41.0696751332368777 34.6848762254382450 13.9895178271856899
 29.5673849400294273 44.7907788215469225 16.9527680220990575
 32.4595794782904505 33.1652753467125478 17.4447861468426844
 29.4306757542827739 47.9546140918334984 13.4418918465911865
 -7.8746348538857101 43.0702305913975323 17.4426089179113646
 -16.3473374912608556 64.5731707345126011 13.0720571827899210
 -7.7485691363096123 43.0064443768769280 14.0848333471082121
 -16.5614486458064434 64.5777155064840400 16.4156184731108894
 -7.8456221599643037 39.7529882232349294 17.4855580008136435
 -7.7438317895057160 39.7191354652313677 14.1261718118985513
 12.6349619484981268  1.6527270900301927 13.0920174717604443
 -7.8143464462178178 36.4358642555235477 17.4960220567400278
 -7.7404594418762516 36.4355432506097614 14.1358831851238076
 12.4251442434069972  1.6080952013813932 16.4358502637289021
 -7.7823027945619678 33.1197846552122002 17.4722624478420734
 -7.7541803921852521 46.2991368390035802 14.0158522968724881
 -7.7383702213541623 33.1538499873563950 14.1122399392589291
 -7.7500374722876844 29.8050810939231283 17.4142529704347666
 12.4281722920023068  4.9109415409853492 16.5012883014657206
 -7.7374421136476510 29.8727263938138243 14.0552432596645804
 -7.7185395613624728 26.4916758515416930 17.3238269845801014
 -7.7380634706736444 26.5903907063489378 13.9662840577960061
 12.6152408475189937  8.3404327104255565 13.2595905604944200
 -7.6889505944366547 23.1795683132019299 17.2040979177998281
 12.4277010656123537  8.2157575253857882 16.6053175968917870
 -7.7404858508425329 23.3058400121616174 13.8487612762565817
 -7.6619176727879523 19.8689382156181686 17.0598545280080280
 -7.7440754771676348 20.0175367430215942 13.7072468465295874
 12.6290781080189642  4.9999279568355419 13.1566616764316802
 12.5930757804321694 11.6723715347603338 13.3904287242301336
 -7.8997796682183337 46.3862045191168519 17.3721637312422530
 -7.7588633455113172 49.6002515195406204 13.9283399355287667
 -16.3916277209867047 47.8998232006353462 13.5563392256507118
 21.0478489420139319  6.5629327835306670 17.0863987727698081
 21.2418472077349811  6.6362781443697285 13.7339835680603937
 -16.5494613727979498 48.0541710728471116 16.9045147327216831
 21.0507249362625686  3.2590914174745134 17.0276550990054574
 21.2495891220639095  3.3053827360467594 13.6763852413651854
 -16.3834892021207104 51.2115187563200251 13.4125383401801805
 21.0490153990530509 -0.0437909886140786 16.9982149816562647
 21.2487148066339770 -0.0314987717920263 13.6477956789464656
 -16.5620141951111250 51.3600236994017081 16.7588686944821603
 -7.9355027183313025 62.9250933606624230 17.0020961727585345
 -16.5673373789963136 61.2750701429881701 16.4435556035436115
 -7.7383664349188503 62.9020897062559072 13.6516579267766236
 -7.9382173231964890 59.6211020730525050 17.0389888989595200
 -7.7469063978678454 59.5656497227885282 13.6881037373127104
 -16.5689172264324966 54.6656284693108958 16.6254211099835594
 -7.9375850344180812 56.3154948860063413 17.1040042073455467
 -7.7549809164799814 56.2348038180603922 13.7524110711917604
 -16.3638760585554301 57.8739111110439666 13.1728553336676466
 -16.5704411224233112 57.9710410828674654 16.5166463577019620
 -7.9315911677937505 53.0083294788599062 17.1890265444238146
 -7.7595039982116534 52.9123673273556179 13.8360379644873728
 -7.9190588427976714 49.6990938508991960 17.2830829601119866
 -16.3543088270913834 61.2206109263234595 13.1000623881400564
 -16.3741191530428587 54.5368158506512373 13.2808966542614364
 12.4246909146782407 11.5248287779200798 16.7374264271348245
 61.4083911737920474 16.5598491916439414 16.8974812037254125
 61.2981754642734629 16.7230818883138248 13.5480210984239520
 -19.2928688631885379 46.2348358396262284 13.5143670783067229
 24.0456303998121435 14.9174441957000390 14.0639805051485300
 -19.4185948435765638 46.4099064185076031 16.8621847394698783
 23.9164235045049800 11.5349103905774601 17.3533098000756105
 24.0718368636584970 11.6101197622599948 13.9968402630946454
 -19.2840435475674568 49.5429634942870791 13.3489953601886668
 23.9278485638826481  8.2243134143959900 17.2810065416104450
 24.0915273552160940  8.2968253731304831 13.9254227258650634
 -19.4316122720651236 49.7147387640468565 16.6944574242673625
 23.9348502462994333  4.9182191339086216 17.2173229662050460
 24.1025091132655973  4.9742535448860785 13.8628914891759756
 23.9034068153026702 14.8504351707455324 17.4214885218167552
 -19.2739653212247468 52.8647500777161028 13.1932228588123532
 -19.4387605111416484 53.0189516889848989 16.5365699594951820
 24.1042418250211590  1.6428693580532683 13.8216258132853991
 -5.0471980218943377 64.5825709944650299 17.1618984176648866
 -4.8812050309322803 64.5795464671538326 13.8081757463715888
 -19.2637098209013367 56.1999346452070228 13.0595156936503720
 -5.0505597458660283 61.2782548976854997 17.1790336077858186
 -19.4405380600123046 56.3239057751234640 16.4016152641120243
 -4.8886264654871230 61.2439912998495544 13.8251452283005527
 -5.0522862108978988 57.9731387290071396 17.2243158748242564
 -4.8959898085118425 57.9120038764032259 13.8703404873045475
 -19.2540437933114461 59.5469472277735150 12.9596451956216789
 23.9361767612625229  1.6142236688020519 17.1752180330782558
 24.0148622498794673 18.2220249805147176 14.1182546432667468
 23.8908393035387085 18.1705942408612415 17.4766779042401339
 49.6474899239756340 43.1026362399849106 17.0260302174089198
 12.5642207047212704 14.9964385224839081 13.5356133300781885
 61.4262453373203670 13.2524053306649403 16.7273120977880083
 61.2918263264007450 13.4187755389582311 13.3805994562238784
 12.4202689684762966 14.8391337257869509 16.8845768604452537
 23.8444245421073013 41.4638117746966586 17.2733234293170987
 23.7424751844260982 41.3731682051549186 13.9166643370072034
 12.5305219990494194 18.3138825909715415 13.6829696809989851
 23.8487369587212257 38.1366135496317398 17.3636370232228927
 23.7819574170233246 38.0623724747418493 14.0055244672789119
 12.4152938977762854 18.1580362969618925 17.0345053334840379
 23.8529337611013226 34.8074511538624520 17.4363228346803538
 23.8227113868711768 34.7530932794979606 14.0767340934039069
 12.4940553481561967 21.6267545519728870 13.8238539535625655
 23.8574471108139825 31.4779711347373308 17.4883157051051050
 23.8637887418810415 31.4443225612026538 14.1284643229477638
 12.4096269030833604 21.4803525512622926 17.1775818865051200
 23.8630407196907299 28.1487739279307547 17.5192397717545383
 23.9044885904095352 28.1366858060952474 14.1592425305136587
 49.7414482873508987 39.6476701211417222 13.8207250382469287
 49.6714911688500820 39.7931480458887066 17.1743249863684149
 -13.6129798648151343 39.7716888983686445 17.3152445980061565
 23.9438704766270192 24.8306852233834583 14.1679245951126394
 23.8796792397102386 21.4944864561293620 17.5130805473507074
 49.7469284805804222 42.9377545939302436 13.6750918865681221
 23.9807389116867213 21.5260276195055447 14.1538521725851592
 21.2240955856956006  9.9580742586481570 13.8114976836661043
 21.0402042691344597  9.8706854891889151 17.1647201227566697
 -16.5314037818273931 44.7467219676346488 17.0488876505984770
 -16.3990800131653351 44.5998158527245110 13.6985449655330633
 18.3161631131656470 14.9464830997222826 13.7995900075976561
 18.1605261964297320 11.5217117687460817 17.0489185014561109
 -13.4771751626867591 59.5494944145506793 13.3196406286605171
 18.3462941384313005 11.6290404088139905 13.6979532555823553
 -13.6968602971102751 59.6199762662926034 16.6652154553935574
 18.1673791271008227  8.2113040495218108 16.9509731612232635
 18.3698471079175825  8.3057616307184006 13.6009037642602788
 -13.4683024769800657 62.8939380097623939 13.2722826994381897
 18.1708241257115368  4.9062965511084631 16.8710656970178157
 18.3842823879271471  4.9746921911531619 13.5219424586789128
 -13.6932393386055189 62.9227558257706363 16.6178708803382129
 18.1528771054856861 14.8379305552095779 17.1523201642100389
 18.1697147621542889  1.6037721160130805 16.8211535671494481
 15.5175971545627043 -0.0312097852682094 13.2666657943988984
 -10.8151067270314503 64.5735085065313683 16.8076430206399188
 15.2927936341604358 -0.0473869645570524 16.6122392396259784
 -10.5953283120169193 64.5667987143148423 13.4599427265454743
 -10.8187841160975307 61.2708810462431472 16.8320108295798931
 -10.6028962237116673 61.2253298074890466 13.4842674960017614
 15.5159722271441805  3.3136153266055421 13.3030109578121518
 -10.8201096668075856 57.9668039131627353 16.8911713243575967
 15.2966178413339655  3.2547145961826800 16.6490875198103438
 -10.6123316229026994 57.8884010205196944 13.5429588378565988
 -10.8170415074135580 54.6607507422750487 16.9775967284085390
 18.3887735602395352  1.6364195175189593 13.4731081537780870
 -13.6968133786364152 56.3151747374060676 16.7483208791134217
 18.2811033438082227 18.2601223586559485 13.8958802328469542
 -13.4870378589684687 56.2121089217462782 13.4021433252177840
 -13.5828918059568586 36.4591610648786926 17.3817644478091928
 -13.5182744639105259 36.3989928521044845 14.0239272956624106
 -13.5098829309547988 42.9703754685710919 13.8676855413896849
 -13.5501794517677947 33.1454439092522009 17.4177333790523932
 -13.5219884988935650 33.1173130374761442 14.0584547682159098
 -13.6395118694142390 43.0830738866950966 17.2216438136956285
 55.5307640882532212 29.8311950888988484 17.4208461516484192
 55.5218931797451987 29.8363378677745850 14.0610986636027917
 -13.5059985204241304 46.2644045379891651 13.7553565545810326
 55.5644741104878079 26.5175052952159582 17.3913434736611485
 55.5188004608772587 26.5546040623568871 14.0325728957723488
 -13.6621684210385403 46.3932184817594759 17.1071151344588444
 18.1253308325871672 31.4686766576168360 17.4924672139833213
 18.1200754303629665 31.4991291196741798 14.1326182977495591
 -13.5017219540967925 49.5681698058177460 13.6315004354059557
 18.1296834588542453 28.1393850422637755 17.4605441433236201
 18.1611004093803281 28.1909481426921147 14.1007949234192136
 -13.6795826744533571 49.7018416206993976 16.9814477949606157
 18.1341487139996751 24.8108139656426907 17.4081772155583927
 18.2022392760641303 24.8819790970405563 14.0495763757830208
 -13.4956776193311736 52.8842274034033579 13.5096389282945459
 -13.6913019333212596 53.0089401770992552 16.8575666922911935
 18.1392732728997572 21.4838510256609609 17.3372158192616901
 18.2426666054316478 21.5716972986130671 13.9804100201640047
 18.1456604010732399 18.1591505639958797 17.2506362295195288
 -10.6205506525182507 54.5590354532218527 13.6281418610910698
 -19.4377722288003980 59.6287308464422310 16.3017186388726891
 15.5057596840702132  6.6530092087707402 13.3774954912166084
 -10.8078288792176505 51.3532781215699785 17.0810125191150810
 20.9850906293833965 36.4676597606463488 17.4490297105674017
 15.3098265883279776 26.5643888127107886 14.0406823558642895
 20.9309354036715902 36.4346537489911597 14.0895509384973980
 15.2658910287385101 26.4712074138449793 17.3988327385804524
 20.9894297393587088 33.1381703415696620 17.4802755268113614
 20.9715030570417476 33.1260242625993300 14.1201263347755308
 52.6321341375652025 34.7386407475990424 14.0148821636446783
 20.9935822861617467 29.8084011474047870 17.4904497671265169
 21.0125631643292046 29.8174580306792301 14.1302601922453146
 52.5973245640633635 34.8146260656416331 17.3731486305063285
 20.9981605098783106 26.4793372267523175 17.4794511426680792
 58.4077795555451189 21.6461459203191424 13.8512255236445139
 21.0533129799634793 26.5086965668558818 14.1200537633184524
 21.0041838009159747 23.1513295551287754 17.4483033338199895
 -16.4809818996880360 38.1268854712354894 17.2905028582779750
 21.0931967247262939 23.2004137896561673 14.0898588128658186
 21.0117646263593265 19.8255433231948217 17.3977220097666354
 21.1313233935318223 19.8922903437403527 14.0404044872925038
 -16.4055477769255802 41.3082531958864010 13.8270904388969296
 21.0205747624786241 16.5026608555241232 17.3299478071298978
 -16.5083519495790654 41.4376001017859892 17.1803976773695410
 21.1667053422959377 16.5835634209359135 13.9739447176188740
 21.0304590771097146 13.1840069359156047 17.2497062677138082
 21.1981296686893792 13.2728317842042376 13.8951723591305445
 -16.4109792263494469 38.0217752098460835 13.9341678908155124
 58.4932005872319536 21.5364289959453785 17.2062549158366593
 15.2710864559341903 23.1441843069391275 17.3059594603582951
 -10.6350425727054816 24.9316477699595147 13.9529050996357604
 -10.6252093622619181 51.2394487270169492 13.7297427793169966
 15.4863496945462362  9.9848927312514029 13.4815203190284461
 -10.7921170866640868 48.0438285846941113 17.1896208979862060
 -10.6259737005071795 47.9312638529377821 13.8364854745035970
 15.2933061641331154  9.8652258065785166 16.8294820970857977
 -10.7704177351091648 44.7319652035093540 17.2898897753169649
 -10.6252199687401205 44.6337943081033828 13.9344205568072734
 15.4592236271976855 13.3095457203306147 13.6012825063121117
 -10.7441938121984570 41.4183434145439904 17.3696691733926194
 -10.6252203920309061 41.3438673472787954 14.0127559336733665
 15.2878446283500207 13.1782690450576663 16.9509088589858372
 -10.7144689543395852 38.1040111686139511 17.4222020381856417
 -10.6258767147426028 38.0590491605807628 14.0638584684247476
 15.4265540477182359 16.6285255094608253 13.7246890453859649
 -10.6827153578166509 34.7895221931817105 17.4431471778502356
 -10.6272750600442514 34.7770880830700833 14.0840630886392013
 15.2820768207836046 16.4965551808095974 17.0764586316539493
 -10.6498741666860841 31.4751284432465752 17.4311740669326980
 -10.6294857122113910 31.4958545159059788 14.0718607870604746
 15.3897814974022538 19.9431873916430575 13.8426312716103705
 15.2764565363766742 19.8188848178675130 17.1970026696696365
 -10.6166146764114337 28.1614976346882244 17.3862655721888828
 -10.6317684605847464 28.2144887569560616 14.0275620748107901
 -10.5842963756154020 24.8485893007674861 17.3103626335503300
 15.3504185656136567 23.2548987453776377 13.9492705740276470
 15.2968588443735136  6.5579866037881098 16.7246143215329788
 -5.0498730373088119 54.6664690092419221 17.2920303497695365
 23.8703083821656215 24.8207648692021330 17.5276421504970230
 -4.9006890252929152 54.5866107281593358 13.9371207059681215
  6.8270736907212637  5.0405464571553251 12.8691024981768702
 26.9373224262126989  9.9566471266803465 14.0869695323785198
  6.7009749342377534  4.9301290078738713 16.2125320377129718
 26.8213275005493479  6.5799788158280839 17.3802584941414722
 26.9504156252243057  6.6418759676776515 14.0225692227911498
 26.8261071597799194  3.2747320036143486 17.3281051462912785
  6.8178064095567175  8.3880304503409064 12.9966568519463053
 26.9548638775976741  3.3165677837785412 13.9715498204728661
  6.7029908211041276  8.2358775934116970 16.3410911878343903
 26.8258685060922026 -0.0297566380444454 17.2993608549868370
 26.8102041046574726  9.8884722652992085 17.4450786315836908
 26.9520702458667785 -0.0153565643131863 13.9432859039061299
 -2.1581869279653669 62.9379878381599625 17.2988405325659933
 -2.0353946617269303 62.9224549919494365 13.9426945277629954
  6.7012379269981945 11.5430683586107481 16.5039300446039690
 -2.1613915178707970 59.6329175390099877 17.3269851493305893
 -2.0422928651374872 59.5897153451289867 13.9706104725602351
 43.9513188233915386 52.8641191807817563 12.9786380060092004
 -2.1618821971189770 56.3266392158249261 17.3793796075473779
 43.8722861705854328 53.0358620922691415 16.3216145848568566
 -2.0471016922644631 56.2618972281963323 14.0222610297367964
 -2.1569545111684714 53.0187447161926713 17.4480484004475684
  6.8030854010193575 11.7237273242212581 13.1582773409302511
 26.9170839149207914 13.2626295351669281 14.1498635699321849
 26.7949409685389135 13.2017495675437626 17.5087542243151120
  6.6961166164378385  1.6251077209634177 16.1296232017185446
 -22.1758014956717169 54.5296956994397561 12.9911977428232177
 -22.3089208215156738 54.6790609457833128 16.3335280434263055
 26.7156628351491392 36.4766138461528158 17.3613446414745880
 26.6745235137776788 36.3807031673245405 14.0031792706334848
 -22.1665067135649103 57.8750705641471939 12.8654773910536679
 26.7214768919902141 33.1483972726193414 17.4545868398015038
 26.7147075082088712 33.0726133886462108 14.0952801478250365
 -22.3058722172643478 57.9834946802706597 16.2072398575327412
 26.7286080327779665 29.8201916386543147 17.5262894501161313
 26.7547570595750948 29.7666679129450031 14.1661063923297146
 -22.1583648376270794 61.2316116216361337 12.7846476592234861
 26.7378728075102927 26.4923203996887544 17.5737280168996541
 26.7933711889526656 26.4635142245996278 14.2130479475042897
 -22.2992039783507003 61.2879028469095530 16.1263606497053935
 26.7492456320500764 23.1654113227537728 17.5949050787081944
 26.8294081686016312 23.1626855397873364 14.2341418483558453
 -22.1523137957432539 64.5941165894630274 12.7574718936391580
 26.7628441668214094 19.8408200060761999 17.5894031857016273
 26.8623496805876023 19.8631926763694793 14.2289633558223745
 -22.2915374336089585 64.5923911144322744 16.0997501718712179
 26.7783486242420814 16.5193957001452496 17.5593544734927569
 26.8917743739304669 16.5638075850290925 14.1995087320144666
  6.8306506385923669  1.6836665465266945 12.7867263579216441
 -2.0473346994896171 52.9419975894975892 14.0900278581461329
 43.9579295195651198 56.2068693081356656 12.8288801756088215
 -2.1446180464224653 49.7075591529555325 17.5217464513504169
 43.8748781795273928 56.3399993946402162 16.1711003057696985
 -1.9141078750884037 19.8452636898713841 16.9503696935584927
 -1.9420355894080474 20.0375119228437022 13.5990118369348103
 -1.8973171438814491 16.5372371631959041 16.7507753262863801
 41.0397531280310019 61.2576700211649126 12.6480898744084662
 -1.9383808798633804 16.7379632855371483 13.4024024209464532
 41.0249406971433643 61.3064955510253782 15.9902324185354843
 -1.8853689060191743 13.2310807928383394 16.5507811899619597
 -1.9365504361738097 13.4267095074018012 13.2049091752114194
 -1.8786063626409204  9.9252305494922091 16.3641530218084306
 -28.0029640680485450 64.6243891442561278 12.6284513325032695
 -1.9371114319289993 10.1016200691885647 13.0201985469032060
 -28.0127812665093288 64.6124332820666041 15.9705486156471927
 -1.8768594728721142  6.6184828099073165 16.2037861716767928
 -1.9400613862068248  6.7630739613270805 12.8611666362966375
  0.9819940275579120  1.7175939058272991 12.6682354220313229
 67.1674864271813448  3.3114693938971591 16.0819700744562510
 67.1031354283434354  3.4122532182603638 12.7398022269942626
  0.9769061281091427  1.6468148632579849 16.0105412915964784
 29.5641544823995339 51.4216182950104326 16.6375738870678909
 29.4054947947633458 51.2832006742840605 13.2907534585488047
 38.1171527933386329 66.3233307951816613 12.6675468569738321
 29.5646329973491895 48.1087594764507216 16.7903874899733232
 38.1790662366820612 66.2762506262750293 16.0094702237601645
  3.8430413809746149  6.5945551869581713 16.1954425294182442
 26.6353429352975049 39.6907601967974628 13.8930358417233997
  3.9069952674537736  6.7358273710491554 12.8520020522046376
 -1.9352601926282578 23.1557104413471890 17.1365249103162789
 -2.0416518752744688 49.6324185043962416 14.1629292604269406
 -2.1256371107223808 46.3909780586180673 17.5862895823055467
 -2.0308512470025715 46.3332386298730370 14.2265171651470030
 -25.0825305999808741 59.5619162116075671 12.7221899738563575
 -25.1656091895349263 59.6444211754441866 16.0643669928049917
 -2.1013275997013814 43.0700003050448075 17.6271152958650141
 -2.0173645864992218 43.0417416744661736 14.2664157529964726
 -25.0763951053322707 62.9254963778453984 12.6691935679127585
 -2.0739327180674123 39.7472629966129674 17.6347782796607895
 -2.0025969137511654 39.7542456452390596 14.2736297114254285
 -25.1567463565603404 62.9494031875296329 16.0114560899458986
 -2.0450400812885605 36.4246966532966709 17.6056422454796753
 -1.9885387244986084 36.4687810711173341 14.2443373543519431
  3.9088704722092915  0.0190186637065468 12.6746795570480018
 -2.0157378695907111 33.1034773125105133 17.5389604276231275
 -1.9758666266022984 33.1845126398231258 14.1781354966806674
  3.8325121759588079 -0.0171617095056082 16.0168222871846240
 -1.9868495241922770 29.7847976592777606 17.4363126957600372
 -1.9648082670008962 29.9005826745575796 14.0770038279435834
  3.9101659426208801  3.3816291276216393 12.7374359123387855
 -1.9599298661866473 26.4688277635688394 17.3005905056826030
 -1.9555939620651874 26.6159061182567847 13.9435673583081989
  3.8394151088364765  3.2886509135607622 16.0800408347791866
 -1.9477910011358275 23.3289996043597903 13.7822927706895602
 26.7108669838013064 39.8037696939345764 17.2493986273256894
 -13.5142029662357768 39.6826398541663252 13.9591542509335458
 -4.9752736079048212 41.4084082933276960 17.5590596623710198
 -4.8944118112631125 47.9653990090910654 14.0965158854063741
 64.3074661141477009  8.2825401038799455 16.3621477729025031
 -4.8243848102921909 24.8224756083146332 17.2379200976301270
 -4.8439987943624887 18.3825454172077514 13.5525427656621780
 46.8541796481459869 47.8789125409191527 13.3283801475568637
 -4.9142214863150793 34.7688528319820520 17.5345118669886304
  9.7394228349204646 -0.0106338220239352 12.9038478096005065
 -5.0024520095079605 44.7283287155415792 17.5200120079664323
 -4.8510475036887799 11.7665728543884178 13.1853120546331866
 -4.8850538789443103 44.6699806196280633 14.1614181299046749
 -4.7459314670958079 11.5890355326413168 16.5303936347184468
  9.5559513032373857 -0.0362609786419052 16.2466905176895366
 -4.7984151597735698 21.5114842992961215 17.0800597898909530
  9.5548602458793752 16.5022266434624783 16.8598777359847674
  9.5611335636139714  3.2676712503788230 16.2970160396221964
  9.6912118452186391 13.3625642838690766 13.3408249963152876
 -4.8467620258737023 15.0808205799034489 13.3674889652995788
 -4.8651280006462496 38.0947591729635420 14.2037653466267404
 -4.7581220599330187 14.8949547340058874 16.7151254971461789
 -4.8428399318065125 21.6754383664414725 13.7271197406315828
  9.6627902858764454 16.6832812045273009 13.5111306576281027
 -4.8748238275152076 41.3805502973776953 14.1989458820610555
  9.5599573215399083 13.1879465369276616 16.6879632142692316
 -4.9452656043614205 38.0882605150522338 17.5645593171986611
  9.7377215376494455  3.3442402953437553 12.9536293219158676
 46.7477997631041120 48.0714521574507785 16.6742412867142278
 64.1904142233515529  8.4384237637705599 13.0191446853600592
 -4.8439109876877255 24.9623280933654073 13.8818440314948344
 -22.1851624359175759 51.1972941579272955 13.1495690411875561
 -4.8511075481561692 31.5288103451561170 14.1090642660792565
 -19.2458838525345826 62.9030880918687814 12.9055712958766975
 26.5980555575539164 43.0029365065477975 13.7685955519176257
 -22.3070280801660310 51.3752296178714545 16.4934494946287167
 -4.8528170459779618 28.1357564549094086 17.3690556578299322
 -5.0409877689374802 51.3578007082363754 17.3728475040852324
 26.7065968130271081 43.1287444830319302 17.1221984742176012
 -4.9003067959567801 51.2705503007427339 14.0165178039897533
 -4.8830264954978890 31.4511463216258669 17.4690302740199179
 26.5632278816390048 46.3191992909004000 13.6344703406534844
  9.7138068422243453 10.0329590735099394 13.1823078767482560
 -4.8465390119822764 28.2462940214493727 14.0107633327485406
  9.5637771922811297  6.5721885439249963 16.3936429674612967
 -4.7759230349961399 18.2022702902505422 16.9026947100821268
 -19.4317465370823506 62.9325375592519975 16.2479168668491774
 -4.8573591863192798 34.8111901112147706 14.1739767672163808
  9.5631849866328587  9.8783632272191326 16.5279308642211440
  9.7292220456882212  6.6931098046126927 13.0493075853976332
 -5.0248766265364884 48.0454528181767344 17.4538468866647420
 26.7031185422937511 46.4508844716447129 16.9855612527037323
 31.3983893686262938 61.3229183550457080 14.5796144949793280
 17.3208958473449499 -0.0401040155179920 15.0678337250186782
 17.2877741134872345 13.2342173385781123 15.3738234743880682
 -17.4358890328014162 49.6292218640571789 15.1073389599574757
 31.3953592237871675 57.9920526949667590 14.6330169325736588
 48.7348696472932588 41.3680805822505064 15.4033892150553644
 63.2837979459312621 10.0205401844031829 14.8018007645273180
 48.7750186330439419 31.4734311699346634 15.7609626806762630
 48.7929288371978913 28.1752637620206841 15.8187896329035311
 -23.1889179095798177 62.9293278032169709 14.3881933944252562
  5.8011559193276927  3.3241356826816153 14.4502516760966095
 17.3045779763028236  9.9174521885481912 15.2655246020193580
 48.7454487303631652 38.0689127965495828 15.5492849661460752
 17.3218801381850440  3.2814695655902479 15.1010694446131808
 48.8120484594409376 24.8756768361118468 15.8419205453179668
 17.3164897592256786  6.6004045649371532 15.1700595132114024
 22.8276036036975150 43.0778039998105839 15.5792400590366373
  5.7982244345941281 -0.0085006321312013 14.3909331872968114
 31.3965523092008283 54.6640463046968605 14.7341348529646385
 22.8490155923254008 39.7589259366181267 15.6669835532237638
 25.6444170218321190 61.3395381732132705 14.9439928433169271
 11.5662539626009497  6.6201842808487807 14.8165372952432453
 48.7591287584193722 34.7709004825495356 15.6701223325425243
 54.5514048508669944 31.4801346910263042 15.7438705872131859
 -17.4337516409965900 46.3228956500738533 15.2610697562237405
 51.7376527256564032 16.6269668639336352 15.6314354587911808
  5.8000299222242395  6.6529566366189208 14.5608844955422896
 54.6409304004736853  5.0422919501854802 15.0879616537490975
 34.2809078833790224 59.6441545152778261 14.4647996692986709
 17.0696505632166762 46.4079794709536841 15.7351771575029051
 11.5689904536822414 -0.0306534276208094 14.6813751922914033
 54.6102634056682774 18.2848085204373803 15.5538015209260987
 -11.6737696248042653 49.6388644334362752 15.4082850969486653
  2.9080473294166875  1.6720535256583375 14.3432712937270708
 17.0526940975959391 49.7217809068985801 15.6678005838717205
 66.1716937378552643  5.0295108892460378 14.4805683448817106
 -11.6771046302180430 52.9505032973082095 15.2957885725084957
 54.6398310486663235  8.3606238138743656 15.1970325838887810
 -17.4241316396622992 59.5855289543973612 14.7374914789619851
 -11.6659399089076974 46.3318749995608741 15.5203117234089341
  0.0105468016256450  0.0181369610178418 14.3039573246779614
 54.6230918781318593 14.9811582561324101 15.4429425977471304
 17.0345310501198313 56.3532457815023591 15.5381983685788256
 66.1667463323914404  1.6981148322381105 14.3808741175012944
 -11.6553825873557262 43.0290478033907178 15.6184055649328926
 17.0352316439866804 59.6729267322468715 15.5020884045409790
 -17.4171059419234098 62.9132265390320455 14.6844799751706816
 17.0403653278806324 53.0364949539403128 15.5974938281281830
 25.6502410030097217 64.6661116749350668 14.9524848468340981
 -17.4302542357488939 56.2611250932550320 14.8332992487755622
 54.5966485034429780 21.5855554798447322 15.6434345082700492
 48.7276950139290719 44.6692267544660595 15.2384818802431106
 63.2829529709246614  6.7002419318027187 14.6488089825872407
 -11.6649885858909208 62.9092797824702075 15.0737503663329431
 54.5667778425513390 28.1824774954974089 15.7412166988200077
 17.1784276015473978 29.8240987111218310 15.7969749650813682
 11.5701686725390882  3.2960973349561331 14.7271032733674865
 -17.4345387981844411 52.9417847846268970 14.9604815800066469
 31.4040580296832204 64.6552886170515819 14.5787339478347580
 63.2792224772082008  3.3736218534297846 14.5283933791257276
 17.0897341991452230 43.0935043067032240 15.7895997269907120
 17.1556724714583595 33.1427477560635211 15.8288473038065121
 -26.0856785740890835 61.2729170007945143 14.3295588647021734
 54.6372340331498449  1.7194483427564686 15.0029956911916518
 54.5819546618513201 24.8845970163274295 15.7069566492261075
 17.1333605377753138 36.4608762922659366 15.8383461520432007
 34.2924444159969752 66.3136075846134929 14.4518827754909704
 -11.6757172227053836 56.2670181044660680 15.1955463891600981
 17.1112603684655014 39.7778112313756722 15.8250298938195293
 -26.0785222322974271 64.6086243736115335 14.3066172210625968
 34.2858752270352269 62.9785528198101261 14.4295602746318341
 -11.6710377669448171 59.5871347617941396 15.1183206068727962
 48.8322590913218804 21.5743724930027909 15.8311417888546391
 60.3956593617891571  5.0420672909631303 14.7287881674480374
 -17.4281646219590414 43.0207302942789767 15.4080607314391749
 51.6406211237314494 36.4230549920683657 15.6441357032275565
 -20.2972774004958119 64.5859299477389044 14.5099480030086099
 -14.5526710981511584 54.6032417356522828 15.0653807019229831
 14.4248936729897181 11.5862938988699824 15.1603079719755574
 20.0137286739726292 34.7912595431751370 15.7991692636118657
 28.5213072732362249 62.9976151481439857 14.7482821120543282
 51.7680787325358551  3.3778651749897892 15.2330433183623022
 57.4773549256255336 23.2386736660477382 15.6055984169405555
 19.9915363157283679 38.1101788916057842 15.7682828753647986
 57.5084557928459148  0.0543606561024526 14.7771574100871863
  8.6875514208117188  1.6446549081102340 14.5366022543358113
 28.5169210849046877 59.6684529392123508 14.7681893286281749
 19.9695743807866961 41.4285798038000621 15.7174481000877666
 -20.3229434861420692 47.9738581769923940 15.0638847667267886
 51.7635766714123520  0.0557423441840146 15.1702367918276817
 -14.5505556568415546 47.9790457394233698 15.3210721151159639
 19.9487509712416049 44.7459968737873197 15.6492298128756637
 14.4076307600938343 14.9046871593281995 15.2923265866545801
 54.6335022838090865 11.6733862826886732 15.3195859813674833
  8.6873563393941300  4.9732633326547537 14.6139701380457936
 -14.5535329002190306 51.2882038556860920 15.1884036310124433
 25.6862535775482108 44.7258595926789155 15.4140768210856862
 -14.5485644356360275 57.9234340466470385 14.9638620493696024
 51.6548249355107316 33.1253952262220608 15.7215726690834856
 -20.3178704801793160 54.6012030514679410 14.7408085805453659
 14.4462552165809601  4.9473114653019410 14.9436203999725290
 14.4482040144503845  1.6246500960635231 14.8839491213131261
 51.7210700372163998 19.9301848478401382 15.7087112776912914
 51.7523428074680538 13.3209329394698379 15.5332950362985187
 57.5148429362401714 10.0218178194901952 15.0891079410979874
 -20.3113938927768700 57.9253395019675139 14.6183576154118704
 51.7040178947519991 23.2309303522208346 15.7590633771865107
 -14.5359593356711727 64.5720348992288677 14.8668559205981428
 51.7684372779174851  6.6967352573088936 15.3213323312879428
 57.5001926788708175 16.6379076545252005 15.3723612642564742
 57.5168339686835566  6.7043934467329978 14.9587351032994214
 51.7631127335467554 10.0111093648303502 15.4252312114375414
 14.4382636722345392  8.2674013794191428 15.0395674950777885
 -14.5422106926261936 61.2469555361091196 14.8946156343035643
 51.6704752762607313 29.8280076747035494 15.7670554671668786
 -20.3039100899065446 61.2544950887524138 14.5380805027518036
 57.5141764146706720  3.3812275123028899 14.8509548840952110
 -20.3222236712289082 51.2839069210910310 14.8933531787489741
 57.4896358966663499 19.9392720676078774 15.4996581325776344
 51.6869641619380005 26.5299498351118821 15.7792132982411477
 19.9297539429499793 48.0626847847583250 15.5683875063829191
 -14.5444658306386341 44.6748948220111046 15.4496932557665261
 28.5216796851448287 53.0157417836401805 14.9409730924090578
 22.7776962164173220 53.0353857204890815 15.2745260493752166
 48.8985926277088581  5.0303415979582189 15.4482428544499673
 11.5429315383026658 13.2608182553378402 15.0895332690418389
 17.2241546166447073 23.1870499325537125 15.6724681617475792
 48.8951759576929135  8.3459660202665766 15.5347953001092769
 60.3975746255472146  8.3643666204078500 14.8590854243304129
 -23.2040651180585940 56.2675089661212695 14.5500109158810620
 -17.4188487338357909 39.7211507048342654 15.5379794849988784
 22.7903277537510931 49.7157009620523240 15.3735306703944161
 60.3956138052389377 11.6796170603852882 15.0114017376206750
 48.8855947278532454 11.6574312443708390 15.6293857855000837
 17.2466937801058613 19.8688707222741598 15.5842206470296087
 25.6444103094875828 54.6892731930092140 15.0526694709421101
 48.8705377571532438 14.9654750849392961 15.7184390985372566
 -23.1966093292256943 59.5961530003906077 14.4431125762877866
 60.3911316990803897  1.7144117716051159 14.6312070176942459
 17.2682219274043369 16.5512089201201533 15.4829397282872119
 48.8521754978455505 18.2710102668766403 15.7885202543807264
 11.5569490592250759  9.9414916135034996 14.9414914677080830
 22.8076287691035731 46.3966124078696041 15.4789481128495279
 57.5087917985158015 13.3325792826091512 15.2313259678779218
 25.6536520836918704 51.3667911571100433 15.1594846954461779
 17.2013560500007721 26.5055236773952103 15.7443565918779171
 48.8966774094423542  1.7113299546825929 15.3798707050358860
 22.7767879528271386 63.0037926230836476 15.1413984119782565
 19.9145418611829221 51.3792969494354068 15.4837200267465587
 11.5253824895412063 16.5787922086249218 15.2471218236993717
  8.6824336912855671  8.2982184513357353 14.7351449416562374
 -14.5356620283515543 41.3742980304844892 15.5626932770470159
 19.9050955231347544 54.6968541017548517 15.4073116091116500
 28.5325108298669647 49.6934117395367281 15.0780212033088077
 14.3877455425754892 18.2227746396952384 15.4244365702048274
 22.7721204193455975 59.6793476966088505 15.1503588180716271
 19.9025725116333270 58.0168974576135312 15.3531751243665830
 60.3826334865956227 18.2911314076593854 15.3342168425294219
 -14.5244349005703963 38.0756693441144520 15.6524162742331310
 25.6681039711885894 48.0457504061322211 15.2846255868425729
 19.9054281498603665 61.3392170397161820 15.3293088759067437
  8.6724539052178695 11.6190131766128708 14.8895729329419808
 -14.5110451630191637 34.7777554483094207 15.7138081403785606
 22.7715403946396506 56.3562821420879487 15.1962694031570607
 60.3905404459954553 14.9877523082613102 15.1744343437785094
 19.9107685052861463 64.6620071159408383 15.3383845675302588
 14.3662957271350589 21.5407355453112004 15.5486415552750472
 -23.2095098608519770 52.9450727149085552 14.6978774153901526
 25.6416334029118893 58.0135348591705338 14.9782814518676481
 28.5165880598389379 56.3408851054981383 14.8340655270408597
 -8.6881171191129241 24.8900970773000019 15.6019558873270228
 -11.6431903879502023 39.7285280117967474 15.6933561021723804
  5.6255914246625220 39.7723218835952963 16.0356574671553211
  5.6485064700229994 36.4642357705771687 15.9893749830207064
 -2.8996062649709891 21.5909680964827402 15.3772131832311025
  5.6715834047674942 33.1563770231210668 15.9057312871461747
 -2.9140716828345639 24.8906266826579596 15.5476919722947855
  5.6942345413869759 29.8489882075644033 15.7881542995669619
  5.7160035470691835 26.5410306718274676 15.6413845192933305
 -2.9304803281665008 28.1901779237908414 15.6923218391772465
  5.7363683812275221 23.2323481870704285 15.4708220010997994
 -2.9489214084820747 31.4904086860776182 15.8060468275273891
  5.7548968046501709 19.9221972528822278 15.2830214974957865
  5.7714731668126964 16.6100719868143969 15.0865340937386510
 -2.9685815372760289 34.7918412157156425 15.8855394733643056
  5.7849675912152563 13.2951972850744919 14.8921828775756850
 -2.9890121740712008 38.0947429921548775 15.9287416331682756
 -2.8881886848190526 18.2895293342340999 15.1877392502225668
  5.7945905440890630  9.9764513776414017 14.7124874347889687
  5.6035273287667602 43.0804311512288791 16.0442281425277287
  5.5835257086012113 46.3886974907493510 16.0189254177991458
 34.5326102469765175  9.9459465107211837 15.9479423976559271
 28.6087446983225782 36.4183577412599035 15.6591788820174074
 34.5434042622083624  6.6356431608739328 15.8824161963848969
 28.5870149251355166 39.7358456761553640 15.5285206498153574
 34.5468272424156737  3.3215328432340860 15.8270695122636269
 34.5446792320023377  0.0043445339227766 15.7921721873480632
 28.5667537504693385 43.0539877045781267 15.3837145801397508
  5.5587366654757080 62.9580421153846714 15.7839344177900962
 28.5481710210237978 46.3729416569140795 15.2302195819111947
  5.5540971141916495 59.6397176701079630 15.8038573246363878
  5.5525206887248695 56.3230129062422691 15.8471518448775814
 -2.8736256133106117  8.3548035894118087 14.6231825148715924
  5.5563222022348446 53.0089258809351094 15.9059621882927722
 -2.8748058080698438 11.6730336490610664 14.7969452991426689
  5.5669903090159423 49.6978175508931557 15.9682386801281098
 -2.8798747311906907 14.9842470355250441 14.9897059583149090
 37.1729441821888926 61.2983288931180894 14.3464675177254577
 -3.0096582975408324 41.3990528570039942 15.9351565350214823
 37.1682069661775216 57.9638758233834395 14.4179726489801130
 25.9319017087200265  4.9518885370686476 15.6336464507228463
 37.3782622393698460 14.9187092039954443 16.0349581039270532
 37.3978393417767165 11.6114292528742702 15.9794290793587912
 25.9227204676993068  8.2644332192864915 15.6948986886998281
 37.4113456668974820  8.3019825040539281 15.9119310956912496
 25.9071897586823354 11.5745801809081339 15.7627057201253926
 37.4174028439211597  4.9889526282466354 15.8476709261853266
 37.4172835267335913  1.6726156790053286 15.7989195981572976
 25.8876632814665371 14.8839888553615420 15.8233085142338386
  8.4323135123516693 64.6264659602659464 15.7737275042542269
 25.8661396694647721 18.1939978881538806 15.8678276160360188
  8.4272597776669524 61.3079045372072144 15.7764426651893501
  8.4239881000815284 57.9900891198842245 15.8052427478385003
 25.8435799069680847 21.5054808848656336 15.8908964810270330
  8.4253043881244327 54.6743579259530605 15.8545236245449956
 37.3554301143620862 18.2254245892857760 16.0654349229835844
 25.9337465979895789  1.6354474257320752 15.5923088043090878
 37.3310127741122955 21.5322750566058616 16.0625427885291394
 37.3059094835372278 24.8391031036353347 16.0221233843691024
 -3.0288562006072226 44.7047019940642727 15.9065085481233268
 37.1664226941248970 54.6340972342012776 14.5423712790403794
 37.1682619646197097 51.3103174341020818 14.7081533588508044
 -3.0450960760913848 48.0120390851087038 15.8486539307252521
 37.1743532489730697 47.9923690782723682 14.9009385214145542
 -3.0564066266362548 51.3217022544622736 15.7741569778099162
 37.1845944567645574 44.6795845935737148 15.1063915576081147
 34.5153295531438644 13.2537665171100976 16.0087894312385188
 37.1986493110732042 41.3706080301273076 15.3119906699646542
 37.2157684258850381 38.0639103277596149 15.5065244157427387
 -3.0600948911992676 57.9506666615562835 15.6353183149909150
 37.2356322860126525 34.7580842986307417 15.6811924051282983
 37.2576659166745898 31.4520861024808944 15.8287207395757008
 -3.0558020356163360 61.2692473017726087 15.5929826055867444
 37.2811540579371226 28.1457567052998385 15.9436381085962129
 -3.0505467968161355 64.5887410477827331 15.5779207557559989
 -3.0611122910468214 54.6345272057170419 15.6987577540873762
 28.6316882305649649 33.1021766974897531 15.7712747419370860
 34.4939117617896400 16.5607850768907205 16.0508041687312613
 28.6553385854154001 29.7874892776576381 15.8610974309093571
 31.6741286549411036  4.9694777193468349 15.8182573365011123
 -0.0395894897364972 26.5410505324556851 15.6231241125719844
 31.6751862247882130  1.6537873132129124 15.7745150837064756
  2.6906030947442496 64.6079179543238951 15.7553159878174611
 -0.0589359517148709 29.8429246185070163 15.7678551150117858
  2.6852734723919367 61.2893277942737100 15.7645117750918757
 -0.0797345989551946 33.1457346926951359 15.8800527068980326
  2.6815212318446018 57.9712859793182957 15.8002510494773549
  2.6818844114499720 54.6554790387901122 15.8558704052741035
 -0.1012220034657094 36.4498562623899289 15.9560280477673260
  2.6882831082243714 51.3428294593441024 15.9211110263422739
 -0.1230848824886583 39.7550441581736109 15.9936493647085047
  2.7013314878396697 48.0329881571843771 15.9823401401353902
  2.7195227780123865 44.7247503224436826 16.0243918814146760
 -0.1444856409375467 43.0613561923690042 15.9934106757685104
 -0.0222089552008153 23.2396041424839090 15.4508801062685421
 31.6662629183757574  8.2811260384096883 15.8784140985730264
 31.6515103490181424 11.5896745950773177 15.9421490197001567
 -0.0075974119180429 19.9371094858473512 15.2574872480358756
 31.4303645501919924 44.7004771242506393 15.2171144102712432
 31.4030344597787625 51.3396352379359158 14.8745539011036207
 31.4484453119640115 41.3838317474704951 15.3916263849250736
 31.4685158056606973 38.0687446727885686 15.5552745647692525
  0.0157932792342773  3.3525171052574141 14.3744577581701005
 31.4903149418397987 34.7553652403153350 15.7022042454696837
  0.0184141518034325  6.6821082617293293 14.4963133455903463
  2.7407759737670694 41.4174855288781529 16.0358082870129373
 31.5133375669183415 31.4433388549641890 15.8267988994111946
  0.0172684846925500 10.0054810353669836 14.6585042244263981
 31.5616223397167524 24.8222536077156235 15.9910197270911869
  0.0123971807577425 13.3219953787598104 14.8481076166411441
 31.5859000830526817 21.5129415005763462 16.0244174881524515
 31.6096108440712591 18.2046808681095591 16.0245336269684842
  0.0040373566540863 16.6319331414223583 15.0522248443000635
 31.6319012497431196 14.8971488755589778 15.9946841827802668
 31.5372001717100972 28.1323651873060427 15.9245145800738701
 25.8206733437440015 24.8187738476928388 15.8896451817706481
 -0.1635990356468569 46.3684734149407731 15.9592502794193347
  2.7856103493176883 34.8042678010371205 15.9464727454806265
 28.7872972873205342  9.9268796917328288 15.8368247643040760
 34.2990238360692246 46.3461070126899983 15.0506199575147566
 28.7695674903398810 13.2353016500106495 15.8978570027019455
 34.3139074156139188 43.0316019835565342 15.2459999363905787
 34.3315208368514462 39.7197175772228164 15.4357328273490335
 28.7485433164473996 16.5433072171775457 15.9434239648554232
 34.3512576314007632 36.4097641039369222 15.6110015325071814
 28.7260195231319173 19.8521760888756020 15.9655207335454978
 34.3731109434627555 33.1006278502105644 15.7646484746959086
 34.3964874547956470 29.7920103793075128 15.8906185267339843
 28.7026802520450275 23.1625081509293125 15.9599570842367875
 34.4207497204785540 26.4835903501130510 15.9842150617939804
 28.6789717667006343 26.4742912077806167 15.9248916327282597
 34.4455790557810673 23.1755132389674863 16.0422767225323746
 34.4702902001219513 19.8679346537564570 16.0639054271304502
 34.2877824068326333 49.6640010656512203 14.8608096329807431
 34.2809244136127660 52.9860130048645814 14.6906291390641943
 28.7993016309358900  6.6166465045468463 15.7729676969526835
 34.2788442335741550 56.3128155711705176 14.5543088818172972
 -0.1786270952260045 49.6769479984432252 15.9000622882214824
  2.8079352714713810 31.4985656833612211 15.8447338162736600
 -0.1878585691053977 52.9881063843572946 15.8303785362814722
  2.8292493503092042 28.1939417952955829 15.7089435954912737
  2.8494327493046701 24.8895508151667286 15.5443013228601519
 -0.1903386801340387 56.3026836130855770 15.7648008388156704
  2.8674798149300247 21.5844580470550227 15.3567427638863201
  2.7631396509319557 38.1107538820345226 16.0106112613749332
 -0.1877371924877881 59.6200686412925691 15.7148635911433026
  2.8953936107547649 14.9671024747024930 14.9488021002760103
 -0.1827096765552468 62.9388565128393296 15.6887113358226635
  2.9041129307865612 11.6520521717035894 14.7520138605543263
 28.8029363270198182 -0.0145301546009964 15.6909995433824516
  2.9092915490438225  8.3313015830541595 14.5766999983999401
  2.9108011172450712  5.0045084645200086 14.4361937725890019
 28.8042097618585160  3.3027671208775398 15.7209280836551848
  2.8828969238917859 18.2774601287571237 15.1545851324799727
 17.0395844887435075 62.9939059306610432 15.4942476860450196
  8.4331103850003046 51.3618352330887120 15.9149450122449849
 25.7973983030632041 28.1340067199065977 15.8629187861827869
 43.1423699614639133 11.6349495880625131 15.8662113505229403
 43.1542004674679944  8.3245072852861899 15.7898021070849008
 -8.7813182104251304 44.6869156553209663 15.6942837755081062
 43.1591900747186372  5.0103163103364698 15.7186974030478694
 -8.7934808184871880 47.9925504653709112 15.6075027246992217
 43.1582753942496993  1.6927881183293207 15.6635240807900455
 14.1729740764346328 64.6455442831240106 15.6315179523194505
 -8.8013781056524554 51.3017403926606619 15.5095307586100297
 14.1680134409790668 61.3254352464380403 15.6270096778043470
 -8.8039113237862789 54.6152994894697059 15.4148763247549159
 14.1649811399322800 58.0061599186365271 15.6498914764564105
 14.1670040091404879 54.6893713167885807 15.6966477870809786
 -8.8015296430481875 57.9327609309431750 15.3354552128976174
 14.1760147785431645 51.3754033973898103 15.7583385336845581
 -8.7963467350570692 61.2526471372494967 15.2811564412013290
 -8.7665733525106742 41.3837452633164133 15.7582224860909115
 14.1908733518795440 48.0634214249912617 15.8201652786808165
 43.1245667402134600 14.9429458412057574 15.9335182585915831
 43.1027858099854981 18.2495538596736750 15.9774748377455129
 42.9467369359474063 47.9775481314050865 14.9079599796738211
 22.8712830492958510 36.4395569348739059 15.7382841994016847
 42.9516191161368397 44.6703678104451356 15.1136959594974272
 -8.6754350952814754 21.5913665895624050 15.4791399419721216
 42.9607546125225426 41.3671309792260757 15.3154140352589856
 42.9737997452223794 38.0660145132595389 15.5019536061319840
 31.4147177534462543 48.0188855846167115 15.0405150845551852
 42.9903969853788794 34.7656917600008981 15.6651914605170948
 -8.7029142595852900 28.1879149619464577 15.6975857931146123
 43.0097026811481484 31.4648431024541537 15.7990244785618010
 43.0315537693857308 28.1630291168184712 15.8992131519328623
 -8.7186173044946393 31.4854759333988028 15.7625378855009259
 43.0550213751755848 24.8598691276696506 15.9629596398953844
 -8.7345159557346541 34.7836316163539152 15.7944450742849725
 43.0791883183444426 21.5552168314539223 15.9887562159004091
 -8.7507428163768068 38.0828477079488934 15.7927203088364099
 14.2093890840071833 44.7518301911260892 15.8690517342602124
 -8.7908628289803055 64.5737482619336873 15.2590710952082542
 14.2300454399997776 41.4394963093474615 15.8968503983742924
 20.0587496748029217 28.1531334121988372 15.7983619468642988
 45.9211894436072896 26.5197375649544789 15.8886113003343432
 45.9434925059317152 23.2175201383513787 15.9166617888420365
 20.0362516058842814 31.4721115410566199 15.8092873808356469
 45.9660489665999208 19.9135855147638132 15.9090043957975684
 -11.5841371252390335 26.5367493214273580 15.6852266179047959
 45.9874811264386381 16.6080582207274858 15.8682320895981110
 46.0062048941063892 13.3008789927521374 15.8007128241189623
 -11.5994671392992572 29.8345279539551065 15.7353915553280128
 46.0201458879456453  9.9915759943587261 15.7183114439642786
 -11.6146976798532027 33.1321133636916585 15.7537151079936635
 46.0275532707375703  6.6787610810665194 15.6359173661386937
 46.0287269223257880  3.3620879884297081 15.5656948646164306
 -11.6295093727987187 36.4298974219456611 15.7394033448989088
 17.0445738433512410 66.3148273566117865 15.5163166158572832
 45.9002515655704784 29.8200781592619997 15.8243051442679636
 20.0814539193411825 24.8345536814049268 15.7675126883506245
 45.8811938947261879 33.1192149187216458 15.7253292465213796
 45.8652298387477444 36.4178605053661286 15.5944870069253536
 20.1934052730846219  1.6223406967878944 15.2718302524115348
 14.2521187602454535 38.1257175679777518 15.8995706704373418
 14.2748833620271505 34.8104625056258143 15.8755589160607364
 20.1913803555296951  4.9407898879909293 15.3178471265882745
 14.2977980183222435 31.4938803423981675 15.8258330148035391
 20.1821258548862410  8.2563423881564759 15.3910095803223577
 14.3206206055587320 28.1764145262749075 15.7529177008322954
 42.9458159168273212 51.2914850157721958 14.7125072649172068
 14.3436135974120642 24.8586642203335870 15.6593870106876487
 45.8351022775221111 49.6296920875664611 14.8742981756904005
 20.1477896606902149 14.8849099166608116 15.5685226017728713
 45.8366914189684849 46.3210895232365516 15.0658792318387587
 45.8426100950403779 43.0174377396235741 15.2575585576528745
 20.1266252260413516 18.2002302821145250 15.6500878950103459
 45.8522024721689334 39.7167851350228247 15.4365479309726119
 20.1042494259659144 21.5167386425844605 15.7175134285710723
 20.1668284002090985 11.5705552756887808 15.4789284277823036
 22.8937887818484676 33.1203762974027356 15.7899033768990478
 42.9484667679852663 54.6123923445666151 14.5422352540955853
 22.9164428249801411 29.8013429887364509 15.8211489105981702
 40.0581677657881485 56.2856452151467721 14.4451053827567719
 -5.8075505175674298 26.5398818355394219 15.6331396197383672
 40.0558342102986202 52.9596535791160932 14.5974818087992801
 40.0572604260523377 49.6405083873785884 14.7837939973788615
 -5.8234035758924083 29.8381945772214188 15.7410522773798469
 40.0623481562072357 46.3280013285290195 14.9891834689729873
 -5.8409931087445566 33.1372044354916113 15.8163672303951266
 40.0715933197986445 43.0207384521405842 15.1996731046166342
 40.0850785824463571 39.7165586555492496 15.4028013589950987
 -5.8591659625602022 36.4376489338078500 15.8569857092104183
 40.1020018415395327 36.4134125581310215 15.5884146710176648
 -5.8777119719936994 39.7392897438163359 15.8626880334401648
 40.1217340017948629 33.1104637517947822 15.7484744014508191
 40.1436881753786281 29.8068828979809872 15.8772457197089114
 -5.8957576060342740 43.0427293307928451 15.8345765704378678
 -5.7934946071569815 23.2416328155095933 15.4962476965323894
 40.0634253734043995 59.6175908931040794 14.3398497029206649
 40.0700256599897742 62.9535339759744375 14.2917193837307472
 -5.7813451827989475 19.9420508799080523 15.3356167232397045
  8.4661036177089315 44.7428391949557280 16.0115467862861358
 25.7741546817100442 31.4508272420653157 15.8120987607738517
  8.4873586154362162 41.4336719103674866 16.0219740301469109
  8.5098078296372481 38.1241657966661904 15.9981460884215387
 25.7511115922286393 34.7690798859593073 15.7393635819545725
  8.5327896299358557 34.8143931006850167 15.9391111436400372
 25.7286652999446126 38.0878298409371112 15.6466538119249616
 40.1674427250103108 26.5022444078845290 15.9704644542177512
  8.5562342656587074 31.5040009752476919 15.8471046401392552
 25.7067386506015616 41.4066358217793606 15.5369648861885263
  8.6009087946208975 24.8806076537247023 15.5824886066047110
 63.2813678141163436 13.3333354445849803 14.9759532333847183
  8.6215797820720859 21.5670467739979763 15.4198070191959395
  8.6408236311525659 18.2525427597831822 15.2442056476587329
 -5.7720882873513073 16.6398492951438719 15.1586049840813040
  8.6582440672827197 14.9366259903717040 15.0638256726452955
  8.5790776887575930 28.1929278077457504 15.7266035261239345
  8.4474465664875087 48.0519014290809849 15.9722674837349548
 -5.9120950299538686 46.3482399542794212 15.7762061159971410
 40.2169757955385734 19.8905819010864562 16.0423235786730558
 23.0450900840838848  9.9147078743904249 15.5920245245581555
 11.3484330166615042 43.0937079116973365 15.9659797452522820
 23.0272200910988722 13.2261961030248756 15.6673129900926327
 11.3701586017878888 39.7830493458049403 15.9674716560852072
 11.3928691722702311 36.4712761253153559 15.9379853731673649
 23.0066303219297623 16.5381624349889940 15.7347135016359232
 11.4162042100007231 33.1582327989971333 15.8780280115117840
 22.9848251377724822 19.8515601753066342 15.7869856529962664
 11.4393076910352267 29.8439030303893915 15.7903667027533761
 11.4618881884821278 26.5286353175815215 15.6791683761634886
 22.9621838996141285 23.1666234292145674 15.8197554943444771
 11.4842256225375650 23.2124870417150575 15.5485881945644966
 22.9393780190460497 26.4832870787975097 15.8312437852264960
 11.5055842280060929 19.8958212424689940 15.4026876601395717
 42.9541601845668737 57.9400142869771244 14.4106112603206338
 11.3284379964550403 46.4039064047704031 15.9360768682941529
 11.3116766779012110 49.7141196534815322 15.8845043501143213
 23.0577878067697348  6.6021765862643838 15.5197241302395881
 11.3000250031118323 53.0255097245406830 15.8235195329464062
 -5.9244611414504673 49.6560845048390149 15.6964293598637266
 40.2406268916743244 16.5841278360344511 16.0225309746487454
 -5.9311994496230183 52.9672069410855997 15.6101453891487179
 40.2616441963994447 13.2770962098461531 15.9731586656066877
 40.2775893744755464  9.9684610682304253 15.9056158392196370
 -5.9321026667574452 56.2822680013059582 15.5317622268942586
 40.2867475982359764  6.6567670315584708 15.8350006840027930
 40.1922490060433901 23.1967471597551658 16.0257445178113223
 -5.9285330220844061 59.6003432452806692 15.4719726926045382
 40.2863184898903910  0.0233735152612162 15.7337192823375300
 -5.9229904768341566 62.9200553714711717 15.4385753114635698
 11.3002584429199295 62.9763426253709468 15.7187924540591428
 23.0625976294475521 -0.0320742114197349 15.4359491329612553
 11.2959335940388623 59.6572903605497302 15.7313304178506392
 11.2950636675105631 56.3398378567330269 15.7683345959447507
 23.0634667678802110  3.2866531719598142 15.4642978106866931
 40.2890926615890024  3.3414638539251085 15.7745027997983840
 37.1792440270692808 64.6348585187336653 14.3341247213183820
