Se W 
 1.0000000000000000
    34.6514464645498421    0.0000000000000000    0.0000000000000000
   -17.3257232322749104   30.0090329161766327    0.0000000000000000
     0.0000000000000000    0.0000000000000000   24.7171056087856371
 Se  W  
 436 218
Cartesian
 -0.7121181329568502  1.7093883717109988 17.4560860912280020
  1.0363134889328001 10.0470741162353399 10.6817326803674888
  1.0308135962158846 10.0454035002221520  7.3187001268410139
  0.7173252565526086 13.3501882090487083 10.6725682486529845
  0.7160767925663977 13.3455070114269585  7.3118209138344072
  0.3910474250063534 16.6508937502662775 10.6706590475650103
  0.3951446731409234 16.6566449109217878  7.3095865726994571
  0.0794757946434781 19.9601365726862952 10.6774618467812790
  0.0794757946434730 19.9601365726862952  7.3137981477899983
 -0.2215674591772504 23.2742454059831623 10.6612675644779369
 -0.2296050003691076 23.2528356811756041  7.3025454127420995
 -0.5364279315460456 26.5773689061506211 10.6277497292273839
 -0.5475211078956380 26.5520482059797800  7.2730194202580112
 -0.8696495702699881 29.8661726037602548 10.6087694930863758
  1.3418008355107267  6.7565155969865698  7.3068543467684774
 -0.8785312419993629 29.8666867031708492  7.2563632033769387
 -1.6715024846298738  8.1290316929790229  7.3140636926649005
 -1.9894737528540616 11.4369590782432144 10.6714022517454694
 -1.9741358992632863 11.4275255634967898  7.3115693022080643
 -2.3179141129743548 14.7431877877397071 10.6579124832525451
 -2.2915890591406676 14.7373156805212275  7.2995514661263758
 -2.6401050196065849 18.0423710508338679 10.6612675643276713
 -2.6175448832007056 18.0461151983338866  7.3025454128802334
 -2.9421983720039275 21.3449290368433182 10.6706590464964268
 -2.9392663448913154 21.3385051355785436  7.3095865741406918
 -3.2398394283155061 24.6448115280006590 10.6579124840805068
 -3.2580873504232208 24.6249494170492618  7.2995514658914447
 -3.5574311598243411 27.9359954973659335 10.6365095356952555
 -3.5832101199476352 27.9250886024399563  7.2806959236201925
 -1.6743767275520420  8.1166847007618959 10.6753592116360156
  1.3395389159332542  6.7393566706222439 10.6659714540444579
  1.6627547914974037  3.4594065191945687  7.2770111060549674
  1.6488575773517535  3.4387534423824988 10.6321407487394097
  6.7598677738107451 10.5810956699325871  7.2861658703529510
  6.4520376814885365 13.8955723109729199 10.6193160340657737
  6.4310739811083879 13.8891167091043553  7.2656981017839399
  6.1181189602287471 17.1849086785203902 10.6277497282888138
  6.1017371793069923 17.2071760010815034  7.2730194204110088
  5.7961809263623039 20.4924104019320374 10.6579124840490298
  5.7881037938362772 20.5181446214914764  7.2995514658914447
  5.4849342641690519 23.8175045924669746 10.6725682485517659
  5.4896125324370031 23.8187639895289784  7.3118209148386102
  5.1627174883076208 27.1368377559932163 10.6562679199608645
  5.1845864397897694 27.1219949956399233  7.2984851470398331
  4.6679570713627907  2.0774947643528741 10.6450649429558393
  4.6966593416625999  2.0814733522011286  7.2881794161434224
  4.3584125887818672  5.3749032652639102 10.6620218814683039
  4.3698468069606999  5.3798801725694219  7.3028776531347646
  4.0628204811990782  8.6737353609975454 10.6694543934975634
  4.0501698435611466  8.6653068638930399  7.3091902608133266
  3.7530604880065375 11.9695695412430059 10.6562679204039554
  3.7292718046653319 11.9580518535865377  7.2984851470531318
  3.4251806015861996 15.2615349253134820 10.6486551117500490
  3.4040483785929303 15.2679549247155570  7.2917205486683558
  3.1000998624009166 18.5637932603596951 10.6612675645738477
  3.0855772683159612 18.5814588388732247  7.3025454128802334
  2.7895783309241740 21.8845869308190260 10.6706590462500319
  2.7825490556836572 21.8852596716227197  7.3095865741406918
  2.4757317786713475 25.2069027517580970 10.6486551117059935
  2.4807380088449662 25.1853917112561909  7.2917205487215915
  2.1452615650284823 28.5112191846429326 10.6193160337508345
  2.1613341302736551 28.4962918886290026  7.2656981006866461
 -5.0093671730331453 12.8225532970965812 10.6365095338762412
 -4.9870320466830407 12.8056815096793688  7.2806959236175137
 -5.3432636457588378 16.1181321324073323 10.6277497303103186
 -5.3157886880847025 16.1211855105825528  7.2730194200884188
 28.8368657774379464  8.8557597514678132 14.0555050708724174
 -5.4820362067071260 12.1412166940958635 17.4375409249420912
 -5.5056756206566044 12.1525804260885284 14.0818384883983594
 25.2014614612509824  0.8709888294831529 17.4079153474823762
 25.1878368502436238  0.8642473039710585 14.0476512158349394
 25.5159408384744175  4.1758763605879015 17.3984054823844545
 25.5117440963510198  4.1719486218226454 14.0353729305312456
 25.8214627685837854  7.4692999925728278 17.4055363060345840
 25.8209620315422761  7.4872997208100056 14.0457033556161068
 26.1343927818127426 10.7676225683624960 17.4364096850894619
 26.1309489489443365 10.7954012490585978 14.0805960733536057
 26.4635266222824406 14.0807422347567694 17.4607424042850603
 26.4586405626977808 14.0881769386577815 14.1083361156300331
 22.5103096723428493  2.7952671776265854 17.4186204617336386
 22.4884407205831280  2.7804244183037450 14.0608376884791539
 22.8153357646249297  6.0984981838912153 17.4052846944859141
 22.8106574964792266  6.0997575808663083 14.0445373606073787
 23.1138270261889929  9.3991175522537009 17.4175541428954048
 23.1219041581906275  9.4248517709756534 14.0591931250269813
 23.4274604108685267 12.7100861721165792 17.4440861889216876
 23.4438421929006822 12.7323534945270449 14.0893558791173952
 23.7567972135822281 16.0281454642056289 17.4514075081937250
 23.7777609138881907 16.0216898631468148 14.0977895736047696
 -10.5658554582520061 19.3361665031151944 17.4309397383507694
 -10.5472540476660761 19.3111373323150808 14.0745627774360571
 19.4870573628459240  1.4209702846615213 17.4514075086945581
 19.4709847969426590  1.4060429881127912 14.0977895710501695
 19.8064612415922738  4.7318704620861203 17.4253850600874145
 19.8014550116574917  4.7103594213700104 14.0684504966385422
 28.8434998761156862  8.8441064328623114 17.4143857937488598
  6.7784691844630069 10.6061248412346441 10.6425428321700437
 28.5388554774324952  5.5542805032291085 14.0417463970841805
 28.2246987197225430  2.2554889760372521 14.0511341550621811
 -5.6624849974589297 19.4119720402967317 10.6486551117500490
 -5.6463590038308356 19.4270630819362005  7.2917205487035908
 -5.9638321368594944 22.7127169166713152 10.6725682486970825
 -5.9672619408400447 22.7161387169801507  7.3118209142996804
 -6.2673376629212036 26.0134881868723653 10.6714022525530563
 -6.2831762532651521 26.0049219737371047  7.3115693019483201
 -6.5901683845209851 29.3095674617630131 10.6616005378508873
 -6.6035775044137912 29.3094861002963789  7.3027198150361032
 -8.6773505923643235 20.7740024211753287 10.6562679205326507
 -8.6754308604399455 20.8003628688481079  7.2984851470488703
 -8.9839069691725992 24.0880220503938105 10.6817326777073358
 -8.9826038186797952 24.0936204052833034  7.3187001271583991
 -9.3003281337785033 27.4007433473098274 10.6753592112395701
 -9.2910724466194363 27.3920806841313613  7.3140636921962834
 -12.0000870193996185 25.4792798502594060 10.6659714539410153
 -11.9863579122560964 25.4687415070285361  7.3068543467684774
 -12.3286794438113070 28.7894884820553685 10.6465479885892513
 -12.3006053631109484 28.7780133148799138  7.2897182692334903
  1.9772908340427093  0.1478354886962362 10.6139898672629283
  1.9953844116080901  0.1462110494401466  7.2610195169159306
 33.6066075703236322  1.5172919510904770  7.2610195163253266
 -0.7016645383236437  1.6945310944835621 14.1031157415965094
 30.9036109363157045  0.3356007403681481 17.4400945032972743
 30.9284456321109928  0.3373095436160342 14.0849648598022057
 31.2317448718790338  3.6445991889454490 17.4273873395963150
 31.2557196998463596  3.6260239046118716 14.0705576209647205
 -3.0980928727407093  6.9359176695631781 17.4106850095639274
 -3.0886484762984185  6.9223121407070156 14.0505959247722583
 28.2087076930700320  2.2621095595485841 17.4102512627746293
 28.5267255474145109  5.5579648319079169 17.4030419165893235
 20.1082722879322340  8.0320025017539773 17.4075190363929693
  7.0783200684338166  7.2895419162919053  7.3077190282564839
  7.3932607440099005  3.9985300145959970  7.3101189163226143
 -11.6874806887393792 22.1688295098613608  7.3091902613031658
 22.1565141185199579  0.4296079778744704 10.6425428327554634
 22.1874907214425825  0.4260132691939542  7.2861658702013790
 21.8361663855895571  3.7254173925782070 10.6532635410393208
 21.8580325019059174  3.7332477531769683  7.2955529420357585
 21.5355443801280870  7.0250871630304896 10.6694222662755838
 21.5350068472715002  7.0230540475704908  7.3090454298426311
 21.2361358281488641 10.3228860658685448 10.6638867834593452
 21.2161085787319657 10.3094892169226195  7.3048839450451428
 20.9162759761516384 13.6152510525018755 10.6498813091094764
 20.8924375911362290 13.6113974196533025  7.2928076388464289
 20.5865329658639808 16.9103100009845271 10.6532635409375835
 20.5688186138031135 16.9253314321438495  7.2955529425133072
 -11.6865067157926337 22.1536594877721420 10.6694543927926642
 20.2682908805303335 20.2221409520378508 10.6682849215736155
 19.9602712972433594 23.5470852616717714 10.6620218811519880
 19.9588643171099491 23.5346944844550450  7.3028776531347646
 -15.0131525934873054 26.8617036449391620 10.6321407466487585
 -15.0022151108885442 26.8393417672425443  7.2770111063193861
 19.1365959703756765  1.7925315122502095 10.6189942442509402
 19.1542524096614777  1.8044570902917896  7.2653992942963956
 18.8176901220133423  5.0873810425249033 10.6498813084966155
 18.8262719725366701  5.1099525063249480  7.2928076391360808
 18.5145913711633447  8.3936117894705831 10.6778910933196673
 18.5115310468072174  8.4005658228114388  7.3161031237176131
 18.2045455344595339 11.6996444588868336 10.6778910925849022
 18.2000533270746772 11.6935171236512172  7.3161031241856200
 17.8792461221316792 15.0001288216711384 10.6694222662381772
 20.2584432693981036 20.2342569626741238  7.3077190280780462
 23.2682385849800291 18.8642678626118396  7.2861658703529510
 23.2806137785048470 18.8356439830416171 10.6425428327711025
 23.5910903745253862 15.5481845179865825  7.2653992942963956
 -1.3628896392050798  4.7996829663784260 10.6465479869310720
 -1.3669888932188157  4.8297334178725997  7.2897182692338376
 30.5977804805343929  2.8661659111918043 10.6450649429278634
 30.5799837886743191  2.8890335124962858  7.2881794164570239
 30.2803483306487990  6.1818894854292594 10.6665096831675346
 30.2732877953034460  6.1968713375076394  7.3064205988165956
 -4.6825467762549202  9.5093398349921419 10.6616005381053292
 -4.6757717548554041  9.4977678772166030  7.3027198150147550
 27.8969131945497075  0.9493882749117537 10.6620218811391876
 27.8868859569325167  0.9568021444594169  7.3028776531347646
 27.5782922302836511  4.2570690395080515 10.6717998464701811
 27.5714633169123076  4.2658304995278122  7.3101189173984826
 27.2734750997777589  7.5770993712770025 10.6662180757165341
 27.2669117606706521  7.5644337925477325  7.3062542302729998
 26.9593166987864556 10.8902305359899714 10.6352671203509086
 26.9573382720574379 10.8640763379571190  7.2795646836271413
 -8.0248403764567016 14.1851518797425982 10.6087694945868769
 -8.0208447639901372 14.1772030763741146  7.2563632043657513
 -8.3588718623943592 17.4736182220940002 10.6193160337004073
 -8.3539807271331821 17.4950011199165267  7.2656981006866461
 24.8634171645248010  2.3451076458880054 10.6682849208692083
 24.8788337436203797  2.3475779226559332  7.3077190271013590
 24.5572893709480091  5.6505248539021391 10.6742199586051019
 24.5603394059027522  5.6453436002704045  7.3114571394016741
 24.2593764519163066  8.9570598678788844 10.6571355401587820
 24.2457006868961784  8.9338345685334790  7.2988345115498685
 23.9432499424924181 12.2518594857383984 10.6281017110624632
 23.9222405070383566 12.2329678132838673  7.2733770065276735
 23.6102464473589677 15.5388563810551652 10.6189942440843943
 17.8812756182228298 15.0006798624306370  7.3090454296339669
 17.5587795055198583 18.3043179021404860 10.6742199594189220
 17.5617415853176482 18.3095499367527133  7.3114571394010088
 17.2550462100416198 21.6173110304562357 10.6717998471243316
 11.8200476122015807 17.7646817480527588 10.6352671242204213
 11.8436870253542637 17.7760454795969949  7.2795646833441152
 11.5111425451825600 21.0615024220685001 10.6616005387852528
 11.5177766436727751 21.0731557412075432  7.3027198152233854
 11.2131322451717850 24.3629816700522390 10.6753592120842935
 11.2010023152613893 24.3592973413614509  7.3140636923465223
 10.8989754873046412 27.6617731972493850 10.6659714542702453
 10.8829844607336543 27.6551526132549625  7.3068543461729494
 10.4098978140496659  2.6009609460662126 10.6662180751404545
 10.4022107712883347  2.6129777526450231  7.3062542302729998
 10.0995282043630894  5.9165340458873485 10.6742199588412898
 10.0935160894624243  5.9164832650372636  7.3114571394010088
  9.7928977291669170  9.2356494103006153 10.6532635408882985
  9.7887459638556997  9.2127976161101923  7.2955529425335151
  9.4687546627103014 12.5399889077112690 10.6189942447967933
  9.4702542970585970 12.5187351938857194  7.2653992944544878
  9.1329173308751646 15.8290852347908544 10.6087694930518079
  9.1378033900531861 15.8365199385778794  7.2563632048457611
  8.8052257167866692 19.1218609241804884 10.6365095358618156
  8.8086695488944020 19.1496396061200933  7.2806959236201925
  8.4952387993755050 22.4299624527726742 10.6714022533131203
  8.4957395363790127 22.4479621807689469  7.3115693022080643
  8.1860208642009749 25.7453135515415461 10.6817326792875829
  8.1902176063797647 25.7413858127351176  7.3187001270382925
  7.8621136180420024 29.0530148693651888 10.6694543928833347
  7.8757382288127653 29.0462733438304177  7.3091902608549093
  7.6981739944120591  0.6945372839564871 10.6665096843056233
  7.7146789260914783  0.6931609609731727  7.3064205990536673
  7.3822586401755181  3.9969967319988262 10.6717998476915970
 12.1757411158414168 14.4631279735641165  7.2733770058894329
  7.0838890350918033  7.3041282033841268 10.6682849201046519
 12.1488757298119872 14.4718768421372808 10.6281017067615018
 12.4816309816181441 11.1687447088172611 10.6498813091444404
 17.2508730201133140 21.6070162876792011  7.3101189163357372
 16.9498595285605020 24.9277161261432134 10.6450649432761928
 16.9389539506355682 24.9008699379394365  7.2881794164584157
 16.6240586940015085 28.2227310784672731 10.6139898628398015
 16.6136050992067936 28.2078738010898213  7.2610195171514542
 16.1234714083242245  3.1476404743078987 10.6281017076354694
 16.1176154575684265  3.1752810145333070  7.2733770062546483
 15.8064884800153731  6.4565567778745558 10.6638867841990006
 15.8049000938709696  6.4805993094943695  7.3048839455555008
 15.4964601753358533  9.7781205534271347 10.6778910932985429
 15.5040127067437048  9.7772938553484767  7.3161031241856200
 15.1729727716452167 13.0919339578609364 10.6638867829333499
 15.1945884083639413 13.0812882760148845  7.3048839455555008
 14.8441926441730736 16.3930502391940820 10.6571355395331118
 14.8711442258369999 16.3928193290747579  7.2988345115498685
 14.5322241674035695 19.6933164849558331 10.6662180758682510
 14.5464745495335617 19.6939652565985277  7.3062542302936375
 14.2370747560185595 22.9949500325306389 10.6665096840583313
 14.2276303594871738 22.9813445031343555  7.3064205987358397
 13.9299964675720300 26.2912382682828003 10.6465479883297469
 13.9060216398337566 26.2726629842769839  7.2897182691572846
 13.6027223994819746 29.5799526305373170 10.6321407466437243
 13.5778877047173570 29.5816614327528349  7.2770111061618037
 13.4362327695345822  1.2164645172517845 10.6352671225728201
 13.4145717823251527  1.2312549844735043  7.2795646837137795
 13.1120279848785923  4.5212666946505298 10.6571355395429723
 13.0987521679486303  4.5447229042682684  7.2988345115498685
 12.8008065784358003  7.8461608171145381 10.6694222655841635
 12.7993146151353905  7.8476428919662942  7.3090454297201886
 12.4968875174888741 11.1500268763134986  7.2928076383184663
 20.1153015633173133  8.0326752426325250 14.0464465628727098
 33.6142475527504345  1.5008102334610849 10.6139898655292431
 20.4113004994169032 11.3358033346143401 17.4145601961321717
  5.6382425434553909  7.7484326630703446 17.4079153472521568
  5.9425153529523351 11.0529943108664739 17.4309397384374734
  5.9548905453823764 11.0816181904497633 14.0745627763985741
  6.2653671417188033 14.3690776557603819 17.4517063150021770
  6.2845232146480683 14.3784057921532771 14.0981113642196938
  6.5965172751857928 17.6842943598626228 17.4437286019164546
  6.6175267102159214 17.6654026877979291 14.0890039020028386
  6.9199774550043411 20.9834276040292380 17.4182710972108694
  6.9336532192249534 20.9602023048835626 14.0599700693277878
  7.2346161736565984 24.2719185730472233 17.4056484696549418
  7.2315661386819139 24.2667373193000309 14.0428856472541579
  7.5531105113460768 27.5696842502696029 17.4093865802347914
  5.3256362129625927  4.4379823225281196 14.0511341550790334
  7.5376939323323464 27.5721545270705377 14.0488206875828254
  2.3125706389034324  3.0555585274639290 14.0849648597750416
  2.6331410853009887  6.3825676889076455 17.4142279555526969
  2.6345480648862920  6.3701769116234459 14.0550837274525957
  2.9327200369672517  9.6830052106229818 17.4093865800723506
  2.9425676485292005  9.6951212212975104 14.0488206880035236
  3.2430953815204528 12.9919307409664242 17.4215526662478055
  3.2608097344409108 13.0069521726043700 14.0638420673798361
  3.5667143592836048 16.3058647536054231 17.4242979704340861
  3.5905527439701377 16.3020111208548357 14.0672242983381004
  3.8903853461131472 19.6077729565912229 17.4122216644424519
  3.9104125959244396 19.5943761079084844 14.0532188257778170
  4.2092836149320654 22.8942081257947905 17.4080601791840444
  2.3235081203131496  3.0779204063485364 17.4400945026092131
  4.2098211476875189 22.8921750101454613 14.0476833420692913
  5.3393653192471850  4.4485206661623629 17.4102512627989086
  5.0251178696282297  1.1392488578968707 17.4273873395966632
 12.3386911862128610 17.1115806636247498 17.4364096850977397
 12.3163560590009507 17.0947088753243470 14.0805960714835283
 12.6499514764430288 20.4194942960914183 17.4143857937488598
 12.6431764556384785 20.4079223383427610 14.0555050708943376
 12.9475645625012206 23.7203908357748467 17.4106850095473753
 12.9546250981757094 23.7353726878354081 14.0505959255824973
 13.2542605557921629 27.0282286610952056 17.4289261924752381
 13.2720572486523274 27.0510962616418418 14.0720406648365106
  8.0346507855549305  2.5251814892873869 17.4030419159705403
  8.0253950985269338  2.5165188259510503 14.0417463965714191
  8.3431194136190303  5.8236417682653858 17.3984054806068755
  8.3418162630324346  5.8292401229256647 14.0353729295166882
  4.9970437886546968  1.1277736899630026 14.0705576204407485
  8.6502923715215232  9.1168993041158028 17.4186204617293683
  8.9717425048015009 12.4222610524294623 17.4514075080412994
  8.9668513700208070 12.4436439511439616 14.0977895745146107
  9.3048784685429222 15.7400590969593193 17.4607424052597011
  9.3008828556914143 15.7321102937237391 14.1083361109093506
  9.6316150413238546 19.0531858358330659 17.4375409252032263
  9.6335934675777395 19.0270316372878341 14.0818384862330426
  9.9411885281019323 22.3528283811420323 17.4108513782607055
  9.9477518668163807 22.3401628021155076 14.0508875327650369
 10.2457400844090873 25.6514316738135193 17.4069866928304506
 10.2525689978980630 25.6601931338217852 14.0453057619390762
 10.5611627248478772 28.9604600285767759 17.4142279556509223
 10.5711899622207461 28.9678738983156769 14.0550837273282934
  8.6483726401067074  9.1432597521455587 14.0608376884019997
  4.5323092698137675 26.1840144201946039 17.4215526667456153
  4.5104431529716917 26.1918447829778565 14.0638420673725406
  4.8617674889472973 29.4912489046024362 17.4309397383507694
 -4.8288357143639420 18.7672352967527978 17.4242979696876468
 -4.8440922508047093 18.7485174653670690 14.0672242992302809
 -4.5264086170943001 22.0696192813460286 17.4080601790954326
 -4.5249166537057990 22.0711013561278939 14.0476833430483392
 -4.2269710640080147 25.3725392691023472 17.4182710972326618
 -4.2136952474430762 25.3959954786369515 14.0599700693538292
 -3.9111514493281945 28.6860071889387740 17.4375409255027520
 -3.8894904628456097 28.7007976551193060 14.0818384868580893
 -7.8554689353792702 17.3985269797222593 17.4517063148440457
 -7.8569685682238246 17.3772732657465951 14.0981113638981004
 -7.5369772685949865 20.7044645571067178 17.4215526667507632
 -7.5328255025076869 20.6816127631671911 14.0638420675476432
 -5.1768475029029677 15.4453853303315167 14.0890039023086313
 -7.2322071427332810 24.0007789084238681 17.4056484696118936
 -6.9235124610166405 27.3042844206711095 17.4108513785220076
 -6.9158254174669764 27.3163012277793946 14.0508875318520232
 -10.2474031640208860 22.6277202565269491 17.4093865807814225
 -10.2418341970723805 22.6131339699084464 14.0488206872790187
 -9.9324624882418409 25.9187321585371286 17.4069866922905021
 -9.9434645921374702 25.9202654409780671 14.0453057619108339
 -9.6110443060553425 29.2241012121942703 17.4106850094564507
 -9.6275492379450043 29.2227248894972114 14.0505959250714838
 -12.6290638911601611 27.8357888217165339 17.4289261924822618
 -12.6577661613318728 27.8397674093306620 14.0720406651081813
 -15.3303388208944380 29.7710511234329509 17.4560860918713843
 -15.3484323984172573 29.7694266842356399 14.1031157417153175
 -7.2261950279937359 24.0007281274063260 14.0428856506022299
 -5.1499821176608593 15.4541341994343195 17.4437286017566251
 -1.2022518238105748 26.7696216995022276 14.0890039014496544
 -1.2081077750553635 26.7419811585511624 17.4437286017566251
  4.8307908862253646 29.4876541945382833 14.0745627766302199
 -0.3867692811423633  5.0163922355887198 17.4289261924041448
 -0.3758637044293284  4.9895460473418503 14.0720406648465648
 -0.0748502120702849  8.3102458855137407 17.4069866912277256
 -0.0706770223008568  8.2999511429321551 14.0453057615390247
  0.2360183530110624 11.6077122365031578 17.4056484688909485
  0.2330562733935044 11.6129442711964082 14.0428856491590111
  0.5555523859757634 14.9165823109245714 17.4080601792772605
  0.5535228899149454 14.9171333516281877 14.0476833418806066
  0.8743300947882658 18.2237450496590299 17.4010024851861473
  0.8788223023434591 18.2176177144487319 14.0392145163040851
  1.1858078142352542 21.5166963504795632 17.4010024845354145
  1.1888681384635909 21.5236503838867570 14.0392145162426374
  1.5005487401907818 24.8073096668164617 17.4242979698657372
  1.4919668897663598 24.8298811307956129 14.0672242984701068
  1.8285291773365631 28.1128050832392269 17.4517063146967288
  1.8108727376819387 28.1247306610954553 14.0981113646221079
 -2.7792486829515801 10.2232969170031183 17.4108513783119037
 -2.7934990649632225 10.2239456878346058 14.0508875318608464
 -2.4545790062392334 13.5244428443234614 17.4182710972326618
 -2.4815305874871427 13.5242119351768668 14.0599700692920067
 -2.1311348240583952 16.8359738971588939 17.4122216642811303
 -2.1527504602880443 16.8253282155025232 14.0532188256256294
 -1.8217105254911772 20.1399683181490765 17.4010024851837102
 -1.8292630570532511 20.1391416198399504 14.0392145151812233
 -1.5208231388021047 23.4366628628673013 17.4122216644415673
 -1.5192347517629927 23.4607053953461815 14.0532188249365948
 11.9824595859984786 13.7991300404532833 14.0893558793608324
 12.0099345435009219 13.7960766625273230 17.4440861889216876
  5.6392165168048169  7.7636026855374167 14.0476512161426701
 18.9745808100957696 26.4785087312921270 14.0849648601677035
 15.0078091190620935 15.1740743857948353 14.0591931249137811
 17.0961182320345380  6.6644264920231997 17.4145601962720917
 15.3515873326814791 18.4897366099209250 17.4055363065775275
 16.7892953018181252  3.3398932678033857 14.0893558775407204
 16.7782021245339337  3.3652139673046073 17.4440861887686616
 15.3362494793866126 18.4803030950834568 14.0457033570082448
 16.4560736619118053  0.0510895696267272 14.1083361141180603
 15.6542207476076243 21.7882304808027349 17.4030419165893235
 15.6513465047073694 21.8005774726353074 14.0417463965798568
 16.4471919900186165  0.0505754700039288 17.4607424050519526
 15.9587343386044385 25.0875287546932313 17.4273873396287016
 -12.9673106430611771 24.5423589082246281 14.0550837275540772
 15.9628335925287992 25.1175792068836685 14.0705576214285379
 -12.9558764256035381 24.5373820006709344 17.4142279550799195
 16.2808843380545909 28.3999702222812367 17.4560860921335248
 15.0341341728919851 15.1799464929187042 17.4175541428889566
 17.1041557732465037  6.6430167675996676 14.0558380440582837
 14.6856182125561130 11.8748911216569173 14.0558380441274746
 14.7081783495034877 11.8711469755090491 17.4145601961321717
 18.6652621482265424 23.1779055028281213 14.0511341544561343
 18.3620367211788640 19.8701880571450289 14.0353729300041188
 18.9884780238153041 26.4578556544745496 17.4400945034041186
 18.3565368285135904 19.8718586730445601 17.3984054815273623
 13.7425131124611148  1.9921735715212898 17.4364096850921655
 18.0430484887036577 16.5670739646014908 14.0445373600179710
 13.7682920737393992  1.9812666776030299 14.0805960717814767
 16.2885243206192314 28.4164519395188186 14.1031157456003751
 18.0418000248851698 16.5717551618963057 17.4052846944859141
 17.7167706572172143 13.2663684231195464 14.0464465608159639
 14.0858838039470466  5.2724506456185516 14.0591931248218707
 17.7208679054263918 13.2606172623371030 17.4075190366376802
 14.3864568872719296  8.5787570377286517 17.4075190367918182
 14.3835248602219998  8.5723331362958515 14.0464465632731823
 17.4051990269183925  9.9571256006274336 14.0396437582628781
 17.4051990269183889  9.9571256006274069 17.4033074624637401
 14.0676358819500358  5.2923127565739385 17.4175541428889566
 21.3885437137406846 21.2435268126469161 14.0476512162511646
 18.6675240677229937 23.1607465757646729 17.4102512625504993
 21.0787837207013240 17.9476926327402531 14.0608376883158908
 11.3618910954633634  7.2045452566532715 14.0445373601055579
 21.0549950368474441 17.9592103197628035 17.4186204617324663
 10.7355548477012483  0.6076947115650713 14.0555050708943376
 11.6793642282760661 10.4901990910071454 17.4253850601790887
 11.0583855693420912  3.9037739861681526 14.0457033554638890
 11.0425469793058220  3.9123402004869434 17.4055363065776056
 11.6632382363026821 10.5052901331302824 14.0684504964208230
 20.4258230944034445 11.3534689124227235 14.0558380441281763
 20.7297716105107419 14.6493072489509064 17.4253850601672227
 20.7509038337867509 14.6557272477427123 14.0684504970012316
 10.7221457281187771  0.6077760733288335 17.4143857937488598
 21.3758930760089463 21.2519553088770792 17.4079153474823762
 11.3584612914504284  7.2011234562063375 17.4052846949512343
 16.2945183825828508 11.5213829227145155  8.9988297463711273
 27.2505311058492268 12.3376588627983317 15.7731137894616431
 15.9729929859574060 14.8298802635177278  8.9872335254816278
 -0.4103840355067229 25.0092116353980067 15.7488586372751005
 -0.0868463309576951 28.3117607039603492 15.7828067808945605
 28.3724515306274370  6.0052327633011293  8.9921731808666419
 16.6058527701953871  8.2131192861170739  8.9988297462555025
 15.4975129868056065 10.1341091725792012 15.7231970576895819
 -4.6952902809762831 10.4060799580984966 15.7406812708953030
 16.9153391974097076  4.9080505378442227  8.9682469713192710
 17.5718146623922173  1.6058074469464225 15.7828085634410478
 23.2878677860176992  1.0427465768314292 15.7385227239796173
 17.2388769016303094  1.6055014693874479  8.9342988216130781
 -4.3750455736764753 13.7049875606834544 15.7574636501389342
 28.0666378025091845  9.3151660122123321  8.9764243384278330
 -11.5261049476402917 29.3984340443443521 15.7426722932338166
 28.6830581114282239  2.6979677893719884  8.9823446113086156
 24.3890661366860826 17.2918341732521412  8.9441100715112292
 15.6531730642775511 18.1333714447386996  8.9895183679878787
 31.7041402211557468  1.3192554193385055  8.9482508054282164
 13.2775016721922743 12.9058941885816019  8.9682469715065682
 -1.9817108671462640  8.4862708761411003 15.7249324277049407
 16.4516756352696270 20.0506494168250775 15.7145751223447583
 13.5951662229577330  9.5931558786195854  8.9900087976079810
 -1.6725501677705921 11.7838907283282950 15.7275872411139339
 13.9013727233084090  6.2804214540312415  8.9872335254807965
 26.3074494549307900  2.4316588137833892 15.7191463262756752
 17.8966939164226915  4.9105967749454402 15.7506229870169339
 14.2153417613925246  2.9718224278261309  8.9596419584217113
 -1.3527302466180693 15.0873819094753010 15.7298720830975451
 16.1347269518637724 16.7411836312916797 15.7251828983867981
 14.7101227022057461 28.0259684221831691  8.9488733212421501
 26.6232087611946682  5.7361391727764666 15.7145751231519863
 -1.0312048499637188 18.3958792506573303 15.7182758626904580
 15.0341840184917412 24.7270020850179968  8.9744333147999207
 31.3817947766655543  4.6255465882655766  8.9744333158093070
 -14.5506098142154467 28.0244478041614933 15.7688548052539499
 18.5123143166876183 11.5207383877675706 15.7231970586321950
 15.3440123652989904 21.4309912972364138  8.9921731799470948
 -0.7198704621984444 21.7041428872644282 15.7182758620538632
 17.7363434409505629 26.6593070135123220  8.9482508052958636
 26.9319873997975954  9.0377562504769173 15.7378756895245804
 15.8118912605734092 13.4349240027803543 15.7304835340439126
 23.6077577406312251  4.3538466988529487 15.7218889716081236
 15.1899911447259797  6.8383813981718164 15.7304835340439411
 -11.8460688224318478 26.0974701348567635 15.7347609974878964
 20.5933213727914755  2.9740666240432683 15.7557026457160596
 -8.8265900475230943 27.4821094320285866 15.7249324276948688
 -6.4306325621080314 22.2574333228394998 15.7277710523573351
 21.3695504874955873 18.6645967013134744  8.9766784724176159
 21.8586443237591475 16.2096500308766807 15.7557026433935263
 19.7808775426198835 24.7260718280250877 15.7415685622684087
 21.6935226862492812 15.3588522500633395  8.9605031261581587
 -6.1253478323953656 25.5655584862799827 15.7275872408538646
 25.0495776603248679 10.6872797615512933  8.9596419586467135
 20.9083712886503648  6.2866778727304951 15.7294486881964293
 25.3620486169655912  7.3863016701199404  8.9895183679878787
 22.0227562112438058 12.0574320744079273  8.9682469714016957
 19.1565015432620989 18.1303384658657514 15.7218889715291184
 22.3412313721000722  8.7610750845550722  8.9872335254816278
 -9.1361146099502140 24.1807729785132501 15.7215970439564874
 21.2137146753143710  9.5980714011555754 15.7304835339473055
 22.6497705510310929  5.4678547566364948  8.9893345565416887
 -9.7645017136812360 17.5792845253351082 15.7729955370843626
 24.7210787499046063 13.9888984805516294  8.9342988216130781
 19.4713192255802880 21.4294340154619469 15.7191463254695858
 22.9639144729000577  2.1701609765559304  8.9766784723018613
 -9.4435911110531325 20.8806430485602910 15.7404271372912969
 -5.8071969037308291 28.8722335985706557 15.7406812709429200
 -4.0482215600278035 17.0113679846597741 15.7488586373767614
 21.0606105746178223 21.9741338778948645  8.9905683391247688
 20.2653094257454711  0.2415649803124454  8.9441100715146575
 18.0528845587023881 23.3536169745028204  8.9823446113201637
 21.5298737467273291 12.9060370735480081 15.7506229857822362
 18.8323138713801548 14.8261856376116707 15.7294486881988540
 18.3578158815935595 20.0483792045495903  8.9955085650065119
 -3.7305570088675402 20.3241062948609041 15.7270968113545244
 23.9156016595330030  7.6653576769862273 15.7251828983096384
 18.6707358603863405 16.7436931943238214  8.9893345574580987
 25.9845276991423049  0.7829422000486630  8.9905683396065328
 22.1839433409081650 19.5088556997224742 15.7385227239302257
 -12.1552644253248410 22.8029614499492226 15.7265372698566033
 -6.7427185374690675 18.9472026681188552 15.7566024838246044
 -3.4243505088476480 23.6368407191618104 15.7298720834049863
 14.8740170917964942  3.5411319050187076 15.7568270365389065
 24.2272035244535253 10.9730545905529109 15.7568270378228714
 19.3152259280748950 10.1368745930374295  8.9988297455050823
 -3.1103814710351019 26.9454397454354577 15.7574636501389342
 19.6254224541890139  6.8395252645179330  8.9900087966914306
 25.6681725767610871  4.0865084023999598  8.9955085641710379
 29.6467872406318484  7.1120431623751585 15.7246983550345121
 19.9390696995976704  3.5424650474562736  8.9605031258055572
 24.5543448858975424 14.2770780505266366 15.7828085643724254
 14.5441352668734503  0.2405512803237972 15.7731137898522906
 18.9950084030026858 13.4386956589542983  8.9900087976079810
 -7.0700818035544408 15.6402853214003574 15.7828067811016428
 -3.5774046446619923  7.9360689777279285  8.9924072538177668
 -2.2915392135721939  5.1902600879793148 15.7426722937658763
  1.5065906392280313 15.0910765359289538  8.9876569203743006
 -5.4801156049409565 27.7508926454034714  8.9792299195561665
  1.8307783110480593 11.7869237074200441  8.9952166374196612
  7.3953555176317787 15.9283636926271264 15.7828067853023306
  2.1455959932996955  8.4878281578866712  8.9979592833160620
 -6.9047925256957141 12.6240955146460898  8.9439918181818285
  7.7238544275620633 19.2299824117953726 15.7574636507933370
  2.4551543100418023  5.1911903455330277  8.9755370464174700
 14.0560715447278106 25.2917155848826276 15.7426722933002896
  2.7751134180811379  1.8928143691110968  8.9482508052958636
  8.0363253844904108 22.5309605032076448 15.7275872408060309
 -7.2362856996104155 15.9287708688506537  8.9342970460266091
  7.0633429035554141 12.6254280000675987 15.7729955392405117
  3.2675981409198345 26.9431955492530975  8.9614029659033072
  3.5826480572258390 23.6305843004144123  8.9876569203743006
 13.7483185876808705 21.9811931955387863 15.7246983559463978
 -7.5620918483398407 19.2296020255369804  8.9614029655132867
  3.8879914426272220 20.3191907721500229  8.9866220748383672
  8.6588044665636836 29.1343199731158293 15.7265372691515495
  4.2041505143174671 17.0112251002078807  8.9664826222465361
  3.1046602890756572  1.3195296296513326 15.7682322864704467
  4.5329210919820255 13.7076121424050843  8.9614029630695882
 -7.8743854355295015 22.5300705363502445  8.9952166375651839
 13.4380020537863114 18.6672510229670259 15.7378756892294813
  4.8582201085618211 10.4084064739846500  8.9785828850942782
  3.4270771494483356  4.6300504328745831 15.7415685626989834
  8.3424493443810466 25.8307537709499755 15.7215970438351142
 14.3784169897914964 28.5980067536528573 15.7688548054409843
  1.1865910841026597 18.3965237855592072  8.9939085497537370
  6.7437859542753031  9.3197745252700006 15.7385227239302257
 -2.7815879651863673 29.6767108927313110  8.9439918183780627
 10.0894375328056096 13.9884913045931345 15.7828085627590387
 -2.4517061407297760 26.3761302681736041  8.9602785700644088
 -3.8877211787215353 11.2500111503315630  8.9792299199293151
 -2.1357320875804677 23.0788807748262599  8.9866220752569319
 10.4209307080123921 17.2931666588485484 15.7731137898533547
  9.4513377968337160  7.3871916368304005 15.7218889694992381
 -1.8282102453137530 19.7831530009316694  8.9939085506819989
 10.7409145690198002 20.6020961610292019 15.7406812704068351
 -1.5138319712654902 16.4823381705875995  8.9866220751675261
 -4.2113467685926453 14.5600718680097252  8.9602785702904200
 -1.1909962801108809 13.1760785419134585  8.9919227106113340
 11.0467282984420514 23.9120294099500512 15.7249324276943572
  9.1407126842930388  4.0845882122327453 15.7145751221048009
 -0.8740475969779427  9.8666127565215973  9.0025304867986495
 -4.5366938141812954 17.8625192187492772  8.9664826224893197
 11.3573348803283842 27.2192943836895722 15.7347609974887277
 -0.5664041647295296  6.5601940508755519  8.9864071038794293
 -0.2506323743394576  3.2567087520049847  8.9488733221500087
  6.1234483737328498  2.6978058872612860 15.7306985041277851
 -4.8508113120910359 21.1587488821396086  8.9876569201133432
  0.2460914299945845 28.3114547265516272  8.9342970494481708
  8.8204912525391048  0.7781404441171224 15.7246983559320714
  6.4368284002334653  6.0102839726123971 15.7191463262756752
  0.5709706836722352 25.0066653989951071  8.9664826234796973
 -5.1604547630631208 24.4524266794815333  8.9919227103513322
  0.8800465453804271 21.7007329313608111  8.9939085506819989
  5.1704588070681350  7.1143007233648801  8.9905683379296431
 12.9506776584613288 16.2122746121942143  8.9596419584217202
 18.2057697773792100  8.2165292416596483 15.7231970586321950
  5.4796544094473925  3.8197920384146640  8.9823446112975223
  1.0320926493574614  9.8688829687079398 15.7215970448279982
 -14.2210629439574063 28.5977325440450514  8.9488733214338403
  9.9248078735538172 17.5796033106423089  8.9439918185103053
  1.3450126271778002 13.1735689790270261 15.7277710521911036
 10.2556414293314972 14.2769768520592795  8.9342988240686054
 11.8456076276764950  2.1663695283594717 15.7378756890489342
 -17.2462474376314212 29.9631475447451407  8.9289722100296665
 10.5830046947396621 10.9700595044902371  8.9605031255775849
  1.6692851705351561 16.4785665146229583 15.7270968122710553
 10.8950906700056915  7.6598288508909231  8.9893345567077372
  1.9895026958938928 19.7803875799421469 15.7182758629199171
 11.2003753993383945  4.3517036871006818  8.9895183679878787
  9.6062641672753113 20.8795059224599804  8.9792299201581010
 32.0358459348544642  1.8912937513385666 15.7682322867067413
 11.5185263272280096  1.0450285745821097  8.9764243383788127
  2.2996992220850565 23.0777369085729553 15.7270968113509078
  9.7636313837497752 10.6876601469115293 15.7557026433418610
 11.6819191558827509 29.4020076318244392  8.9755370455653232
 29.0076423888026760  0.5152545417355414 15.7415685627383262
  2.6133464676086628 26.3747971264047010 15.7566024844225083
 12.0071064074469103 26.1007593812926189  8.9864071036332209
 16.7593190676969712 23.3570681221699701 15.7306985050343044
 12.3210640082446528 22.8052190110558648  8.9924072537852755
  2.9395861933975009 29.6756971922640460 15.7729955393037198
 29.3328296394563708  3.8165027923807671 15.7306985043334286
 12.6304329511432130 19.5111822155209857  8.9764243379123059
 17.0750908572490587 26.6605534214693805 15.7682322878308359
 12.1652684692150981  5.4648354936019023 15.7251828981776161
  9.2974855291419001 24.1811230003320397  9.0025304881109669
  0.7271613269632530  6.5636451991428890 15.7347609974882463
 -8.1850105479997719 25.8326739609536951  9.0025304881109669
  5.7996182850121940  0.5188281280331870  8.9744333155517264
  4.0438272550896306 11.2526654722579718 15.7404271364595783
 13.1143764637176901 15.3571903053273342 15.7568270372728811
  5.9621445536091739 28.8745155964313049  8.9785828847428171
 -8.5052319796656537 29.1391217291963578  8.9924072529083769
  4.3677994534310631 14.5584099229763542 15.7566024835895533
  6.2820345082790405 25.5634154741587949  8.9952166383469816
  6.5898784274903131 22.2519044963473185  8.9919227106324691
  4.6970329789408884 17.8598300984471763 15.7488586369651369
 -10.5819372780698213 20.5974876480166564  8.9785828844407902
  6.9014802923078182 18.9442075830544674  8.9602785704820835
 12.7890294180460788 12.0547429549256062 15.7506229855487394
  5.0155081399490102 21.1561870890181538 15.7298720824718306
  7.2286216535860861 15.6401841229748637  8.9342970464838860
 -10.8888948320464323 23.9069782007801592  8.9979592835362983
  7.5612215186010836 12.3379776477491934  8.9441100715744355
  5.3240473186527968 24.4494074167097928 15.7277710521924057
  7.8821321210230408  9.0366191239927751  8.9766784724122903
 12.4749119200646188  8.7585132908935712 15.7294486881988540
  5.6381912406338515 27.7471011973920980 15.7404271362225767
  8.1896086224318534  5.7364891948889740  8.9955085641461245
 -11.2022748588327943 27.2194562857917290  8.9864071038689879
  8.4991331850066789  2.4351527414829026  8.9921731801001084
  0.4106202087646187  3.2579551598434113 15.7688548055127065
  8.9817262225901935 27.4856033593773574  8.9979592832018191
 -13.8986460826927729 25.2872117406426895  8.9755370464174700
  3.7348873424357127  7.9431282952148665 15.7265372696272792
 -17.2462474376314638 29.9631475447451869 15.7881333984537662
